(written by ASE)

4004 atoms
4 atom types

0.0      48.780000000000001  xlo xhi
0.0      48.780000000000001  ylo yhi
0.0      48.780000000000001  zlo zhi

Atoms # atomic

     1   2     -49.903500990976106      37.172681581845218      79.161260162809043
     2   2     -8.6376576430370555      10.325426455313798     -73.560334988987634
     3   2      29.524519167297022      45.068362369676358      28.926104210984146
     4   2      8.2892275761360086      71.601489904729817      24.601185945793418
     5   2      35.310675321638605      40.530353006195206     -73.886790841729507
     6   2      30.019210796714631     -30.274242851756949      18.403553240259331
     7   2      16.063846119887739      22.293050590581998      12.684277666505688
     8   2     -33.996451980061039      67.965178988485349      68.378475392245676
     9   2      47.597141477808698     -15.334652964050971      3.7189506725924573
    10   2      4.7659550351412383       28.77948632015293      90.138018362022777
    11   2      20.623060882132616      1.2365126141296003      31.096634834491169
    12   2      11.275439253474721      22.052075117980188      10.171277484692119
    13   2      31.384453604951151      23.364836120263522      14.269812326381679
    14   2      26.426803145335469      33.736081650782658      132.64970556432888
    15   2      36.969477626353545      52.069982241650912      102.49290178601736
    16   2      6.3345507906618197      5.6592047378184862      5.7546148181911381
    17   2      7.2655278177393976       49.19649953079054      106.87666281150574
    18   2     -47.161626364552433     -34.203947236042737      12.690072038202059
    19   2      33.487624142458081     -39.409398803903812      63.155219013776033
    20   2      13.311192298299874     -21.342049173507743      24.505154662810117
    21   2      44.304345466025566     -12.322576487887304      14.185454266300932
    22   2     -37.689184221311869      24.157186358355446     -5.9013386180296044
    23   2     -28.392161008009115      12.391313629894054      -5.083206069907626
    24   2      69.236893391622445      56.384293677389344      11.399066426793645
    25   2      15.720277891311197      63.910666814996183      -8.945460231376849
    26   2      11.804581372591128      43.193158624279867      62.759584177738112
    27   2      54.078752401249979      31.833858432971862      17.487771519786943
    28   2      4.5261438707463162       6.263538203461791     -26.164778223466698
    29   2      70.908646090267311      18.948711511600219     -15.534044728498284
    30   2      7.1130617058751584      28.432220247903459      16.049992608477996
    31   2      23.103393609967103      -5.776899252635916      12.288151996987455
    32   2     -5.0462140869282512       52.55123750843012      42.248433077306352
    33   2       20.17261346000091      61.790743206268282      30.212136254280818
    34   2      7.7114582654392336      20.611853022776611      68.922114289422979
    35   2      60.608957344566583      31.571976805475156     -23.522714255450595
    36   2      9.7926234487691435     -2.1077712061029938      9.8909103258439828
    37   2      30.355590717082816      35.599760065943784      9.4639218840837405
    38   2     -48.841294014507206      16.251857212388668      41.849410186625946
    39   2       61.90577524847356      52.451257248567174      51.111150986722159
    40   2      31.666333782147309       1.430520067589703      76.541857380203311
    41   2      51.126890698862063      14.010080199448479      79.806379996703768
    42   2      32.999008514379369      42.942441279333352      31.925385530328729
    43   2     -1.2128065316960566       6.758337119541153     -41.940051786901236
    44   2     -2.6327748758175864      11.177364387835688      62.399540266204141
    45   2      32.851429308419917      46.363993769005447      2.6681487079121888
    46   2      20.921690583578599     -16.452344981197655     -4.6839299766008216
    47   2      7.8336807008658704     -27.679843087101997     -20.314892346928886
    48   2      10.091647600172131     -3.1869631984323665      76.689914015155409
    49   2      63.756751193091468      36.798201509871546      6.3844591732672251
    50   2      56.019168845052526      36.639980076862699      1.9100750299070766
    51   2       29.24519173448828      6.4515721376579407     -7.4909677743702732
    52   2      82.467078818093768     -9.8717113889548038      5.9475873766860117
    53   2     -6.9851400863584061      27.518526007578473      8.8483243454683098
    54   2      50.160164591611185       12.58600394874828      53.054399175591961
    55   2      33.728078757071458      19.583632959937749      36.013133400051892
    56   2      6.6273935768967869        24.9663738973939      42.061687083665618
    57   2      6.2953649652503323      3.1953735862510997      34.751921363748266
    58   2      32.747924840472479     -28.950995373909667      20.793170452843402
    59   2     -21.821335526615865     -30.281616157500789      82.100316676239188
    60   2      15.896110022299158      41.385973843890376      51.659912077614145
    61   2      66.566616837743311       6.888185866690681      43.223075845416048
    62   2     -1.4818299342734709     -11.288887080410886      34.986959213254281
    63   2      18.782749667324222      29.909002759373507      12.619874489082671
    64   2      16.998709433219211      103.57169138669573      46.793846317806945
    65   2      14.254356775524984      22.280726841357232     -42.036417851580062
    66   2      21.569214882999379      25.321381998605172      46.639035657404207
    67   2     0.40440618098312692      27.065987484306927      40.064715136223228
    68   2      31.467864509928944      13.200889372700095      12.649749513391855
    69   2       42.43714254017825      73.473927424759282      23.115133355088552
    70   2      55.748332492941522     -9.6813962212714912     -20.059876112687228
    71   2     -20.392313208752665      109.23954460875198     -10.906585983577166
    72   2       113.1567382484411      73.974263815991222     -47.756227432299411
    73   2      21.304265091107666      20.276885002169404       17.80202741153499
    74   2     -16.172018680788561      27.397007425194019     -9.4314624118113723
    75   2      31.948866301054167      -32.78099721794792      69.100999816373715
    76   2      14.078518435578992      9.7056103190189482      14.726242765467875
    77   2      45.204168744885067     -87.462366665081987      -1.275660711396432
    78   2     -3.8505321704950766      12.342644902483638     -7.8146447455011474
    79   2        30.3485353862383      34.070844686984252     -30.849839636835256
    80   2     -16.972305540704181    -0.58897458872259301      19.570304162993438
    81   2     -9.8030037535045871      -20.68965654888915      47.746552581055816
    82   2      82.218532254102826       56.35884457291862      31.237685672672484
    83   2      71.711731972348474      52.811504311635929      13.804748048319999
    84   2     -15.105053013400093      9.5958468311980631      38.150348940885266
    85   2      86.148078684703208     -31.570532756994901     -45.582605948619886
    86   2      41.914918497867653      22.573336621471203      19.304477455291558
    87   2      57.970398403866874     -13.637954250479321     -3.6323180984471186
    88   2      59.431230469798393      77.641994284868787      109.42799551414129
    89   2      63.655377148329549      1.0572180910251203       18.06321306082905
    90   2      29.071726057899347     -47.575762784949319      31.015254021863903
    91   2      56.803685759367745     -20.703922071664302     -4.3666972829563049
    92   2       129.3864706393953     -12.090634695887058       20.69713900931848
    93   2     -33.871336378698651      85.161723397599133      44.530049556767359
    94   2     0.13716367655163067      12.439373533955999      16.332793459087171
    95   2      55.396524102808769     0.52272408652544211     -22.401640858289731
    96   2      11.888746430419573     -20.782821981165242     -18.737580978907218
    97   2    -0.87317975269846715      37.186743906996881         25.899989319924
    98   2      41.516509632204325      18.702264193305275      51.881940555778222
    99   2      10.298344374776869      13.953538521390415      37.476600515426767
   100   2      14.843027118023418     -1.8084080692170266      8.0149476901206569
   101   2      25.830037654516822      36.143819044043816     -27.390893617664808
   102   2      15.807991300952287      76.080866446042776      27.543213829908531
   103   2       85.49098226956248      40.043498074328021     -14.479442234758022
   104   2      2.9500488960983113      24.979103953893659     -82.541919221603138
   105   2      44.207212876889855         35.795380836945     -12.799787154304925
   106   2      17.388396118738658     -27.953741465226102      37.063524683482171
   107   2      41.908588991687211      105.34310880190932     -13.239618985064707
   108   2     -8.8246686378736872      10.096030447373135     -17.622680346618967
   109   2     -28.354047051441238      96.095361685550017      22.660276456800037
   110   2     -19.797528256798273      41.613364004726613      81.657433170883863
   111   2      76.415820318685988       63.23343225781813      20.867684180842694
   112   2     -39.621184618753603      15.513694119437435     -42.191110133549927
   113   2     -22.268860935139834     -10.519148566365892       3.638169978512094
   114   2      8.7545514277767609      43.007425244147569      59.800341984489691
   115   2      17.476263069882503       18.88143888384257      65.032392740096228
   116   2      52.755834892281548     -5.5513058573027321      16.831345256618505
   117   2      23.133918526540437     -4.7312236284218097      56.552663281895391
   118   2      101.70955951550907     -35.130211711094461      22.008338011197669
   119   2      27.150341879272098      58.737330974404799      96.695893780301574
   120   2      57.823589154685934      6.4101330810632398      37.801653597650692
   121   2      8.7085120858392795      52.884616335666628      67.450509773699991
   122   2     -11.195610810236751      64.701292423793049       -51.2549808354646
   123   2      99.771422565129043     0.92621594548867725      85.452595922165585
   124   2      18.109805714385566      22.531207987569513      81.031719305152222
   125   2      36.707197924330679      20.897761354563482      93.350901903189438
   126   2      86.306009551337965      2.8670729081274171      44.579536942634185
   127   2      15.947703926390128     -6.7867892738818325      11.966166062947662
   128   2      35.459561730566008      35.939662833891163      34.608480162482778
   129   2      107.96239782119257      96.695186746469275      51.112912453196628
   130   2     -26.557228738591576      47.353815811749847      53.528083584763202
   131   2     -19.457320100733252        50.1853769314218     -5.8209703942757249
   132   2      33.029233495063188      33.895162819658957       -8.72676789037296
   133   2      38.061164957793018       30.96882899571154     -22.003711651452409
   134   2     -21.949414024964394      -2.056479220488209      44.394408331837361
   135   2      10.375780058330934      61.093874733681631      32.439908034742551
   136   2      38.636462975031456     -28.197218765075757      4.4344117054908514
   137   2       49.40597802049728       52.43947261908189      97.639834646045131
   138   2      24.617295299718965      10.790551382010905      53.357238845323067
   139   2      12.170465018946178      22.741487532512533     -16.959545531326924
   140   2      16.603990982443207      73.732164287910408      64.303562992783782
   141   2      17.553878094868292      33.159517487423805      80.876986329076416
   142   2     -13.241494930301211      9.8944249991181579     -5.4405750682615741
   143   2     -25.102789040852159      75.790717106989234     -9.9936216486985927
   144   2     -29.299905702177263     -37.731006966074986      64.184766567361905
   145   2      64.935929095976505      89.105801789231421       31.34383824876619
   146   2    -0.74068056593239673      35.928694716565573      13.740241022649052
   147   2       50.54577305750913     -41.941129716645293     -16.990347594176761
   148   2     -18.759720357413546     -5.1538910099658786       61.62488511062972
   149   2      16.746559991077408      7.8949118319553611      11.760728121857102
   150   2     -5.8230248673563532      13.818768912821897      54.267015595179217
   151   2      19.440269210447344      8.1693602221790602      71.936325005743413
   152   2       28.52721771211618       15.46055895691938      16.122503424494038
   153   2      34.502383436746811      98.567389446766882     -50.837809532473791
   154   2      19.760741668075106      -21.12259962460589      26.221577211981337
   155   2     -5.2132836727477176      43.024024741290198      10.043096553497545
   156   2     -29.091437642889108      24.785719443548857      53.199417723179359
   157   2      26.686608151466416      31.757604205086764      2.3575953943302057
   158   2      33.228105120454472      19.252054541531653       15.53110988939925
   159   2     -3.6949685898147284      29.128796771161955      76.745440355304098
   160   2      51.731259081886989     -8.9045593120373372      26.264957514140242
   161   2       24.77792626224883      29.452882417105027     -39.897792903991352
   162   2       79.15282215163019       25.64923761839038      9.3242743190314723
   163   2     -5.1978248433799488      56.073522383221537      55.825936250668271
   164   2      72.738536875823158      47.566252441173866      106.81706401562877
   165   2      28.437440272575021     -10.387291063302429        18.8791946982019
   166   2      21.037853234495152      30.253907747461202      32.481742075952425
   167   2      91.292989633688435      29.265495171107926      2.2988083370003665
   168   2      6.6018698051956628      34.859676447765921      15.417014010425113
   169   2      90.009266092745435     -2.6654548549111423      11.798915083305594
   170   2     -8.7025282348907371       6.255430651699136      104.03077115301203
   171   2      58.793205873291548      20.511522991199644     -1.3012074580217017
   172   2      24.667257393156167      28.929550311786681      -29.99182445515952
   173   2      31.596964267020493      38.632118826442174      2.3708462491141162
   174   2     -37.492229205061285      9.8441296615273313     -13.506592585634795
   175   2        22.9392229319722      69.880418043211193      52.803025296445355
   176   2      41.625433092594527      -7.473226687987327      51.445222286229949
   177   2      64.806798086354107      13.077927234055428       -3.92366318477618
   178   2      12.664183025901853     -18.243319404891171      2.2658886624269421
   179   2      8.9197436492777005      64.687950170705946      27.499422637429841
   180   2      37.024215901980753      21.845438056347533     0.48164937650742673
   181   2      55.396483917014315      46.080696577141815      1.8532081407917438
   182   2      33.062254314153741     -16.873312242728506      16.113967096511495
   183   2     -41.675574970807659     -38.943744304731851      10.572913426913763
   184   2      7.3412255921915364     -16.201008265214867      41.189435824304709
   185   2       64.37761369044199      63.462714048843139      23.692561936009433
   186   2      35.884337044783592     -12.652138834324063     -25.985485274448386
   187   2      31.743928620016295      57.339995652874016      76.484266577115108
   188   2      29.975395433779404     -7.8968336205037151      38.733113298805634
   189   2     -15.934372422380477      3.0359862960354764     -32.944192249289159
   190   2         25.914989622356      43.321335879154418      39.485292653407072
   191   2      137.19648970254033     -2.2186749232123084      16.974447833940321
   192   2      62.557703905872543      39.917449548665161      58.569382592715307
   193   2      47.911009371405349      56.395713521351176      36.165440583806792
   194   2      20.756621002633327      23.173956420051365      109.36468735806201
   195   2      63.820787631768233      64.108360090618078      -16.86049407234178
   196   2     -1.0839732979631371      62.109982297401686      45.335533289646591
   197   2       14.88718583780094      2.4685306078407709      6.9328414727068335
   198   2      7.3686644295755475      62.757542087269165     -25.903367024225361
   199   2      21.266831363740007      0.3439798536954296      64.396392363474632
   200   2       73.40064164012496      25.011508410698418      7.4046942604009338
   201   2      2.9665147383421697      -12.23826200246951      22.934259367877583
   202   2      75.849839782578115     -12.919690713472679      7.8744049200901349
   203   2      37.565875241388227      40.617411940894094        4.58330440744116
   204   2      61.980297533271276     -3.0266789964451517       12.82977720589086
   205   2      7.6644367907186295     -19.993347529244847      38.536543670082366
   206   2       13.71108298161044    -0.66375183292048412      41.800525919058408
   207   2       35.54847725417946      16.775087037845289       72.39009926102878
   208   2      4.5802852860360543     -28.498325135171044      17.390772765186043
   209   2      64.910200588276638     -11.866391565815693     -38.715138951736748
   210   2      101.39229473682258      7.1362823012968812    -0.64809814514875685
   211   2     0.85642403656267785     -57.018748758801806     -10.119734923225517
   212   2      71.390512643526108      2.0565712448490547      76.616046404032687
   213   2      17.208321464978606      44.993710177377366      23.995608051791212
   214   2      28.751853669245186     -2.6181943139277699     -7.2813327658154474
   215   2        66.0492193923385     -8.2286316163719047      71.598943568935226
   216   2      43.519717452607608     -2.2588243992372257      8.0442312141064374
   217   2      -17.39296245260487     -38.945600942345472     -38.347137413362738
   218   2      1.1604993879282988     0.83564506654979942     -16.611622112449069
   219   2      25.291250568686674      88.869931171709467      40.940300401824899
   220   2     -26.944539039046116     -1.6760882423377887      -1.755022122982165
   221   2     -43.868946240039939      18.059224496374366      21.662276550012177
   222   2      14.764214751849446      37.715843976388328     0.67011649674609375
   223   2      64.801654060430664      12.774245484033793      14.824132021295508
   224   2      4.5025509554291592      47.583483963068439      12.944388824824257
   225   2      28.596714905853791      59.226966585891155      15.185205885761849
   226   2      18.470410904418571     -14.276886852025367      10.953235236397115
   227   2     -8.3107403339780674      82.410747691660674      60.084021558225118
   228   2      23.562468259921257      31.913876992238503      4.3176016383003173
   229   2     -11.369191672600751     -18.177376713524801      2.2719645409652198
   230   2     -7.7892518748731296      2.4432853489578545      8.0601035443955062
   231   2      12.099390051111314      10.006429921985356      95.867006508695013
   232   2      37.706443159521157      47.917203404261549      10.812711758207385
   233   2      77.119911887332592     -4.2101361855165651      57.821676019985034
   234   2       27.92403757441566    -0.88682847448927593      2.5384948209846807
   235   2       111.4650819584087      11.181992745373151      10.646796150977577
   236   2     -6.2961687889597462      70.961173187627992      85.157769860817453
   237   2      33.121133019930653      25.647658189463666     -13.847964105530897
   238   2      6.1190604074299753      43.378609260190267      29.419797595547497
   239   2      26.030592253846805     -17.938251606756243     -2.0376636055366397
   240   2      14.214925984740271     -14.861071906743893      28.644658524412449
   241   2      26.681137461071561      20.167830521258864     -9.3547672993583735
   242   2      60.718470719055496       29.95180744510974     -41.214074789179506
   243   2      61.878890561662665     -71.725061665563615      8.4603530351356451
   244   2     -9.1883020601417478      3.3276021422535522      72.191390537140649
   245   2      70.359481311034941      52.285050918949786      33.171951470854381
   246   2     0.30314915280139576     -49.593319912354197      42.807015196195977
   247   2      67.397039625352406      9.2830123932665423      34.866648733897613
   248   2      44.654767924910281      39.204353953660899     -22.527624223058993
   249   2     -1.4461614099230131      1.4971170436103425      4.1234909742135528
   250   2     -4.0495841392419729      69.914276430501332       71.79190245832433
   251   2       62.44580561708829      9.3206366901540463      31.315085919724119
   252   2      19.832137903445965      43.444803503598543      34.448189522879211
   253   2       21.26714433102573      8.3526181295624813     -2.8036636081770783
   254   2      13.690378831391143      62.535902839429994     -29.621693184993966
   255   2     -6.7632153678782245      38.569455343157408     -5.7761274660038175
   256   2      42.374901942897246      3.4272121280059089      37.405915275534824
   257   2      56.239351579914519      25.410756157155006      1.4553577892397185
   258   2      79.517489771276487      37.393719668785252     -33.357690826439956
   259   2     -2.5765616269033225      81.384070160846974     -29.371016628375969
   260   2      27.670870937281375      26.197466645922884      25.999538031415582
   261   2     -43.555601630504832       25.40877866116001     -10.623378661808141
   262   2     -14.206164877443285      65.374977177883849     -36.558261413814833
   263   2     -54.018730362555388      10.571837725311859      17.590168816917583
   264   2      15.779297796443569      5.3855932708091236      36.070364708041737
   265   2     -40.221011376330857       26.06321126821841      71.846724191968065
   266   2     -9.5119004197530881      43.050583843434879      26.800538337869867
   267   2      44.152352958829887       21.87879007252636      31.799979754186893
   268   2      51.975250439489294      69.053005983950328     -44.683208802171848
   269   2      35.753188073804466      32.907019295562748       54.13061364413155
   270   2      40.371356191779093     -33.477571454552987      27.315017176571779
   271   2     -7.7067874544817956       56.97678169003531      99.878539242923708
   272   2    -0.42090241493561148      12.338061780178156      98.146862885148821
   273   2      20.130733549970167     -30.658186529791745      27.387372944775674
   274   2     -5.6141408020409704      45.758275327786215     -5.9014009648952568
   275   2       8.713980872085088      60.735400322590998      67.551450068345062
   276   2      2.7800001755846964      52.784362289204779     -34.599477420930654
   277   2       9.262578737445688      44.744939448608328      16.165532765088852
   278   2      10.771631892276874     -8.0232748500202806      41.401402209250023
   279   2      18.956596172484957      50.379777487808795      -27.43471272232917
   280   2      53.218727009999583     -18.512841854072668      36.852090035184204
   281   2      40.984861254447289     -1.7355169786996076      73.801493911716392
   282   2      27.559290026875029      23.245752338314684      31.453238584307734
   283   2      18.374491869822815      49.208538139702981      27.477158937385376
   284   2     -50.008369772453278      45.798001106588508      35.586863721975824
   285   2      51.096706565561348       45.54386609685978      73.166951349750747
   286   2      32.550929098199489     -24.643641064129664      -22.64137511319219
   287   2     -7.7159907762374527      132.71120179074774      26.690903517371869
   288   2      28.637823943189666      28.310874196495348      39.876802831208636
   289   2      15.817305664603433     -18.314665654751856      55.926557803824117
   290   2      57.648370853498413      8.5867903700904566      6.8362897294551841
   291   2     -24.658317224816994      40.075050950925238      9.2118061360803143
   292   2      36.386056939431391     -3.2171098219059631      32.326631445449983
   293   2     -13.685210427158605      37.441197848708924     -1.0257105290164252
   294   2     -16.669971036166572     -33.202013978496318      16.428296243879945
   295   2      22.214560792905612       32.40073197687321      85.696925197176739
   296   2      21.842751871747957     -2.4110578425688889      76.141504661738949
   297   2      37.803794457873977      68.576310694382784      76.076219802612101
   298   2     -8.8592467565738495       16.37129488408182      6.3662330787580057
   299   2      24.166455513732284     -11.983594167929722      18.137446459546194
   300   2     -2.3395630208002092     -18.984803013468561      80.695875872796165
   301   2     -44.575176914985398     -42.056823298527007      27.187781348206023
   302   2       29.33477914288013      36.085461711767856      35.479309694784959
   303   2     -4.5029382307811368      35.617508455219841      7.2844823945693511
   304   2     0.93228830728209688      59.049528352129336      11.908414701490884
   305   2      63.192893168052485      44.678498948167089      -21.50726305552725
   306   2      19.441734771965386       15.19881533831432      55.173532598936795
   307   2      17.383579560352427       39.25969885937338       46.45851538242669
   308   2      43.778848937827036      62.903440134228156      30.901885791939989
   309   2      39.370454235282068     -8.1754042097715782     -7.8063552614893315
   310   2     -24.828600222115128      15.935334584074623      30.145008836117803
   311   2      62.498696218287328     -11.887602392842981      12.828061533350786
   312   2     -9.4928991309056325      35.924783627430955      69.162718709463263
   313   2      38.940902349456138      75.688874718035947      21.135093886175621
   314   2      44.026959731355788      55.442051131236781      39.369322399091679
   315   2      79.161647598557352     -15.506838832864327      23.191323521728947
   316   2      35.158971724377864     -5.4595315895706289     -5.3266270194852767
   317   2       17.99454239079477      48.962851550701664        57.2956443583141
   318   2      41.453098945960271      69.509761111988453     -40.959599948478647
   319   2       60.56935772030053      43.877311460424586      31.140676679166596
   320   2      17.225287178517068     -2.0797249217722409      17.627620943151424
   321   2       39.52131975582045     -23.883834861766779      60.297922703010641
   322   2      14.829536999432429      91.806556741031329      39.199814731891223
   323   2      12.759835634492067      23.362583659586026      47.556828789423051
   324   2     -0.9828648793517849      20.730464036291792      102.82217062906223
   325   2      25.214622345537471     -33.428826378628756      1.8897309200619594
   326   2      36.980281922263266     -6.3887967256636555      17.519235995674254
   327   2      22.709005764715553      51.443013185488333      38.400116757014779
   328   2     -9.1872599360243079     -10.526403422398513      49.891008360936283
   329   2     -19.915082295631702      39.948510308786908      41.745231077531436
   330   2     -56.734359323687627      21.245509474549642     -24.640376545251012
   331   2      35.609892806770134      52.775258261397525     -8.5655186143672335
   332   2       -39.5572938890652      7.2745560300627758     -26.427287468358429
   333   2      36.424584270982514      48.721494992776172      25.512809657984306
   334   2      45.161370428723565      67.934465619673844      44.396767365275664
   335   2      6.5302948482627787     -60.251023932700406      10.971409524155376
   336   2     -20.501064653330904      63.646749738327493      39.321926926468045
   337   2     -18.383041616310095      26.974190515102226      21.423903816361442
   338   2      10.391809963102704      45.841991303839578     -62.536739618252867
   339   2      113.03734268821987      83.410636063417329      37.497466322016969
   340   2      40.761804085363366      17.464204886828774      33.948615552513722
   341   2      22.252418946513352      36.051703656607202     -41.242778611901372
   342   2     -9.3142990698786257      60.439548515416931      46.933025833670108
   343   2      55.888808238868741      49.908785901819613      53.982389303330706
   344   2      22.475622989143545     -9.1102267092779972     -23.460697871918686
   345   2      51.871950344782732      33.878725676466331      40.995453921175432
   346   2      71.505486228867397      32.431907559166099   -0.083845159597026167
   347   2      66.602032951514531      38.773700364547423      13.368267486607067
   348   2      36.572414960989107     -12.486680573829764      2.7521820172092513
   349   2     -13.789939934488862      17.477242865716317      67.968415033545497
   350   2      76.888670034242395     -10.867002754226963      48.560861678849321
   351   2      33.656911925601669     -4.8787626113066205      13.360317634375377
   352   2      10.078692581756281      45.556463592045901      40.535478156020531
   353   2       23.73987503145835      62.955379736748974     -51.820019151609287
   354   2       17.61028541036583      49.493776489431752      63.125204698464898
   355   2      42.450107839597919     -6.1478985345888812      40.236829826231649
   356   2      46.763011455900738     -10.576547535751519      22.102205797712848
   357   2       19.54429004860555      53.579038274387663      56.986302520616668
   358   2      25.093692393492628      21.351251396583301       61.96192053843312
   359   2      20.661472102370144      41.072066215479666      48.540791722501773
   360   2     0.34975826673094096      19.886885465167413      25.459994925302187
   361   2      7.3112265116048523     -36.076532806529841      14.544386130411903
   362   2     -21.522290275070901      3.9821773536159375       27.22905987805521
   363   2     -8.1777009890503471      27.598392401132777      30.340127767676361
   364   2      49.980765920278124       27.05013608572018      33.575147192488906
   365   2       17.59146328506186      44.900672814016453     -43.477997565953864
   366   2      12.149718847726053       50.36335581749853     -18.026855520799753
   367   2     -31.113512037565854      47.141623756268018      38.606578080482748
   368   2      44.115925940827523      7.8403901402682417     -36.456127756677191
   369   2      36.182858425561008      71.795498788544421      56.948700932204602
   370   2     -11.457582442262876      37.026898827703043      103.53588096529252
   371   2      75.858836683987889      73.010350584135978      66.732234246303975
   372   2    -0.60122345027208879      15.807458821421298      19.630691743950894
   373   2     -38.746032734514706     -29.419046585850989      14.672908857460165
   374   2      61.450850005055301     -63.893376565657832      103.74171259008185
   375   2       4.978400334206154      4.2631131211845927      87.775286659482205
   376   2      57.423766678603549     -17.367485432045509      4.9838224806096889
   377   2      38.387261974408759      4.9930225913183559       1.696727661994806
   378   2      66.699896048961946      39.607652511989066     -60.562281858931073
   379   2      -24.33788563723196      63.298261550380815      14.485374309616731
   380   2      17.664261671488951       40.99537472668289      66.086714231630353
   381   2     -4.4121800679675252      -5.820236705489247      5.9227922463426017
   382   2      21.953010126451456      39.688371450178657      44.784221474910915
   383   2       57.34704649030018      92.139618737941817      44.340613211631847
   384   2      -9.349827291261084      43.751503497962737     -4.8156828443963136
   385   2      14.043722167024994      35.013707672461415      24.218877414052972
   386   2     -3.8249953890288513     -62.746568253072432      24.254200844758497
   387   2      24.140323153022699      85.075038470684348      30.512058346787324
   388   2     0.59154067541659616      11.289275633676731      87.944535987630957
   389   2      15.038217911440947      43.531989113949798     -29.812744960734626
   390   2      6.8206862693238346     -21.581645127662721      30.092165102055475
   391   2      80.033454302989057      47.158403073998066      15.212475885134513
   392   2      -20.92891722288627      8.2277884447632115       33.85664941652994
   393   2      -24.65272597698327      14.837257817671215      33.301544713398499
   394   2      40.395911528432983      17.594324746361806     -4.3972524823504298
   395   2      9.3475718516173565     -20.275060955247255       74.92331487865259
   396   2      81.968876074142742      42.828235307351122      55.154124478987065
   397   2     -10.946760955641782      27.783538567997216      83.030256444126792
   398   2     -27.429413190512932      40.814501797463763      6.9212284922139542
   399   2      30.630423415575308      30.674586222638325      35.460529507923283
   400   2     -7.4254555402710185      71.186560432774669      50.268842446737914
   401   2      23.600933637392504     -16.840659874843436      15.004282129045686
   402   2      52.879468246853001      28.076852571428397     -40.883347276095712
   403   2     -66.157942883723962      60.451550432277635      5.7164529645232269
   404   2      61.689387144439124      70.256303783824308      50.717911925997285
   405   2      26.629642707524155       46.72997086984671     -36.867438298502108
   406   2     -2.0341102843640315      54.465616802852267      51.120435642341455
   407   2      18.915360548975258      33.991183780067018      4.8050384389756777
   408   2      74.181308729315859      46.603111112072249      30.364991840075842
   409   2      26.591928641831444      90.484343072033056      54.938077187398008
   410   2      55.535854533210575      7.6356739535023443      19.216170596430654
   411   2     0.46401793493305904     -7.0810826533620643      5.4349985353822596
   412   2      24.167102655694347      12.319382413330048      29.026456250985639
   413   2     -12.921353262012747      27.067810184612672      10.252550051245276
   414   2     -5.2685226629915585      66.805676085682705     -30.244748980620649
   415   2      32.032901662641777      40.828064436516293     -50.477147233625885
   416   2      41.459044365402406      24.264848565445583      6.5835045438418698
   417   2     -28.453300601619091      5.8882770773851831      37.140432650168606
   418   2      27.941863494196916      2.1304688497573205      17.414208478665117
   419   2      -6.263602263772917        83.2910813324836    -0.49744454201571464
   420   2      40.949308711801415     -7.2212199764963527      6.8979936076975825
   421   2      57.955915767796682     -17.201913724347346      67.990945300775351
   422   2     -13.026670430600351      15.058410756821091      7.1109007616149489
   423   2      1.8711677669356865      56.641543034778515     -31.981178925787834
   424   2      46.355159193844145     -55.512311454116656      32.090527713264244
   425   2      84.611148818523077     -19.938862693518285      6.0847287211272594
   426   2      -50.91004947310352      19.258941126335372      36.031805763685561
   427   2      39.462755877813862      32.873910090153245     -2.5475231068618238
   428   2      47.871528913002109      32.617135373801013      29.069137650535449
   429   2     -55.424891270435936       44.77191745878492     -1.0972118955712811
   430   2       35.01267824693344      2.8467471737991472      20.556643513700774
   431   2     0.74702839173364288      13.024724943433769     -13.234079393098751
   432   2      35.077614915385887      61.228993170995317     -29.881614734405467
   433   2      49.905247341852288       28.75244942631041      30.214938490433084
   434   2      62.697663668371142      40.743568620593294      35.918538772646031
   435   2     -17.689708331984171      14.269048504641697      9.0061002990665635
   436   2     -24.187094523138818      18.752567563948062      26.973360187386373
   437   2       48.03597589340395     -2.7459906684114967      56.368701849524918
   438   2     -8.0708424269763199     -4.0843304730566121      5.3750180013376969
   439   2      36.976299083641941      3.0436276974000531      65.076622204194607
   440   2     -79.352245463975848      36.715351529378282       77.07826600240918
   441   2      80.075044460836438      74.216062053654596      91.474304500414434
   442   2      14.403302259166606      36.455360902271927       20.36164073854685
   443   2      5.0799035091732847      52.357386796446349     0.32802474585133423
   444   2     -31.048554590161174      78.496263357227775      2.1239570171569606
   445   2      22.217894609687637      7.7282423659417185      54.999508227218435
   446   2      53.075251220299926     -3.4556490468800889      46.606697711290145
   447   2      6.6005290593723283       23.04568469780385     -40.995370891389733
   448   2     0.33880393174070328      19.203963562357227      31.612006581052349
   449   2       15.67506369633551     -18.394980690159326       22.11391093748502
   450   2      27.576965864805633     -25.542221966724743      49.253815353445646
   451   2      7.0591039533702338     -38.948054615794966   -0.002782581451567913
   452   2     -41.087093031430747      30.545416363939758      81.645673166514001
   453   2      92.489031696502821      34.600242788732906     -4.3925514009664646
   454   2      23.588161943019713      41.577372428675204      52.617908790427499
   455   2      21.300255991855476      81.034568682406373      28.761162169524443
   456   2     -13.102465467501123      10.623077419026485     -19.751587593304585
   457   2      36.072144252575676      15.830771791360542       16.28315323895005
   458   2      50.364032989552747     -12.194874386484644       10.00058407592722
   459   2      9.3338950066623774      32.688761698906021      58.256624835017355
   460   2      1.4969657998704804      66.637718724631085      85.142281435856432
   461   2     -6.2229660609188908      53.597537889512765       52.34080803366021
   462   2     -28.184848640251058      53.827851404210364      123.84142082545283
   463   2      109.28733295653461      33.218927502927407      13.283423028658392
   464   2      75.452374245429894      77.155908460149107      15.195388879507878
   465   2      24.303681938728086      38.677724176097321     0.18912408227003019
   466   2       17.66373009089974      -3.130462210221165      10.707242160989217
   467   2      24.945391853801222     -34.735806389647109     -7.6221620645182986
   468   2      41.679898758493131      73.178046717138443      39.181128756481023
   469   2      55.146304413624357      16.237363032108846      18.726433316593017
   470   2      16.458499812228059      -7.628478152752967      55.780140121308321
   471   2      39.509230412965096     -14.442391394470327     -10.218870733842675
   472   2      5.3923655629827829      26.579587664119959      60.264310260737957
   473   2      47.623951895507261      51.549736729052313      43.986343381648823
   474   2      37.195465822699823      -27.39333473570106      39.215909731253504
   475   2        38.7312669009955      80.844031962059645       16.46006561192748
   476   2      33.340052196130195      43.991409916034229      20.870423156065463
   477   2      20.652708387140112     -23.584559700278767      18.399262717818004
   478   2      8.9711031059433957      81.540536277973757      49.252433271004094
   479   2      -34.78870651345342      67.256235213561453      97.848537788692937
   480   2     -3.1356836022252335     -3.6331377830375744      18.952875895540924
   481   2      22.814263708190865      35.125523893380382      100.60097651026183
   482   2      107.48874103107924      38.730851576747732      44.948710665931138
   483   2      66.994386805614113      7.8753025978343549      64.639759749626222
   484   2      33.993032223344812     -0.1890313512065262      42.658160795497885
   485   2      27.948030172625892      26.577497806634433      45.269555347957883
   486   2      30.599957502810348      -2.431592340915365      45.375975621012685
   487   2      57.339443982544331      73.635829564435014     -2.5265892901641869
   488   2      42.857284742322832      42.331216919357203      44.539593502702765
   489   2      55.842297215775289      10.912867973175434     -12.537054024814315
   490   2      8.0305923453248464      40.895756062721603       63.73810793111592
   491   2      13.096298808613023     -4.7974212716915092      9.3416948705409357
   492   2      48.296630309769689      72.324259938629936      13.360834597648527
   493   2     -9.7001026596382296      12.285738410011374      8.4001909294681525
   494   2     -23.737206426561123     -57.181004265910133      21.016441925179155
   495   2      50.329795450333087      32.145770941393991     -15.656298251812919
   496   2      10.525648798517325     -10.536035987788811     -10.595646299338975
   497   2     -15.786731186894585      52.287723076991071      1.3024831181909964
   498   2      33.057852486988608      79.004839694767512      51.021458077812568
   499   2       64.16559777099674      16.676294521486049      28.154999629288628
   500   2      95.955601067594586      43.720806838750605     -4.3406287346917596
   501   2      16.763250662064777     -3.1982214690151616      42.042932804085602
   502   2     -1.5101508226425122      33.446881222817957      37.035634854604275
   503   2      23.968808688803342      8.0079173131081856      24.524354807660753
   504   2       53.85184222578318     -27.690832463216967      31.897990755932021
   505   2      23.360528745881552      48.552197956037517       68.58784974159957
   506   2     -6.8658395993295525     -7.4824889566519088      79.947019332066802
   507   2      19.565363850457029      45.847322572509896     -34.565048815662124
   508   2     -36.674797046280524       13.81759388064329      13.607870588390924
   509   2     -14.545260966967303      61.570822354849689      58.902070963123492
   510   2      30.986924231829708      67.654167267376494     -38.910297079558809
   511   2      51.733257355495034      4.9703233915690461     -12.099206814464841
   512   2       95.22900943446983      -53.29875625891961      89.508710641509836
   513   2      41.866796190264651      69.743379211841201     -36.148492567870626
   514   2     -20.466823056935745     -7.7052326053488462      1.9852389131467836
   515   2      55.966954603368094      84.963855464410344      34.819827412483477
   516   2      49.844951635485977      66.604805737205709      49.333744393526281
   517   2      36.211373596178376     -8.2291979297191045      9.3035274144985305
   518   2     -6.1159625615798685      79.364599445845229       46.17255722350739
   519   2      74.089939104208341      34.702118624567134     0.39336668692789822
   520   2     -1.0057289229442972     -16.276803131734731      -1.723086818070672
   521   2      13.460748192243027        67.5102969677163     -4.8679249508499618
   522   2      51.788432652717582      51.121092173535104     -5.1847489627782419
   523   2      23.216975687560812     -27.155218927620648      41.795163441895454
   524   2     -20.657487372743311      7.7694393547826452      6.0682641045165431
   525   2      86.747691088877417     -8.1750928910982257     -3.3756864628216818
   526   2      35.257230173774886       52.33523399369011      82.543414703825292
   527   2      60.480980185538648     -12.921155571963135       83.24502140580131
   528   2       33.78019360057408      52.736616790614875      56.226098927081978
   529   2    -0.41244164853502235      48.514612600971446      72.720058711584471
   530   2      72.908645441667744      35.533222105465306      45.808923738824184
   531   2      56.094208016111864    -0.68095350575701941      21.612152098544367
   532   2      66.240553250239174      8.9955857309018139      56.730088745345412
   533   2       11.21242546436979      -3.090363575152987    -0.89344347759525022
   534   2       63.66962218514017    -0.16397441194798101      60.128954756190488
   535   2     -32.956844334827132     -84.772176366003123    -0.55086819266450415
   536   2     0.56031789608713922      58.627184600650274     -2.0446358727317224
   537   2      54.171028412680741     -17.116111540493446     -4.2507973473234024
   538   2      15.621709333982551     -66.305671397862625      74.537316887483271
   539   2      31.570429316904086      41.934096780587872     -32.405504986228202
   540   2      44.029808578553528      49.754879531166203      62.312123770360039
   541   2      57.863589557068458      28.889232581017705      49.930716824975292
   542   2      35.264274522524417      1.6548213909277698      12.386700102400676
   543   2      32.132935609606236     -33.345176632838616      42.951441069300046
   544   2      15.326432769407681      79.624777411802711     -9.7701503889076342
   545   2      54.459250658711987      58.232126512988287      41.595764590011356
   546   2      41.842366466515884     -4.9577470826902408      21.634730785037945
   547   2      18.083874518990914      24.543679736055111     -9.2167840905214913
   548   2      43.544964591452533      85.839832105055933      80.042550120174255
   549   2      79.343083059814077      61.536042314860715     -31.089967790465554
   550   2      63.512793890558093      10.774057584371125      22.163765724312338
   551   2      18.310377200849377      11.643409373802003      60.014541515881625
   552   2      11.969870957206959      63.353064812035839      71.407775342750796
   553   2      10.555952733163069      70.630604228336153      55.514099657318596
   554   2     -29.083848988935191     -5.1760042523369911     -9.0727575127222195
   555   2      13.338002859948517      48.465836235578735      36.136573260767705
   556   2      20.723554184092723     -10.259116852676776      11.087742083858675
   557   2      75.859419457337253      53.156434718015056      85.552718820288902
   558   2     -27.988580132738861      4.9981112720745671      1.3592657883920538
   559   2         50.940112238931      3.7726887187678297      101.03803169565488
   560   2     -15.169648390746891      68.469936303916455     -17.479298229339236
   561   2      101.92558358768355     -6.5455325368662898      1.8939931903338723
   562   2      81.774694835722642       13.88861963075928      80.490668623242271
   563   2      26.969178537265321       58.57585034780918      21.262078419123476
   564   2     -48.485718711002626     -56.967314557941947      110.46522436811122
   565   2      58.736993399368252      53.002946810610247      41.013415539471985
   566   2     -8.9276941448919747      109.90764023377081      20.364057342025088
   567   2      25.267526674508474      41.766793662072629     -1.8952816625225217
   568   2      68.019943265672794       29.88211952863162      40.683611925483476
   569   2      63.405801447171356      11.048227786149173      5.3185437160023001
   570   2       104.7394572012567      18.593822626642606     -13.047152220916457
   571   2     -20.022206986405497      121.26984892696615      87.915006290943609
   572   2      11.479355731897448      29.186287896129397      -26.81980937839414
   573   4      34.457258901062808      23.696748176848029     -1.9287991953950652
   574   4      32.032876305011065      42.803015210288329       2.825953747885197
   575   4      5.5696893459929031      10.936894163668272      7.4067233785910682
   576   4      16.668097199244158      6.0331905792102125      5.3060180252254305
   577   4      31.540033368508556      57.739973944531826      18.245369798483686
   578   4       27.24899414655896     0.91872976750572988      38.215428580260081
   579   4     -2.0168725200652564      5.6826770902508255       -1.94208460055597
   580   4      31.805172714968943      1.0465626896265414       4.190835970871718
   581   4      13.597165349550748      23.791627582215625      18.990940273750272
   582   4      35.274346834713121      43.601409712250245     -1.6705055957649451
   583   4       35.63053207036053      11.884243853240003      2.4542912834425659
   584   4      28.586610296513186      17.431336290792551      41.878666940469103
   585   4      13.983588630389097      27.106353496252201      17.551504802848928
   586   4      15.086890735957867      22.914553533648334       34.90053336541078
   587   4      6.3870147129684689     -3.7314242597435725      33.764220597512548
   588   4      15.459476707069156      24.885734360942227      43.222766133304347
   589   4      47.385040942495841     -3.4412411240643577      24.842614031719428
   590   4      20.540238322157169      46.015777816232806      57.345108865789172
   591   4      10.322523629644806     -1.9710228831959409      23.866685928173109
   592   4      36.832642149378856      22.184224633417397      32.391545505873466
   593   4      23.918472571454824       11.10701560349956      16.186647559818194
   594   4      47.480643394342835      25.170306014645259      30.799591377910414
   595   4      4.1678443380754286      36.398508332022608      26.108622722938101
   596   4      10.279253029235004      3.8065319076791653      5.1331348728111017
   597   4        17.9828876700569      34.325416530316573       22.29707800657712
   598   4      14.858843521102923      44.287166147218159      33.558515316657704
   599   4      7.7319671899477838      42.347699737602049      18.716791927535571
   600   4      33.994842999495077      17.912984692376007       27.59877211423753
   601   4      46.992893124375719      24.994874489692776      23.091883732313196
   602   4      29.899533073638175      21.946044791294579      8.0950852561225055
   603   4      25.844202228803184      25.688698340739442      41.707707020349844
   604   4      16.400047601107019      9.2105287282624815      25.252065665432838
   605   4      8.3792002088369966     -5.2373818116971655      47.856540877704134
   606   4       38.08175915466537      54.748680370708549      33.702767354546097
   607   4      5.7652466663949493      29.781464147672249      20.797063530327108
   608   4         41.490620539119      21.318901492939801      46.490144537846845
   609   4      44.232753569477957      22.943085365575353     -4.4421310778205534
   610   4      55.042202214756749       4.791326505630364      45.909336339204621
   611   4      43.381114319098764      21.405075518860453      4.1754833760050687
   612   4       11.77205449693199      8.1887657635353737      9.7502741189210731
   613   4       6.044787786087455     -3.0922355482939143      9.2341535673806607
   614   4      30.320153241180414      26.495828341548986      17.013854884129383
   615   4      47.602068049489269       3.604262177230745      34.481658523199812
   616   4     -6.8658059284958082      54.637193946640316      28.830360137379021
   617   4      31.200398142463879      33.099577736109232      32.404215821686954
   618   4      41.010374249594015      31.521041637485638      20.040623035639982
   619   4      2.5938316259277525      36.089140597955947      19.397085435113919
   620   4      6.2183265014890932      22.095915590020613      14.048096850891929
   621   4      29.685656447186926      1.9031736507541792     -1.8363854507871353
   622   4      16.330509300129073      29.698145192281469      44.466819994751567
   623   4      1.7020973461251903      43.368499699254009      30.934388444790244
   624   4      -9.083598368141244       47.97659464185498      37.660932069059314
   625   4       30.90283502391717       7.435578379819149      3.5356558883734985
   626   4      48.248548621589762      25.700835766765959      20.404243177067944
   627   4      14.916893227335319      8.7892380921592483      39.882768908162276
   628   4      28.600937367382045      38.975098676466175      57.567730359710922
   629   4      23.388978924096506      26.685226556335813      24.429833915914454
   630   4      13.855632239915193    -0.98099434206519398      25.062749730634899
   631   4      46.154095734918791      37.551867522699389      10.380871417773362
   632   4     -5.2364648645300358      44.384889710011237      34.117322618462751
   633   4      2.7182661988433083      56.218226296635848     -9.2234459422612147
   634   4      22.840738955866126      57.367935459807399      28.177159829123674
   635   4      14.286774020114706      12.189967463347129        41.2119078875604
   636   4      34.758890979968434       11.97826012993718      -1.219588753113366
   637   4      30.896513896042581      37.542117058600617     -3.9725411229626206
   638   4      41.062942877703946      21.707194657606102      27.943770813877933
   639   4      28.042386298630337     -3.8578878948237185       25.47848256769683
   640   4      9.6768100099853562      11.015089577560094      24.889632818950854
   641   4       43.13755261764048      17.469338179261328       37.15364102305842
   642   4      8.0835191071884065      20.480684338596962       11.11556389442209
   643   4      43.512727261967051      10.352907298606866      21.524808122848789
   644   4      11.067702437592798      45.150330621998023      6.0624470418352105
   645   4      33.015183812500908      22.219297288250264     -10.304562303850332
   646   4      35.451515562205984      5.5360265072463326     -1.2783329667497587
   647   4     -21.368337750698551      7.4788147760898642       2.087004098462951
   648   4      21.729688423833785      25.274615149868808      30.819642476428211
   649   4      37.756089498741176      15.105804840976305       10.81387911648299
   650   4      17.145372387243839    -0.37633996629235039       47.62104321327331
   651   4       69.22968058850374       48.38997757184277      11.375450292591744
   652   4      29.704967894090654      6.0896535258981688      9.8706233618916066
   653   4      42.056067833163205      38.492357380597639      21.802726637802788
   654   4     0.17535847346068464      29.076044315776084      36.679420811863565
   655   4      2.7411642450917966        45.9670372353823      33.689723385839592
   656   4      38.355432723715971      45.373681674559258      22.859533633078417
   657   4     -4.7736545092898792      14.883946938458463      44.193773103753621
   658   4       19.59337619508301      34.163540878259226      39.737939655872353
   659   4      27.450623815138599      19.841097326865714      28.883869869908459
   660   4      38.656517369307188      25.741546244976295      24.886338119753908
   661   4       8.196588663825942      31.979559001358847      36.502768224294947
   662   4      49.088107402432158      14.807999355682155     -10.297513830216918
   663   4      47.545486674224833      28.522673764685759      20.893091329004573
   664   4      23.021301724688772      23.315857673107395       15.70898178341578
   665   4     -5.3689272322241788     -2.6678350694159247       2.588964933851623
   666   4      8.7591913239891195      24.651186166819375      27.892506017375503
   667   4      33.478785595624252     0.54319787168296518       31.43932263778288
   668   4      15.492956634060073      26.544190156624857      20.887614161038897
   669   4      15.998311291260009     -6.1371733511801425      48.074138867521732
   670   4      -7.292798312384031      25.909387888086346      35.857570551290074
   671   4      8.0212078994531719      23.501267987803956      31.372564031470212
   672   4      7.4122343295619544      28.970588098314657      9.4039613211170447
   673   4      56.978841319061715      10.870723632896469        28.3035526199651
   674   4       45.13403738037443     -2.3531348853596481      23.033986140781856
   675   4     -8.4275696716513266     -4.1773024520340662     -10.628522986078599
   676   4      4.2252179850356573      40.627827890648589      54.492860331763318
   677   4      35.115178434035286      23.119735921535252      12.844077435582898
   678   4      43.685144875483118       1.103288924183587        23.3989667423619
   679   4      15.279052960759959      28.349681104878453      15.039009297432775
   680   4      44.045005626797114      34.109501103312105      28.350735351412716
   681   4      22.145348595942533      38.512033857654366      15.373558279502184
   682   4      31.352840225695619      16.627037617547476      34.009449570561273
   683   4      28.147060069496586      40.171204006870859      63.987099025521104
   684   4      11.251084488700547      50.137352792690365       46.82209167886252
   685   4      53.057461059790228      2.8648436820740582      7.6198705104181341
   686   4      13.230130963155471      17.862150216251575        24.2211886896803
   687   4      45.317699192329165      28.760045304761391    -0.79627937278958993
   688   4      2.7945674821441777       34.94815022216607      35.224727992777972
   689   4      18.120878751207503      28.069561984502304      20.867940865264838
   690   4      44.188571051824745       21.11622752693447        15.9873202050945
   691   4      31.651191194891691      29.657434684897705      18.751456968462804
   692   4      31.271780502695307     -7.3761072446835021        9.87035500057166
   693   4      20.063841358629968      15.369942604328823       23.57125886597057
   694   4      34.656405177754088      20.755459782198351      4.3506667775014076
   695   4      41.369885798275057     0.87999998932287293      43.375715159062253
   696   4      37.451828590508477      51.000766254872836      9.0604530400527974
   697   4      20.312398057460342      -1.575323900987692      43.328503835625725
   698   4      50.091315361534427       23.36761311727042      17.984325621983668
   699   4      39.104871007473641      4.8917542460394108      19.564898872243482
   700   4      36.024315484373325      39.400890295105668      19.727574030035729
   701   4      43.091262206502243      25.609946813592174      12.060438797684508
   702   4       10.56324746639295       49.50570018115387      39.521882466116573
   703   4        33.2793720015638      35.075719376217904      1.4661878382061302
   704   4      30.567031249279822      10.853206286093956     -17.392233142207264
   705   4      15.550366545996983       11.50396452721326      37.794460321373272
   706   4      39.668876664827245      17.514778880771992      23.715947760758244
   707   4      29.247790385082673      15.677865157182946      24.147889741123773
   708   4      46.300444775164316      25.196078030586595      10.359364847638282
   709   4      52.816553464404898      4.4449219662858415      18.106697355357383
   710   4      35.140071156704145     -7.5265521070846546      1.2527102053638093
   711   4      8.0072601057536517      1.4028068242257463      30.064167516836285
   712   4      29.293411469368319      54.904979792008511      16.745783957452904
   713   4      17.395195223203835       24.97984714340236     -2.1903544778829063
   714   4      24.145368476862561       10.36746424058494      -6.095788708338068
   715   4       53.54045317677997     0.72195820923516685      19.041498018314932
   716   4      25.871072443933421      40.392728278862329      34.540259794104863
   717   4      7.0838388443286533      30.904699088957837      12.670850278856731
   718   4      41.752220119650183      24.930467416304968      32.678409342803711
   719   4      27.608062759439793      20.628471990877319      20.247524708311222
   720   4      30.333110750306354      40.534200539256155      29.378777653941221
   721   4      22.161479779154071      28.731341145482787      44.938589571560748
   722   4      49.468448772548577      27.751086244667892      4.7175348355662141
   723   4      36.391869199415922      24.442562273532563      27.649672505529132
   724   4      52.406266515338842      7.5571359408015155      12.748666493479366
   725   4      29.832807398528828      31.569869800191832    -0.66350052095639167
   726   4      48.617879061382908      34.878290585833696      21.408530273392191
   727   4      23.371962584872506      45.199457674840176      16.195861150698903
   728   4      39.244334839115368      24.142768094267424      30.191690076653288
   729   4      30.668087160997988      11.968325216450259     -8.2917188100349311
   730   4     -2.3592684116289719      17.289439737435163      22.441135252164063
   731   4      44.570692582779131      7.3688376313346957      15.782705812811885
   732   4      41.962025276812078      40.208309190897189     -1.2132660304299359
   733   4      11.727688706860102       34.34499899263475      39.576974528117113
   734   4      1.9040434805615036      41.728243766426267    -0.93373394487269512
   735   4      43.771660952531271        25.7580210727577      30.516104114517166
   736   4      5.6909838150789334      17.784488838742895      7.0526657735540166
   737   4       21.16823594700843      39.112651517405979        35.0727012630107
   738   4      18.213837353199597      13.397342477856686       -11.5860060809161
   739   4      34.950198852980414      43.826869184044945      35.641885056730381
   740   4      61.267808898719295       53.73256584966537      19.814992928865571
   741   4      38.155721804840042      11.212504335925086      16.198904506618867
   742   4      13.896954605081271      47.083295697200995      16.359247674458452
   743   4      12.783631667452921      14.112557405954179      8.6899405613860257
   744   4      6.6804476759001119      20.306900171714616      45.567489147680639
   745   4      56.380392475138784      10.741111069183892      21.727580381201534
   746   4      43.312363552204751      16.060883735724886      9.0289011453492858
   747   4     -6.5661873137751403      46.177579719244292       31.16093366598508
   748   4      16.868721123388319      11.308287627115707      30.589151818937903
   749   4      -1.734567360815463      16.383519642272983      51.688557298463984
   750   4      25.074879777034838      5.2554361190717573     -2.9027504013036833
   751   4       25.86251033026635      1.7904959010202428     -1.6818556488869978
   752   4      19.524151119849584       22.01712120793983      46.688605929760627
   753   4      39.044545311136353        33.9668139404614     0.63186846212078773
   754   4      15.148995602284124      30.105464412655092      31.266609326458362
   755   4     0.86686380924884576      35.449551435744048      49.912426488831002
   756   4      42.599330823067653     0.13842893327208086      28.814254359983448
   757   4     -6.4741947916723248      60.406538693872243       34.22362107489792
   758   4      1.9781140012359231      21.823581490611478      8.7326950059261996
   759   4      33.799685872605046      14.933622650333884       52.81485655651386
   760   4      10.302940865290589      37.344022699315943    -0.70275342323377099
   761   4      39.176402481518991      27.066547129977998       3.436039610364062
   762   4      21.796633283289935      5.0338891707703368      21.846203410976972
   763   4      38.722510076702768      26.321330762640841      7.1599541437692844
   764   4      23.942446379283986      45.695583809271859      35.376340381152531
   765   4      9.8870892082318687      20.339234072900652      43.648877885458404
   766   4      59.091318801962061       18.01315363843905      37.588853960643256
   767   4      25.039020424401826      36.272445611139943      42.392425434417156
   768   4      21.525062832290981      2.0562441049941498      24.223361582080024
   769   4      14.055417521331735      49.134763680755555       49.38681792610214
   770   4      30.183193041653006      30.351777393585404      26.883797510848286
   771   4      11.218339689495554      10.744679121019324      42.983074426466239
   772   4      47.956201107821869      36.103387680192654      18.716970844245708
   773   4      16.291773614371948      18.895726722195139     -7.5080761909694518
   774   4     -5.4159244315882757       54.52712371104861      48.587568386722495
   775   4      27.914360572882298      41.115849589666809      60.187187207025119
   776   4      21.148385145153263      21.500329818386206       30.35570637393398
   777   4      3.3681044388039818      13.545478926882263     -1.1462656725788394
   778   4      25.479418461550452      28.909452904512804      53.571392132224211
   779   4      39.639069246315117       9.992859522208839     -5.3909418058431662
   780   4      15.532076601587161      11.930849600600718      27.585598836722305
   781   4      55.736622462339028     0.23627688874012606      16.000716314535413
   782   4      28.583471100479812      7.0541177127870425      25.139179674335974
   783   4      4.9391203518830755      47.629397824289136     -6.1088742044392719
   784   4      9.1637145071474215      36.869319605719106      31.639859407277246
   785   4     0.83174915004456407      41.726302294163212      21.549457889612189
   786   4      20.859229432665956      26.871326309060468      49.871860815312516
   787   4     -1.7444184850217608     -3.4886042958793424      52.681951331221597
   788   4      36.118022797129889      37.815764844523116      31.358419182359139
   789   4     -11.054237684446898      14.019423371802912      38.831507620798071
   790   4      27.206895074179027      13.842229037716322      5.6768116020062127
   791   4       4.191475046694138      41.362486180697225      32.715270968414949
   792   4      33.055772565219215      18.635660673796231      45.731581674564246
   793   4      59.079190775703083     0.23607431574491561      34.359764307435015
   794   4      36.204806857752637      46.673481123702622      19.967000244370304
   795   4      25.329546125860599       43.01696603692389      43.331077284447275
   796   4       34.10647411263227      13.263776400123104     -9.2614343130715078
   797   4       34.62434959386605      3.0215964647280815       25.16019052591718
   798   4      3.2044251360041134      22.608388785157111       11.98927882108365
   799   4     0.90534333804191625     -3.4744604576912175      14.793900434550345
   800   4      21.868679289808309      17.264519155502203      20.808983981585946
   801   4       27.41874741003954      11.881775499589242      11.061052659967471
   802   4     0.47311848764423364      3.2633443739660897      7.2411355167570992
   803   4      41.450354129417732       1.587295092140308      16.032340941215271
   804   4      24.003422947307403      47.685653492084477      38.567014075906854
   805   4        29.1493886836775      27.510827238391215      53.350909892820134
   806   4      37.842124297838311      16.852439235758975     -7.3356729838575934
   807   4      6.6142249661099068      41.637453968649915      35.605936200199665
   808   4      10.258600062458267      34.875657353573239      21.817302230933265
   809   4      35.548328701076798      8.1989071899538271      1.4546062845775796
   810   4      51.380037525069142      16.646575017562441      16.668261640847494
   811   4      11.030430306210043      52.100501174471795      36.621287827684419
   812   4     -3.3588928253041042      33.596378842489557      33.548520172086512
   813   4      13.338147456154308     -4.8411389219554062      43.082037262839705
   814   4      41.683429868308949      12.145860584892851      1.6105748749309201
   815   4      22.077062977622628      21.653014262993391      8.3348474625986455
   816   4      13.479395052290322     -8.0741155399248203      21.531890436440879
   817   4      15.677155364802351      11.258331869232727      33.918641561665076
   818   4      47.036387597462365      36.973985623153119      39.370294850142209
   819   4      48.890257238637474      50.706051774351572      28.719768378362215
   820   4      49.373109747978717      27.044005595505627      22.853948821215678
   821   4      25.231607105052142      31.678510312700038      30.185248223547621
   822   4      23.855477041603848      54.574970540990677      9.7413255920462696
   823   4      32.889278331100819      42.427564285357775      27.173336982196574
   824   4      17.539570104330508       6.186342416860465       39.63922814844517
   825   4      27.922476170037644      53.398883904505922      32.233009867321272
   826   4       23.02001989864063      14.825005500056159      25.786682346914212
   827   4      41.056757898683713       31.92016898180718      23.899900182581103
   828   4      11.046507618113857      25.621636038470772      50.043957850130141
   829   4       4.999392912269407      12.911000586412182      10.580436431527831
   830   4       31.02920811955445    -0.49839941190310122      10.950773858965798
   831   4      42.677454707702658       32.10095690342029      38.652664302296579
   832   4      26.146321973324227      17.638696358122587      12.305151045106832
   833   4      27.316787018920788      13.905236915517484      47.397529114192466
   834   4      4.1441535871001989       63.56548134256802      25.436082378502711
   835   4      28.018668688012063      28.194387123054902      11.414200708609878
   836   4      16.784568818883368      21.069352943641888      52.375657878504164
   837   4       39.46212383465916      31.205462327792045      32.419504820339519
   838   4      21.323130473864449      60.324842602574748      7.9656903079801333
   839   4      27.643865820762763     -3.7023193132810439      19.035839816517246
   840   4      31.943825861748465      30.236226395339678      42.436621957898033
   841   4      28.585861810156302      34.246101301638305      4.9869612243898311
   842   4      53.143804600850672      40.644668739290886      12.458237830258795
   843   4      18.368260005415465      29.285038589584719       17.22155454341905
   844   4      32.699714821783047    0.074806974579838911      38.914587475833329
   845   4      30.647431971906304      33.542548959734965      13.279829382918638
   846   4      21.985636363598921      7.1151299596693596     -14.905866849865971
   847   4      44.372526642473773      39.435349609322458       34.67445017043719
   848   4      9.8364785202455884       15.44544435098102      16.708048222589632
   849   4      46.385792056347057      23.188548192015748      38.363337651106093
   850   4      35.970073105565525      9.1229469552899758      25.030102072112097
   851   4      47.655527864046945      15.107386960219289      29.989882593573487
   852   4      2.4027733888625971     -2.9487670341085144      28.502649679424248
   853   4    -0.40255659028257579      58.305255636413357     -6.0409714315140821
   854   4      63.457508920810632      4.9544797926695319      31.820092875204711
   855   4      5.3448161362417235      17.494438271769479      30.687810015785352
   856   4     -19.002453050972431     -6.3947317350312893      20.360459625754856
   857   4     0.72217711604369583      18.757628367806383      10.030400105688484
   858   4      33.085477996078374      23.302149768774022      22.058941714909242
   859   4      14.916465796370469      31.315703171264975      12.799798672656712
   860   4      28.725821511383803      21.986961514206271      10.898628007492505
   861   4        21.9226429294871      27.464396956416476      21.092521620019625
   862   4      11.575265806247094      7.5300793168239304      41.061016268605272
   863   4      38.637767127188738      24.803660235717853      17.934622296074735
   864   4      42.385437361932183       2.983284326331709      26.402243743980094
   865   4      11.401511521146277      29.476197882620255      18.478339248706945
   866   4      14.652256844252619       38.09174434709778      27.006075527819611
   867   4      30.665878631291715      24.098670429979926      46.715667786360036
   868   4      52.768436608867503      22.036452797263696      25.024201368545796
   869   4      14.125369693444052      34.120264670258663      10.152900881645213
   870   4      19.877550637314215      15.121014076313079     -1.9298698267366092
   871   4      33.403871620172055      32.616559880972332      20.383515166368582
   872   4     -1.8509648805177863     -10.184500662355758      16.108798784272384
   873   4      10.269172638635752       13.82216155725332      44.891230751506754
   874   4     -1.1779607146837168     -1.2688738882865607      13.172006149298557
   875   4      11.933464981244427      31.729877510259641      36.776161277543018
   876   4      45.990843916532462      11.396236923322713      6.1750663627858584
   877   4       57.27314586924355      5.0051287725279447      28.958194481955871
   878   4      10.100066631354993      36.770801599195657      15.216907514153561
   879   4      25.057088101172983      34.236828926238275       10.65264012515147
   880   4      37.179042519531698      32.085371811531722      19.850903435468169
   881   4      25.415410613552559      6.7488452019902043     -6.3650285310053398
   882   4       26.51397600074932      31.172228529278993      37.370986376891665
   883   4       2.187375066991827      35.057374649575046       29.07017286955114
   884   4      22.043508577548483      9.0244257267870847      3.0088272965878042
   885   4     -11.285506669446725      36.645848251249681     -4.9039144161250192
   886   4      57.335903266041029     -1.9628879233972696      31.829846134002711
   887   4      22.634787833063033      15.614342221764419      38.552311566271094
   888   4      32.203121442818045      9.8479481280160694     0.76734515125101854
   889   4      22.704724698369084     -7.3951753515120631      32.740504594240079
   890   4      17.577663125041354      2.6270069989809235      52.599699431686794
   891   4      20.399669789737768      39.557700054265887      3.7667120300695607
   892   4      13.925611958527107      32.441276424677831      44.900196946892997
   893   4     -3.9197058928498638      38.401878517375664      46.723430630369016
   894   4      44.626150602981667      14.625728937531681      15.967358133605234
   895   4      33.538875968476788       39.79405805310877      12.528926410153787
   896   4      13.422691117875983      17.386400522256956      15.930053948192128
   897   4      39.835664285145356      8.5834455696865533      9.9214894577235793
   898   4      37.014943705264891      13.660126820202988      31.643041408484937
   899   4      16.450481616243479      3.0512265965369347      49.031205654506472
   900   4      35.201237429977532      34.644832118760867      26.839210631254652
   901   4      38.329856330037174     0.27124691246100796      14.515540416395071
   902   4      31.081074303963891      37.388706586384565     -9.5884936673940668
   903   4      26.015020428082867      7.5870706570657935      38.705247085691511
   904   4      15.177880251245561      43.759611178361453      14.992553253084402
   905   4      2.4778081368399212      24.161980592232368      42.256066132906859
   906   4       60.51647113554489      11.404365263260599      27.976293992639761
   907   4      52.888278624721501      14.303901191934347      7.1451263414462982
   908   4       24.04210448807866     -4.6432559204606854      19.778717052054891
   909   4      43.384614044036525      31.412347191093932      8.9620249237203353
   910   4      56.179691011072507      20.729103866785934      5.4198928068040235
   911   4       6.804195291611471       42.14037151952585      25.512550893370083
   912   4       13.52511346906053      15.212387145075477      46.244086522324849
   913   4      52.233115411850378      48.495269993253011      49.161189197095169
   914   4      11.469404041873188      17.316976264370787      31.079125249366992
   915   4      45.367684657940444      26.456476688589209      21.317751969412225
   916   4      44.996453344272652     0.72147232419004859      9.4932724956802552
   917   4      47.526619966427447      40.644053391879645      8.7130568899746734
   918   4      23.931958815601394       7.093805650531996     0.24902016987621323
   919   4      27.679311666529021      22.337412928960685      35.202157517774772
   920   4      5.2843940606178341      14.701203783329214       33.40397944354693
   921   4      29.842886345441798      47.109366486390385       37.18463287313412
   922   4      42.421113837449028      38.212054530815315      4.9069566375697029
   923   4      39.305230273213652      47.704893734156123      29.692385134954666
   924   4      52.263789760240073     0.34049911333050936        22.6292361314765
   925   4      35.402705505575099      6.0787897202207084      27.286529618489368
   926   4     -6.3550102212700459      11.596718626055191     -21.266221561478968
   927   4       10.19187148479755      23.207912648159301      20.485483493076938
   928   4      6.8005383577173664     -7.2561520469303398      41.297887350948017
   929   4      50.281767152862805      11.013278929654668      20.071121599685721
   930   4      58.896889115054158      42.435765456132287      36.992194463663125
   931   4      5.1648161092091982      33.745017034239169      11.011171249709145
   932   4      37.912256851009261      37.925754560462742      38.069830470569137
   933   4      46.501823601073042      27.992532218569185      23.596368332054002
   934   4      35.673720419455407      44.146484839399037      25.315975655102807
   935   4      20.436654441843555      43.464859209262123      21.094219469236382
   936   4      28.330820038678169    -0.10400437214343776      26.712425858989342
   937   4      33.890943004514369      32.924326048651871     -11.979384059499067
   938   4      31.775397428278676      28.573705414928149      55.775469725216482
   939   4       21.18734785550814       26.26172207094065      9.4581521467873984
   940   4      44.745410138759034     -2.7984909325938636      11.166816385172769
   941   4      46.402251430400987      37.435899541536898      43.241530654174831
   942   4       25.22354049776062      13.030471404745771      18.133335381903187
   943   4       15.57452993696462      37.528906082871167      33.780436547360786
   944   4      18.783766436905378      39.818341371739642      42.304612926509897
   945   4    -0.59706708090385663      6.2259631755158971      40.895542759591798
   946   4      25.015599489893134      49.544613308664026      13.768566583906242
   947   4      55.132058810464748      13.719567486775599     -8.7807803840057694
   948   4      19.186474805493059      36.698290212009617      32.690729928765357
   949   4     -1.8793028285131788       47.95687021624552      46.396422619091027
   950   4      25.124593899205959      44.347139704210747      27.648051238271588
   951   4    -0.20155769202193063      41.801068758139181      25.221641647054501
   952   4      29.182994712537202      23.935203386470153      53.628782350183698
   953   4      36.045389394218013       46.64622282805621      -3.598543473711036
   954   4      16.656312657506469      14.902079842466719      3.7030582076079948
   955   4     -9.4978870067868026      50.267498577177584      40.437267721306739
   956   4      38.907787722835508      12.398083005316385      4.2127351880910409
   957   4      16.826119620287432    0.010794861596998497      43.947760115257502
   958   4      47.964060295417696      10.006350374552314      3.2719458264491177
   959   4      7.9725286309980836      55.662791086607207       42.02231181351361
   960   4     -12.769982643828985      45.250844865044265      56.593088418773569
   961   4      45.990487146475694      36.371507348103478     0.70927708755958729
   962   4      18.893416651353149       28.20431958734849      46.925322965327794
   963   4        7.46744183079735      26.982969478113272      6.1833288400952728
   964   4      4.1798568218981131      30.616902705346138      0.4492730525199703
   965   4      16.580233192784753      25.480888687665651      24.239175507778135
   966   4      3.7230573029752199      1.6770507389477916      11.175902931430421
   967   4      41.442262438417664      25.362289694889192       27.50122806518695
   968   4      23.959354014357963      -3.907995320150853      1.5352226390727117
   969   4      28.816843768990083      36.677010645036958      24.383915028900951
   970   4      4.7752917109485065     -14.728767133582998      54.402479772639474
   971   4      3.3964991449618069      31.868127599190739      8.2947476453043407
   972   4      34.711272316318677      27.756484804699621      28.677339529583509
   973   4      64.977280114446572      10.417061072217747      18.483280429589847
   974   4       13.20630673297058      25.915151652119743      12.870452011583394
   975   4      31.915703873974728     -6.3920703914007895       42.20126294592356
   976   4      15.909788684104948     -3.2433785336455014      45.556357839695359
   977   4      58.067413355099887      9.3115102250372601      14.825806718417764
   978   4      5.6348888640244157      9.3986036087305553      3.8250398018220024
   979   4      37.002788272974904      29.733287367331258      62.041345054471002
   980   4       10.13184526978031      38.961242894578241      9.3661356892117968
   981   4       45.33182938271176      3.7936378405866904      17.259356132743566
   982   4      37.774980788520914      20.731412109370321      11.558859065991411
   983   4      10.797610767260252      38.563145922025129      51.906023636752103
   984   4      25.094681478938323     0.98711010698673995      25.133974849292724
   985   4      33.338577998962307      6.8443872294214483     -6.7831824468082891
   986   4     0.30962148808852685      4.2131293259648732      17.488424372791719
   987   4       4.322283303812128        34.0424442757067      2.1758315970314825
   988   4      2.0363695735024772     -16.148319125159976      12.913059825450333
   989   4      10.471457587679632      19.019970661522883      3.8637142825756925
   990   4     -9.0744042302424415     -2.2025516174014972      1.4731322092445251
   991   4    -0.91679054090209899      34.028006545464983      43.303801437817377
   992   4      41.862031175662999      18.686599103921534      30.282986797365236
   993   4     -5.1494242374143679      59.302764756252195       37.66020166111548
   994   4      39.991735114968918       40.75647831302858      10.933546903638412
   995   4      22.395882800760127      35.907521895025731      27.124369855486009
   996   4       20.20046992945289      28.788247245508735      36.117529607559213
   997   4      21.199955226833133       39.74370322954389      21.673239967505594
   998   4      15.318087054831471      19.694113773911365       9.913513783361946
   999   4      17.210043105268301      47.094939253385476      34.681888611087267
  1000   4      23.607574887334806       45.90301281160513      41.742839048836736
  1001   4      24.791990411217746      29.379034114944702      42.300562912944649
  1002   4       4.489378932482281      29.757016951514874      24.359335559137207
  1003   4      24.091650928964651      25.945503207478744      2.6129508735024825
  1004   4      56.418788224442153      4.3225024993701666      25.299777794155943
  1005   4      12.514263761880756      59.166226834120209      2.0274576440608931
  1006   4     -8.9914176549391822      1.3129287827872276      3.0683537412683553
  1007   4     -6.1086845175950231      -5.172211194397268      16.822651732923955
  1008   4     0.60529482780701571      43.790758101446187      18.347320478878562
  1009   4      12.515210906361554      24.458171809604504      28.264583951718283
  1010   4     -1.5266422300190903      47.671600329258489      39.262597897596493
  1011   4      17.593339415936313       30.25444573850999      28.377293716872199
  1012   4      17.396694794999963      9.8750612114940743      46.185458008307918
  1013   4      21.421273012970588      20.068624247206092      23.404672871250785
  1014   4      20.308823751485455      22.357203832872294      38.447690052684706
  1015   4      28.429499874416233      26.067575571339251       34.65023240768042
  1016   4      22.586042664691558      8.5551197481242749      20.294963271428102
  1017   4      30.995614131658119      3.6500156507922772       19.31287078461753
  1018   4       8.168192249491975      22.882512730126106      17.231705026602206
  1019   4      24.214319179666923      37.141997990681503      35.588670478886236
  1020   4      35.052590920529255      27.198036292230949      48.428248134198093
  1021   4      -9.762913509778631       29.66044630287066      -4.783160994493012
  1022   4      18.458160762235806      44.261228995086761      28.037562512501772
  1023   4      32.337106728901716      18.079912142041639      5.8738362169975487
  1024   4      38.322294681730348      24.558043518987642      41.266292089164743
  1025   4      11.791623937455185      6.0759088202915548      34.025202261078775
  1026   4      12.833503050599127      29.111605718344229      34.060156023243266
  1027   4      12.668860065700217      41.176901191316254      28.110575955692894
  1028   4      4.2097018939457351       42.49782384436314        38.6994271090485
  1029   4      21.741139159657457      32.447484216782591      10.876314769160629
  1030   4      37.836026375685748      19.919946398991485      35.189458144868546
  1031   4     -7.3792919825332932      5.2634101477694717      31.932949188139879
  1032   4      23.299332987325947       19.13984803461495      38.193044954956086
  1033   4      23.144955154322545      42.099063778602776      36.234098915939541
  1034   4      26.609037933638064      47.248190804623675      16.226516391368147
  1035   4      15.735618364417972    -0.68664392665825591      21.708135984338959
  1036   4   -0.071897680950740547      1.1645046737797393       10.49195194599349
  1037   4      35.285063082867076      48.317557060850191      16.537616897218403
  1038   4      54.123249366792287      7.5610838640332352       33.84729849548502
  1039   4      31.177756472665823      44.136838253944994      35.400397717460187
  1040   4      34.717759875211172      29.243896362257932      36.292827010819309
  1041   4       49.80161975280717      22.158761113946461      50.130008280692593
  1042   4      22.140180399235092      18.166688493365257      6.7201969223495173
  1043   4      2.7901759397116903      33.919188560805814      16.393426354553011
  1044   4       18.50237407941194      20.599128520841109       20.90175158550349
  1045   4      34.998281213925871      39.644925781363931       16.00106008891596
  1046   4     -8.8163517017112216      43.407900595686002       34.70656190268005
  1047   4      12.160944115288197      37.567670086355442       41.60590683591461
  1048   4      4.0786626189476642      21.637960542218377       36.13128595304125
  1049   4      23.671667189035553       48.86271339326909      33.170659732886563
  1050   4      25.056052666548446      19.231583518740393      50.041796659723083
  1051   4     -9.3908265307619327      6.3247059183875169     -6.3296237590939013
  1052   4      25.492699464280662      26.631337427623496      21.832774651573271
  1053   4      8.7574632559549546      52.576608767902094    -0.49705688862508346
  1054   4      34.648967878276032      55.770804934277422      35.068015256313828
  1055   4      35.776767820794603      12.269680511762559      22.814036130813097
  1056   4   -0.089066242907095472      9.8682364689280817      33.251094783960639
  1057   4      45.234165759217603       30.85943720397691       5.635268218727834
  1058   4      17.225438692547716      3.2748827100361773      42.286396830990128
  1059   4      19.912913036435953      13.867230411891713     -9.1297595245613419
  1060   4      16.281947725545603     -12.101397607267836      16.871477922401805
  1061   4      26.961642384325447     -3.2422450290324312    -0.35304341691665214
  1062   4      24.165468428801073       27.55704149973598        47.9938592936698
  1063   4      29.259563126261256      19.342041269685303      13.602147862686088
  1064   4      36.017593721363816      46.761074781039696     0.14165507206173969
  1065   4      27.597642564852659     -3.9454213368076223      35.192803564000137
  1066   4    -0.73975892867294091      40.449890758380796      42.761033805676149
  1067   4     -3.6897213397777673      23.363719735820425       7.043194736725245
  1068   4       9.482571241754453      18.198204976439001      24.178476876520591
  1069   4      37.862805845288804      37.142907661512197       27.99752071238758
  1070   4      40.230210762292828      18.073162174406349      10.449861812366523
  1071   4      49.324497077619199       30.70827667264977      42.138768087934729
  1072   4      11.246406396852539      32.179822334362534     -6.1615844744803514
  1073   4      16.562066475406585      26.818538359653299      5.8444628101691736
  1074   4      26.540869333757428      47.079517978748243      6.2217996336113126
  1075   4      18.988736949098204      3.0249643804624178      39.044598938977451
  1076   4      29.068587392167146      23.185998350297165      28.185198402978301
  1077   4      25.659789377675946       19.69384511681282      43.056144131780961
  1078   4        32.8862820093549      28.067493579934069      25.605085542690983
  1079   4      46.174149153493779      10.621491151184911      9.7733801923440815
  1080   4      22.128688229775765      3.4510560364889251      18.362361971579485
  1081   4      9.2506569366165063      9.7089299449436144      40.041579641741471
  1082   4       17.79090815484129      36.804360448006996      3.0708090023370254
  1083   4      21.390964693169156      48.859682156208684      40.141377461470015
  1084   4      8.1154962126610304      35.067266535376682      38.308010916064561
  1085   4      47.685280603516468      21.719395778734416      29.156148376557049
  1086   4       27.37929479730688      39.048094845768432      31.342470928743211
  1087   4      14.952291928541051      32.993015360093317      3.8271907297277714
  1088   4      22.902051065392222      47.309244508476603      13.035893498955554
  1089   4      10.855186070556611      30.851700466458567        46.0522114318414
  1090   4      3.7394498638805485      29.300344079665223      13.638183260535492
  1091   4      34.548860674487479      7.0792093839387125      53.569928199915211
  1092   4      25.230097178826917      33.057155916021451      18.840759790135795
  1093   4      15.899324409440633      4.3410505200455995      13.906101373984319
  1094   4      40.903314049644152      39.531716728905884      27.981958204960602
  1095   4    -0.40006425906099613      40.981377338162993       28.98472794569129
  1096   4     0.71571446844856867      55.189166248900143     -4.4094293492452419
  1097   4      36.965563665421776      46.258365233796042      14.049066571940806
  1098   4      19.499539033909169      21.710033405934585      15.104136961539359
  1099   4      19.204308836638983      15.098519843721665      13.517908967978535
  1100   4      5.3519209035458717      33.933815552685843      37.689261330631389
  1101   4      17.755067695716402      17.796181275455741      30.453675021504285
  1102   4      20.039784917928614      35.618145343939396     -1.1447807603873894
  1103   4      40.579702389222255      35.519350381292647      15.050079759165964
  1104   4       24.53940403986919     -7.6786060278404671      29.745603252769758
  1105   4     -3.7647167092890355      28.183271988333274      14.582606552240373
  1106   4      4.9754500211353543        27.3257697070223     -1.4057495074873847
  1107   4      4.2807698480602605      6.4189618467159626      42.963833296964431
  1108   4      28.426176085602563      10.792646163240148      24.880755138352239
  1109   4      19.504322507218603      24.222099501883541     0.85683984792357126
  1110   4      35.240670249319699      6.2328445893758557      13.543565684317858
  1111   4      10.499032385032269      1.3933621140410792      11.439342565878695
  1112   4      16.406211162644116      28.134501999104785      41.019080371735534
  1113   4      4.6388125408282175      29.030944171155856      32.143468078467635
  1114   4      45.392096902421656      3.6135280105562608      6.9053010335959701
  1115   4      19.394028225913544      42.843858497436202      59.264117287434715
  1116   4      39.319041746560885      18.553694102115408    -0.54100270243384307
  1117   4      21.768558916386052      7.9919652170469115      16.639265246472629
  1118   4       1.996561587772272      42.802222533919704      35.524932757190186
  1119   4      18.005818338431101      13.208658935644166       33.45809400632001
  1120   4      27.391590202250715      12.150427343152684      33.190457092368362
  1121   4      8.3265177133968145      65.055266303829313      2.5228826987222432
  1122   4      32.337783198278771      35.057717883012415      5.0874410491233322
  1123   4      4.9687448416759885      35.901133987172074     -4.3908938605397436
  1124   4     -2.8269176187269824      50.348773278940598      37.132808499555331
  1125   4     0.55843934972706288      18.655619958417791     -3.8787677748590044
  1126   4       38.59053397210927      17.941046416346989      17.778773071167986
  1127   4     -6.0848484295294103      42.047130592067489      36.796691249224807
  1128   4      -11.70556550507505      34.329135043305101      9.0577598558633756
  1129   4      18.305990853748629      16.850056907049165      33.997938985178195
  1130   4      9.4402143774766181      24.831926179584372      38.292460666714028
  1131   4      17.641306238871078      34.242774711203616      1.4442513187491286
  1132   4      9.0814966660338428      8.4807828577907625      45.243349627637279
  1133   4      30.245880160125083      3.1124528059978616      38.872341076831766
  1134   4      4.5530496980163173      19.735521547185808      10.130792106055177
  1135   4      8.8059987466158294      31.681731538330837       28.01570530663825
  1136   4      29.127611157489572     -3.0027632291034085      21.950606811406281
  1137   4      49.558954632751529      8.4619352489381434      28.072634182546292
  1138   4      28.846774812205528      14.897216472000965      35.401213814370806
  1139   4     0.81166651967419801      16.029765221053459      24.124231357789146
  1140   4      16.978513572429698      47.930924699547312      51.327239600636474
  1141   4      21.259518106972635      2.2487740778738279      52.842427129114242
  1142   4      49.552466159386633      7.0326419265264084      24.562001819114194
  1143   4      17.886333985286775      4.0864019192493313      29.950084504050245
  1144   4    -0.57259058091193815      51.210497435168882     -8.6189020676332628
  1145   3      28.250345882413026      13.598834021563198      34.085326630065595
  1146   3      48.167748619316392      33.786633520169609      44.991400018747008
  1147   3       41.59838110525871      20.230970570639968      29.416527044344544
  1148   3      22.577824968113266      42.508669731726073      34.288038960363259
  1149   3      18.768064262743081      35.182007039191973      51.634931199560178
  1150   3      41.597896804315738      44.245243324355592      34.277853930560809
  1151   3      29.017415819090054      11.360367469748082     -16.365058004956033
  1152   3      25.867363967966792      7.2792648707182002      40.534055307800301
  1153   3      28.950412553646611       37.27016167588085      57.549438985159931
  1154   3     -2.0486169975911808     0.95504015500192463      10.013303181181064
  1155   3      16.154868476779111        4.33152609316652      30.700229073086824
  1156   3      32.842489619577421     -4.8271379982498068      3.8932009744700213
  1157   3      40.886269693748879      48.793873154740048       29.37335199191018
  1158   3      35.850211645082261      47.408242097221638      18.123842051409113
  1159   3       47.14534814294062      4.0941569553248449      17.306672211121455
  1160   3      10.841392022472027      50.848288761775017      35.315928285125132
  1161   3     -19.283932240689207     -4.9607050471106033      21.556686411402637
  1162   3       5.268513030682497      12.815400938509281      7.0176928724190679
  1163   3      55.117120817275719      20.160258863283829      10.269746956330223
  1164   3       26.09614385215874      40.402378572943555      30.501520680428968
  1165   3      24.712819339786147      8.6048373193734022     -6.1416829470718541
  1166   3      24.034666025267619      47.540782104863638      34.403547682392713
  1167   3      23.384554757393492      1.5289331600251959      24.310618903194424
  1168   3      6.5361429640853945      22.513167896963836      31.126387602702081
  1169   3      57.177214511810867      10.700962141632889      23.455289802473835
  1170   3     -2.8894286288406859      37.318316509659894      47.778540497222892
  1171   3      26.268698638654165     -3.8091704217176727      26.244109005767964
  1172   3     -2.5170735301461029     -11.404807559680313      14.929367183481995
  1173   3       2.295006216313598     -3.3738925414824901      26.783515341095164
  1174   3      46.638207202938339      39.090138631222779       9.436527813885867
  1175   3      45.589998481428296      25.511292906599525      30.463241836372951
  1176   3      24.626384630883145      25.701891232647551      23.293671527864728
  1177   3      56.893590923148459      5.0051433576131981      27.108450099037189
  1178   3      15.153675511193002    -0.22319611763018515      50.870463760839172
  1179   3      45.625619592523115      33.985635890772073      35.201333669589189
  1180   3      38.834004521467428      16.821314541913132      10.526520303556367
  1181   3      40.267284634920124       20.19411348883968     -1.3136836408693386
  1182   3      9.8525428920916092      43.936265535744461      47.026774738629967
  1183   3      32.840158427660434      26.354524237224584      25.776762607037778
  1184   3      30.831029072729628       45.67089710787328      36.406115156333549
  1185   3      32.275832478760073      12.815689849605727     -8.9034000739589558
  1186   3      23.054442188569229      47.176806181308002      40.190520631056657
  1187   3      55.630506501034276      19.197479565609417        55.2786065206869
  1188   3      31.209925267984072      27.326733232683786      56.867594336814726
  1189   3      15.237194648541124      9.7173920519436177       38.22805949460485
  1190   3      35.873900561865476      7.3356075337709585      26.109275593009688
  1191   3      15.835382236554004      10.659113567350524      29.052432110491317
  1192   3      23.127031135898573      48.968696099051428       14.04104443482596
  1193   3      20.791627207451928      15.493319530012656      39.109891892565692
  1194   3      34.595881866801783      36.154529401982735        1.74274943402953
  1195   3     -20.360818249275741     -5.3606379726698066      19.087948157475047
  1196   3      27.766391161478666      46.229927355867737      1.0046563821418777
  1197   3      27.549727107959111      -3.167716133320249      20.880588302486281
  1198   3      32.724407684922646      31.147475490727768      19.483258741949427
  1199   3      46.011674470374317     -1.8512391584819061        24.6159814440554
  1200   3      27.367720911775447     -2.7960510008243808      17.376122043000468
  1201   3      13.829117611730769      30.100413899463124      32.734882288909645
  1202   3      25.158952160786793      20.225586710914541      41.468222483552964
  1203   3      29.913077546795421      2.0285275327878023      45.240005241904555
  1204   3      35.468894181439346      44.883761869567728    -0.36920341830456199
  1205   3      42.985297784014691      1.5422608752358309      25.142967955650036
  1206   3      29.253806760119819      43.885124685603017      35.145800569104374
  1207   3      20.389360133363574      1.4195874699283264     -9.2403454823307989
  1208   3      17.532531335873522      28.901079891348669      45.559523390204482
  1209   3      28.798061414194507     -3.1977708545405603      23.758061742526554
  1210   3      39.097830607544054      18.757169842407375     -13.936519691013263
  1211   3      23.915479502377682      27.092860317625188      20.956423233907596
  1212   3      3.1606449895194673       42.21258669499796      34.092244638385232
  1213   3      29.282023549113511      12.948298555021136      39.935245766072541
  1214   3      43.294236435105454      34.662931865432896      26.821523042810529
  1215   3      25.352917963077406      42.410325455044202       41.67594283776711
  1216   3     0.42502682873084052      42.451790022586316      29.831633150759686
  1217   3      5.5729585682100495     -6.6157569926570963      40.013610513591289
  1218   3      52.466186905970723      21.065698167380184      8.8442218376643797
  1219   3        32.5043968360647      23.696953144400606      46.683400225162828
  1220   3      24.797093065862757      44.808884425792847      42.723939916626371
  1221   3      9.7877074423668589       10.56144136565864      41.638909667611046
  1222   3      30.213362291939895      39.926928060079923      57.953992374852021
  1223   3      41.268907367377565      31.722545996029144       21.99503114418345
  1224   3      1.8564160580910889      1.2189139446199118      10.713818247652171
  1225   3      9.9156491121046955      34.775340731235119      39.118391024125422
  1226   3      50.833062585780581      33.131464254318971      14.676553196378739
  1227   3      47.383837037619962       37.63215754234443       17.72326246776591
  1228   3       35.49751449599767      6.9161061807791269  -0.0022333849717856161
  1229   3      60.141979936711465      4.6516631797586063      35.289366406565733
  1230   3      37.470702389344012      12.208509367782215      3.0585923471793381
  1231   3      3.6751613522328648      33.465109902969857      12.139737669699896
  1232   3       11.39744413588712      18.119207578998846      24.099276946651695
  1233   3      16.011808477403253      13.185649477195078      33.496572455976249
  1234   3      44.707331316569558      25.911497921126841       10.95262259113534
  1235   3      22.542630795891622       17.38769169174611      37.935116173804502
  1236   3       37.13480375640485      37.589279465389474      29.672600257180811
  1237   3      34.564970822405805      33.142044168214021      38.389853332433319
  1238   3      12.610427757792598      49.548951150529902      47.845386029749164
  1239   3      19.991198331626812      37.817584436330108      33.962487532725611
  1240   3      16.362971407959794      25.117620613109818      44.924775918541712
  1241   3      3.3767451402298261      6.8834318305925795      41.249815985634619
  1242   3      19.968577494203426      27.539216747477472      20.835398636054165
  1243   3      23.009441635481522      9.0984367553047285      4.5449217281211975
  1244   3      6.5975982222155123      35.381975839299066      37.086001806855471
  1245   3      41.714908228211605          16.78875529362      9.4608444020249003
  1246   3     -4.9773806218863657      40.636837979457674      36.018497551290658
  1247   3      46.404396115114466     -2.1329477944853275      12.256378412360743
  1248   3      20.625019405036671      48.195009211221787      41.738936717824103
  1249   3      25.059409344440496      46.179904576973442      64.980840901409564
  1250   3      19.444928206431989      2.7542702315346279      52.534986192425649
  1251   3     0.50895293236348549      42.998592034625844      20.157091938875478
  1252   3      29.898459371428071      22.983567480164098      55.139603321810924
  1253   3      15.163903208005717    -0.34692111598916237    -0.75796970405740627
  1254   3      35.555922078599998      46.899306610488928      15.326939517731416
  1255   3      11.825554920947644      23.780525712851546      19.402487710636557
  1256   3      2.9534334427380671      42.735352022746341      37.088697889155981
  1257   3      6.8912572583514189      33.906808673585424      39.212621227478223
  1258   3      14.774674776951944      10.095593227482617      41.072882307172591
  1259   3      21.270628489541807      22.558926048549168      15.419784891979903
  1260   3      39.675662413403046      8.0789580984949083      -5.870589266835168
  1261   3      17.100969868708017      3.2791541974319456      50.880357465389693
  1262   3      55.715336128221452      1.0922229420520251      28.694590058218299
  1263   3      26.442836372446521      47.542318789467686      53.333310200956845
  1264   3      45.192272539107066      2.1841841032705509      8.0040696663742512
  1265   3      28.836250620856408      13.969137301972243      36.912771458371481
  1266   3     -8.9647538721898847      44.338964510706738      36.418185517013669
  1267   3      14.793835777652474     -4.2537750544342483      43.960332500766995
  1268   3      51.604181641161482      34.802757406897015      1.4525722265229557
  1269   3       4.207947954206781      2.5664534644235166      18.524717508478027
  1270   3       5.142943033444408       14.12772618159214      24.124838036935504
  1271   3      10.558155618315448      8.4730102200392086      39.696987543558336
  1272   3      53.375069900913971      28.844462560954998    -0.42612258215059917
  1273   3      15.276754553122101      47.709510827424673      17.257153333344597
  1274   3      39.716463420649113     0.77941676446624419       15.68833137091228
  1275   3       49.25280837577246      13.100743001957188     -10.957106727287934
  1276   3      51.792752612611231      5.9667387140189927      12.970983521292121
  1277   3       12.54761378703326      11.400675672075081      41.651945505758093
  1278   3      15.547690078761109      11.318260140019326      35.810623143666575
  1279   3      30.297493259621827      28.416452024125011      54.429071000221214
  1280   3      46.975536754946631      10.954288158664051      4.5295367210676618
  1281   3      58.974534704361751      9.6492421794983585     -4.2913179234789851
  1282   3      40.467168397742604      26.175554349200727      7.4593055767647058
  1283   3      16.704717885037947     -2.0918314574122134      46.809599129760301
  1284   3     -3.8580145119962772      54.420230474118796     -1.1328108959767409
  1285   3      12.198629475726428      9.4625358842131533      10.842459561842213
  1286   3     -7.6375294041035442      42.125689849197805      35.650340704077145
  1287   3      5.3338063679993528      5.5200212827989175       44.38970555124699
  1288   3      16.861910671896929      36.057048281541348      1.4867429591430343
  1289   3      47.578066058199937      23.484952219798867      29.919037641062499
  1290   3      16.366498011819793      7.6132142397210467       40.35441197741936
  1291   3      23.150605592446517      8.7737253342754347      26.444828441041082
  1292   3      18.755332149608897      26.333825662642138     -2.3920245364679693
  1293   3      11.959457497750495      35.929697500628727      40.716789001129769
  1294   3      22.379641847037945      27.399866028430392      48.681331035210555
  1295   3      19.657915491010016      20.392187887033003      16.236973111309144
  1296   3     -4.4258446817861712      50.886966643252705      37.639774248843295
  1297   3      28.403505796044314      9.0096025316326518       25.27440929128641
  1298   3       51.21769164498896      3.1479327675449214      7.5045803354806662
  1299   3     0.29103997805517218      11.280256283104309      2.6110932271061076
  1300   3      37.632516530750479       24.20010090263354      28.881225589513829
  1301   3     -7.1041810449331564      24.372649995100907      36.746887059562603
  1302   3      13.337050097294789      25.285459544000119      17.746815637966911
  1303   3      2.6446332675410722      44.162789571569519      29.403138747308958
  1304   3      22.214759555927067      6.9099237250289063      20.810599970836282
  1305   3      16.394235119319688       29.52415795405658       27.27694244047963
  1306   3      24.888707898653664     -7.3586857172447342       35.98350091483686
  1307   3       42.34989559033928      1.8488717184321393      27.907791465949021
  1308   3      31.382427067968809      8.8181565659735295      2.1385087045393179
  1309   3      39.360098688379388      19.526129775486364      11.229308402216786
  1310   3       43.40788421877695      24.255545646215491      31.622575511555489
  1311   3      33.576411001212001      41.855255743056169      2.0479912539278247
  1312   3      23.431457116701718     -4.1050477459498973      18.012611849530703
  1313   3      5.1641240927133678      16.072931068035754       31.95001679180864
  1314   3      22.756684836308015      49.087965622198389      38.532541526767005
  1315   3       26.58842616323378      31.623032536463217        35.6706407163813
  1316   3       42.97669263981512      20.927413566785972      14.752218730371721
  1317   3      21.730894686731144      23.229891321014222      30.394694801299298
  1318   3      17.039288722899748     0.43954330566173916      45.741359150912238
  1319   3      45.149755708394956      24.837548402034948      22.402313124548499
  1320   3        25.0658456445734      38.706129696776848      34.956739223195044
  1321   3      12.625146783101448      31.482382641067634     -2.6892397098764067
  1322   3      16.484174669104863      16.581432393073477      30.471907849715961
  1323   3    -0.97796767792146699        35.8539232790028     0.77178041035824863
  1324   3      27.289327136380383      12.160795972232128      47.131558460413551
  1325   3      22.217555453655031      46.286508189453698      42.830059712937135
  1326   3       18.00474696173201      15.069961749125762      33.313579706038361
  1327   3      24.918781777320255      6.1991512552082506     -4.5258345525263479
  1328   3      14.414509606195946      34.308875309927309      4.9645082174461539
  1329   3      47.282236375656531      3.5794309777877213      6.8761681522381322
  1330   3      46.845922945466199      35.737204777711064      43.737364742487244
  1331   3     0.12392159963420464     -6.9449995341693684      23.260666133528247
  1332   3      34.414355968367111      7.9800992875156442     -5.9525701030048079
  1333   3      47.923834478532498      38.573658776926656      43.551395922758687
  1334   3      13.720840910567926      11.911092702365211      27.541316366483382
  1335   3      37.286036335061311      25.159592067881988      26.107253670067621
  1336   3      16.093559054237556      28.237435670078572        21.3676911128542
  1337   3      21.836545323688405       39.82471483214335      33.354229987338115
  1338   3      18.064545170260086      24.766704064806486    -0.16409812396984413
  1339   3       13.91795643532703      28.655765537874444      16.394479371923534
  1340   3      51.543717697418849      30.889560065416973      13.326877755957769
  1341   3      18.424123993290106      13.030935829456345      35.403547097212567
  1342   3      40.134509606661759      25.386791183467583      26.167484404495035
  1343   3      23.023683020014325       9.398637850610335      16.165393909376547
  1344   3      3.3036356410918359      37.466777291700168      24.967748954239614
  1345   3      24.564269376708804      13.055539504515963      16.382344034582808
  1346   3      17.239868061505295      4.5189992743545497      4.4956750134778192
  1347   3      21.414204138129918      40.626177083770806      4.7332777831837074
  1348   3      7.6688320635709477      27.868476372327564      56.527933963300583
  1349   3      23.310280372469411      28.156027588509584      46.255091899231537
  1350   3      11.248394455963938      4.3743081600549258      3.7466092042379842
  1351   3      53.110973187639253      13.947946886461521      57.949284743623551
  1352   3      36.131450583293621      47.056357358649599     -1.8213760291809427
  1353   3      4.0594862504514611      33.962195241174179      36.299687288154466
  1354   3      53.138189071458982     -15.926615093908962      55.710137344759531
  1355   3     -8.9897731966492991    -0.42314755408673543      2.2301848518371319
  1356   3      18.082017795246038      14.245613673837656      39.232371816984951
  1357   3      12.950657827963845      31.700782857977654      43.376883587572443
  1358   3      32.498577238004138      15.958283922858159      32.888707963993326
  1359   3      13.656627425442881      39.665639159507016      27.575610353046834
  1360   3      30.728140911949804       41.71106428297314      41.043527767075588
  1361   3      38.501586243599462      47.227045708111184      14.967285866309465
  1362   3      19.892937485558935      12.963747764360461     -10.935648863347202
  1363   3      46.984744688051329      24.224246690127874      11.726511365405017
  1364   3      43.190727978607576     -3.2507161768715189      10.283039729493634
  1365   3      46.391652528863922      44.945448089493993      23.256801620853381
  1366   3     -7.8971080075434852      46.421942372970854     -11.117836373874448
  1367   3      9.9574400161181273      51.256776830163759      47.730932614978215
  1368   3      18.539449701927545      22.422256088536351      38.444744660786867
  1369   3      53.669697115242997      18.652356602524151      57.255770196178226
  1370   3      4.6176475790161167      22.831826269867879      13.454710142948612
  1371   3      36.379839758268183      35.794611766782992      27.567413937837703
  1372   3      15.958234167210506      45.751417845381674      34.072902299339496
  1373   3      33.224630553688307      44.327819291627293       35.50676885318925
  1374   3       22.84411425995971      46.177415516363745      14.575969780526524
  1375   3       5.541429586199456      41.927494945500015      37.096427918466148
  1376   3      53.672183632738886     0.39180583945929776      11.319378087305811
  1377   3      5.0880569380802658      4.9860227933954926      47.201009780043442
  1378   3       14.54456520369253       32.68567151243078      11.529518568141981
  1379   3      54.434603883783559     0.77462913484092633      17.206632748988387
  1380   3      30.686258888280413      56.243592096808428      17.617048216020287
  1381   3      31.452185636111039      41.429994243853102      28.182482712511973
  1382   3      0.9899185434308847      6.7340739848303723      40.205725814647636
  1383   3      2.6441082930821844       33.78360690551186      33.836058218155891
  1384   3      4.6903570213045489       32.57267120183527      9.5885237135852162
  1385   3      18.295357454986107      4.7440981750613114      38.639991942437398
  1386   3      41.839361134171803      38.207638723631241      52.049278196489546
  1387   3      11.793493615084246      14.576158429742309      45.730915827854204
  1388   3    -0.45510240775859589     -7.1773212824790757      27.207504075771244
  1389   3      21.265764220003863     0.49153313752423611      52.976630060477909
  1390   3        8.57767921043801      20.423237164300971      44.913656538208173
  1391   3       34.64585343649081      39.691529376596741      14.115843825758533
  1392   3      14.652812272793017      24.812887775610967      20.096680412879504
  1393   3      19.698036429714691      22.592076698400685    -0.31214712833017916
  1394   3      36.337509751192989        55.2500511418759      34.560641113720628
  1395   3    0.015883833886742492      5.7724641090599711     -6.0491678490497867
  1396   3      22.250764765431935      48.236712335414261      11.109459749107094
  1397   3     -23.284155163259161      7.2361178543204785      1.1877553465102881
  1398   3      8.5921497562931144      22.927895069849367      27.504001123860128
  1399   3        22.5741473817965      37.840351735151671      35.066362451880821
  1400   3      35.585728629521867      44.823959761630796     -3.1781543562462242
  1401   3      29.065936284609752      20.829641454927348      12.452715880833242
  1402   3      21.104999454903442      64.926773538394073      22.176353434733368
  1403   3      23.527144389342293      42.021031333004302      31.095706516640419
  1404   3      36.921660098059341      32.403653904892025      18.140234011408999
  1405   3      17.830832145385305       12.68348175235119      31.560993141431783
  1406   3      17.641701927989839      49.546612429359755      51.953177989329809
  1407   3      28.623076083383253    -0.33144596940708654      37.947578598340911
  1408   3      32.670595717936372      7.1496771056061181      4.2506730227456631
  1409   3     -5.2199702799243459      43.373428197250888      35.750048165409417
  1410   3     -2.8801636411027403      24.248997448880843      8.7858997389670517
  1411   3      22.146996373626042      43.798385548101749      20.410198392337414
  1412   3      50.373153294647167      35.723599259396032      20.995957773562388
  1413   3     -4.7129764604442617      22.832006068259069      54.370808372655326
  1414   3     -5.5403609831439917      45.236418301587435       32.41420415144016
  1415   3      15.681104937216411      10.833264817284283      31.903333225009845
  1416   3      29.264134839090303     -4.2476167371399276      26.679917084904655
  1417   3      4.5646305789427775      33.643376216968278      16.335091115852062
  1418   3      3.6539633236397755      30.291907661840781      7.7042450482573539
  1419   3    -0.47374247811485276     0.22182555792433731      12.160932792010787
  1420   3      1.9930201269826233      22.540256775203705       10.45854131845063
  1421   3     -3.1654097297262096      11.242618660150832       8.112011875686143
  1422   3      51.720527354857964      34.779437840444459      18.171804977850673
  1423   3      12.180804305125294     -1.4423058397503696      24.419140772131485
  1424   3      49.002442939165078       24.52191222166611       18.96375635904803
  1425   3    0.005872857661930039      2.1816198349841733      8.6337267519933949
  1426   3      5.6259046333220839      10.230666274941838      5.4523627127519516
  1427   3      30.513316098457199      34.593451387686891      5.0331683993723884
  1428   3       28.86633838948644      39.932948883744153      30.848742660284017
  1429   3      6.8615689162133231      -2.482048552508564      32.372113038369683
  1430   3      23.685659850563535       46.57004034394766      37.101374865228713
  1431   3      7.2186075989389638     -1.8366451867027285      8.8482353382153267
  1432   3     -7.3444850914598581      40.304685754110743     0.48976970198289016
  1433   3     -6.9682630715446381     -5.2501327459042066      -10.73203210114435
  1434   3      43.146138402985024      25.466312437805204      28.883885845183077
  1435   3      40.012212907059663      22.612518139276581      29.456798673580284
  1436   3     -5.7676829083945389      59.806298669569607      35.943688911418569
  1437   3       10.16343289306613      31.449323126257188        36.4196072724991
  1438   3      10.535831684958428      12.355192008533225      43.797028320914833
  1439   3      51.814548639305848      35.620306517878483      27.434416363405479
  1440   3      9.0436948172660117      22.919651582955137      18.997500486212839
  1441   3      41.956319142003167      53.295029187823339      27.526046396570813
  1442   3      33.767438473336703      8.7061741656492533     0.97977734836235653
  1443   3      57.254832718185142      10.850882832043416       26.36255724983365
  1444   3      6.8718649226647184      22.614519961845744      15.798620146663181
  1445   3      57.923888850058816      -1.176765488073733      33.486250353424822
  1446   3      5.3917462909941101      30.023398057153386      13.052966279138861
  1447   3      20.441487587399148      28.587642706488914      46.035262682164216
  1448   3       3.414210776282768      54.965818881525415     -10.232976190448753
  1449   3      23.471260990859825      33.123229828375067      10.828182101681326
  1450   3     0.14079953746837298      28.518865466368872      35.001737724530173
  1451   3      21.783389908167347      18.811505978107753      22.083685155208464
  1452   3      18.123984540848742      28.841530093766028       19.14857950752824
  1453   3     0.33325534422351066      57.084728461297033      43.962696285381739
  1454   3      42.125159456158322      26.402078734753349      31.556677329619372
  1455   3      25.242786847238055      19.154108928660037      12.553397358133482
  1456   3      38.719946857882164      26.593320045840024       5.206746306959821
  1457   3      24.500508452898099     -7.9817817087450109       33.30743330511222
  1458   3    -0.80529635743408468      41.651835345711426       43.98867205595446
  1459   3      39.517348429817538       38.35602184281732      28.120629255682019
  1460   3      8.7950977338543677      33.686203940506779      36.957809542145867
  1461   3      34.807464423871437      13.412642609095078      52.250788387121823
  1462   3      48.915581908874593     -2.5969712717619728      24.455339909582314
  1463   3      17.855074560016831      43.401409885610505       59.89336970134098
  1464   3      20.048588495143328     -4.3298592515521497      58.524151911703569
  1465   3      36.553007560203433      22.049992821780776       12.05731580361441
  1466   3      24.180091396622203      45.603969958578354       28.45974812315475
  1467   3     -1.4866668229159545      51.123218708316628      38.510881117933813
  1468   3      52.969305810970461     0.69786030225938234      20.830138391655012
  1469   3    -0.81322125405501255      16.600795360170768      23.236058997522814
  1470   3      14.657603167367947      45.468071621134392      15.548686787490844
  1471   3      31.375406256470132      1.7321033740793181      38.994184329601701
  1472   3      5.6576364731522899      28.694219468823746      9.5139808514274762
  1473   3      28.976626874575686      7.7811673844870066      3.0475302413440897
  1474   3      8.1020240988613121    -0.44472474352068248      30.882521674956827
  1475   3    -0.55450647455683055      43.579774292655571        25.1202398614105
  1476   3     -5.7146263040809222     -1.5276626983131327      29.916988486189201
  1477   3      22.296021060683938     -2.7793879610279997      57.445030974230619
  1478   3    -0.54695964857744428      4.2913646332287891       40.46360207159627
  1479   3      27.974608747004616      18.218376089366956      12.794630379828156
  1480   3      16.262317480417295     -14.932942307293661      51.531710183295452
  1481   3      27.708034700978022      1.5581487291312919     -1.6363247130227581
  1482   3      14.119372075063444      43.609403189956744      13.536831236081158
  1483   3       8.221266306851458      7.6807008699280059      43.714884895121116
  1484   3      25.840186303425735     -4.1868628310446923      19.154356110392214
  1485   3      2.3284268115755093     -3.9280300471084755      32.131924544313833
  1486   3      31.378735481136296      29.087461121981683      26.614483680789274
  1487   3      15.035443827439311      27.248746947106586      19.073261180061564
  1488   3      22.312803513361487      26.200557726240827      51.051497211921934
  1489   3      36.864136697568881      47.980712527942238       13.32048942908613
  1490   3     -0.8439842620553698      49.130222828452595      40.292714216177743
  1491   3      32.442565324626777      40.516842470051763      11.072769968189425
  1492   3      17.439969300970983      11.763528312478297      37.732875340196436
  1493   3     -10.902553281323296      -2.057757952657993     0.70961067814731993
  1494   3      30.057359819004411      53.643818076395206      18.046953963442512
  1495   3      33.405623810071667      19.428955906863568      4.9216734693838688
  1496   3      23.089132940280624      2.0195362450040126      18.844167626483205
  1497   3     -1.1632142566468102       36.52649845804212      20.544471638749684
  1498   3    -0.80921434303822382      56.802962135192075     -7.1294805474629728
  1499   3      48.084559507688311     -2.5377915012140217      14.645809506001383
  1500   3      25.707587862051671     -3.4694296552609347      35.145751304168364
  1501   3      24.419926114002831      6.2708682827242956     -1.5789221383566068
  1502   3      11.749312419215547      38.835687655123017      40.431273811050325
  1503   3      15.356556530517171      26.673065766166758      16.220953446452626
  1504   3        28.2900397605653      21.534816407043738      28.756168774690547
  1505   3      18.576210021653669      23.619348052172956      46.021604419384566
  1506   3      34.814853305400177      25.309482384663085      -1.159116149931525
  1507   3      42.447389265111283     0.82528551082983614      14.815537768918238
  1508   3      18.969330757641735     -10.704676833106614      51.665732520338629
  1509   3       24.66401118468282      26.987146981982288      49.803791299809411
  1510   3      50.929101518008473      44.620235353776657      34.878989215505754
  1511   3     -3.4395510004270435     -3.1638249796438065      51.984173405520224
  1512   3      4.3787713862430193      2.3292639272427644      9.4486382283793127
  1513   3      37.010932717443112       44.98409273700544      24.188974020251337
  1514   3      17.294678159877463      36.908875130268235       33.39498523907379
  1515   3      10.775977491913821      50.645340158299533      38.086337691976446
  1516   3      15.531192770659921      26.448646930108804      42.532591979546517
  1517   3      54.985733836873273     -16.442506088293239      11.842373375200848
  1518   3       4.780403754422796       29.64290084740685      22.388237365902921
  1519   3      2.6614622489826054      6.3232223940806813      43.861919795866989
  1520   3      27.417408329640381      28.270833025816017      53.460115937162762
  1521   3      6.0916219815003902      55.752340088746088      -6.826790610320324
  1522   3      28.635936295742642      22.830328374249206      9.1038313797715738
  1523   3      40.065316117434278      34.060751798315266    -0.80434379556143809
  1524   3      9.4854647524788849       26.51172731962582      49.968177415607954
  1525   3      21.602353886262222      15.409767466420337      24.724976057645168
  1526   3    -0.33639215444375897      34.205947784597768      19.628197294529667
  1527   3      44.011152829425477    -0.71059186797975193       23.20303860273987
  1528   3      17.290376382437039      1.4862074041989835      48.460594845288099
  1529   3      6.3192203895034211      32.495188369511744       36.82631049538513
  1530   3      49.767085652264001      36.755166971814297       18.65160227615252
  1531   3      11.084259340408645      11.434892569453009      26.273777751680132
  1532   3      14.802883004481581      2.1019915851894106       49.50325815027297
  1533   3      11.442297706291219      16.147922890200462      16.320516441923704
  1534   3      3.8023201160476345       33.55603696147768      52.748565657185836
  1535   3      5.4836115665309197      41.278412727631697      33.966328232743798
  1536   3      19.643120483114885      27.543103399974502      48.586343338223273
  1537   3      11.698060408524471      8.7838338188152001      42.387996648358907
  1538   3      36.768996955446049      49.956045887360993      10.370484449973247
  1539   3      25.815276494478844      48.620708597454382      15.166020458376801
  1540   3      20.941499155012671      25.076736412960752      48.800727410738617
  1541   3      19.558836350151765      25.696391977769078      50.883729409266685
  1542   3      8.5446959373236275      24.407541009578807      29.781832814284986
  1543   3      21.624191892674734      3.5558763914934963      22.957711432861437
  1544   3      18.579841359957136    -0.90037505991971589      43.784796536554467
  1545   3      35.039517083165642      4.7693223014981134      25.936583912482735
  1546   3      14.702879784241736    -0.91141224660817466       23.23885633571874
  1547   3       17.37536579656113      26.321775447084558       20.44566371118044
  1548   3     -3.3214444152575959      37.943136731148179      44.906072090888117
  1549   3      11.768912264300866      33.052757442571227      38.145956275102449
  1550   3      9.9501135391505606      36.705064559206932     -2.3601147265206759
  1551   3      40.311064827029377      12.300648228515268      2.9097884551245374
  1552   3      14.493035679962201      35.563725771352495      11.133017716083936
  1553   3       37.76900400816475      15.602208148285897      40.073630780052142
  1554   3      40.264419039704308      25.337947440017249      29.000350143443203
  1555   3      35.425732997586294      12.354304523915077     0.75809127706128521
  1556   3      33.024997148821811      16.597005211883992      53.936889699043277
  1557   3      34.248103340460517       43.38286509741588      26.288939150266533
  1558   3      22.202398599884415      27.146053358786457      22.940678077002211
  1559   3       30.63530678873045      28.168862381392852      17.903877960015475
  1560   3     -4.1495066802098899      37.860072554582999      35.516232692123104
  1561   3      46.809954004755795      37.170208908824705     -7.5802236769827651
  1562   3      10.484421036663495      29.654259921191009      19.940552044042938
  1563   3      15.305614664502054      26.395844111117235       25.03394522325657
  1564   3      25.362383264522855      27.478459831924972      42.054893277635706
  1565   3       35.12562822005367      7.1524929555675856      2.9486564563024253
  1566   3      18.503691376893279      2.7373102289329343      40.815993343564898
  1567   3      9.9500174133656287      6.5012373931413006      41.511606552740453
  1568   3      49.634308766724267      7.8407273420564607      26.346337030862138
  1569   3    -0.82070672402014588      54.903388820150525     -3.3675103793536287
  1570   3      36.758519264495149      27.058233093365018      48.408471418310405
  1571   3      34.680882665826473     -2.9901964397925922      20.145984117999699
  1572   3      24.640368855025631      42.686401334246476      28.722084682385496
  1573   3      20.812641872570364      47.342357421980466      12.988158735851634
  1574   3      10.604160212559121     -5.1287296558469162      35.872351788259778
  1575   3      26.967577291993468      39.819549946247896      32.933253138274537
  1576   3      16.519799900836912      11.374860020830887     -2.2665562932259884
  1577   3       11.52197050891942      33.304457483371216      41.102207164730174
  1578   3       32.51130244199895      35.143102709468522      3.2633010278196513
  1579   3      6.4115747432791448      28.884862354625824      31.824219851306413
  1580   3      28.369790559107219     -2.4583560695574067      36.034607651067446
  1581   3      27.152876862614047        18.4048951624737      42.616842504296265
  1582   3      18.136564219030031      26.106432470839842      5.6999737934834336
  1583   3      63.840110042289112      17.980826067796272      15.748238266436182
  1584   3      44.179177383422541      31.352165504199533      7.1644999114257164
  1585   3      22.282015365893887      40.314045869933466      36.034304357064734
  1586   3     -9.0099064450761706      5.5078370871760391      32.955538900068881
  1587   3      18.291132862546057       17.57283498059207      32.283341692528502
  1588   3     -7.1588783757197785     -2.6529394123372825      2.0562685280876409
  1589   3      4.1367728420919629      32.336306680419604      1.3951960752398498
  1590   3      28.506707175843161      2.3954968742793645      38.676583090414276
  1591   3      15.836374440402087       25.37784699210706      22.465981603438742
  1592   3      41.502735821148164      23.460079137395184      27.503553416090206
  1593   3      21.920087313365059      4.2194301634306015      20.224648154761176
  1594   3      34.094479228419026       28.50169467952427      27.167021494399211
  1595   3      23.612188362289547      43.999974550463044      36.213645711757081
  1596   3       21.57550916811082      51.735367295523076      25.756926878219449
  1597   3      42.223536558645819      20.730139050139876      3.0065871326873124
  1598   3       44.74670044897789    -0.91885583861089193      10.500900569821734
  1599   3      28.036387308897279     -1.7928532505748016       25.99569766114605
  1600   3      62.041105741417475      5.4186059100387656      33.121353554143262
  1601   3      42.253347043153418       2.385411921673608      43.140493466760311
  1602   3     -2.5911160115701679      48.735908609403459      38.226763252187943
  1603   3      16.179187814516336     -1.9202742753874047      44.203441666390226
  1604   3      35.632640624326648      26.077633914641915      28.192561097338761
  1605   3      37.292064224942564      46.214289102499826      21.568440336414735
  1606   3      29.700500656353498      39.593643253330981      64.347806572354585
  1607   3      10.729612877665726      24.687954048134159      27.965808989235452
  1608   3      32.486815031479388      51.155724225148937      3.2050134358407862
  1609   3      17.380937128102445      5.1273158648564605      41.089510857545349
  1610   3      16.640599923955627      30.161205226227171      30.062590110226065
  1611   3      35.879504434800069      10.029260428509088       2.161620192492435
  1612   3      20.274902205092932      8.8113216887364114       16.12108370346262
  1613   3      38.021126865770711      23.260754538353822      31.436778794327878
  1614   3       46.83652873607393      2.9246192905843245       35.95163487311104
  1615   3      24.825700571126557      47.819123562261581      12.670881075485495
  1616   3      19.965264896899207      47.103513820849727      10.049011298929372
  1617   3      3.9542071893665858      20.984200727073247      11.540995127062372
  1618   3      8.7814492583156536      17.348914527715376      25.576789026239137
  1619   3      39.744415114432307      21.028923244276797      26.952730129292235
  1620   3      36.106436426512552      13.407968123833923      39.362164699960829
  1621   3      43.513182320953838      39.195731428919892    -0.94362443995369105
  1622   3      37.797678780556971      21.262631892547073      33.695947165077342
  1623   3      26.906045497978575     0.93951089652731312      26.131627321952873
  1624   3      39.944704503127177     0.93060139984073509       42.07589078745135
  1625   3      58.491930692316885        17.5339382789989      3.0678551918671575
  1626   3      8.1355959444173873      8.4915294512508801     -7.7178670082481196
  1627   3      44.968841715487656      5.7610927623898496      16.628475142218772
  1628   3      30.680914921180765      14.911173720762886      34.689995549215965
  1629   3      56.701419892274501       12.46327933536317      21.323994384575492
  1630   3     -0.9936642183754606      5.0858914940778854       48.16009332045958
  1631   3      24.679179492819575       11.13434746110954      17.998899409975404
  1632   3      8.3668645084854312     -6.9303370654634167       36.29951145969045
  1633   3      25.554606558704918      3.5701248800470635     -1.7691536523213021
  1634   3      56.946752275631582      21.881635205208504      6.4638475936239379
  1635   3      2.3525748753705238      53.169208897735814      17.542304481617812
  1636   3      44.916274995565203       12.70488551375453      5.7089142676426441
  1637   3      21.015786295114623      41.607761059784984      21.648170219871908
  1638   3      29.749214823630979     -7.0944007834173499      11.043932060879447
  1639   3      16.791268716363586      29.164376495482578      16.220863189635303
  1640   3      7.5676481500167023       30.00613657543288      11.045665633835505
  1641   3      8.5835715474315748      35.974066704708804       33.08363379448074
  1642   3      57.759076829569807      19.714187282486762       4.796275812869971
  1643   3      40.339634261802864     -2.2578579846865332      30.722045128735051
  1644   3      40.649548869342432      25.566895944637874      34.153904536119569
  1645   3      15.407770697016886      31.357427504688886      45.184250311313413
  1646   3       19.89242117670198      20.433970265418456      22.198288823626829
  1647   3      42.647058926236106      5.1799976944100266      30.454999383380876
  1648   3      41.834890070960881      25.532823633797978      10.803608754407897
  1649   3      10.434796585773491      31.592507130455946      44.291315442154456
  1650   3      49.147865286409569      8.6235109639265701      34.403091894809343
  1651   3      4.5373084426150818      45.357525237779157      33.940091880692556
  1652   3      16.005230072552461      10.892093263097058      26.109355075878405
  1653   3     -15.421100397914323      60.001699140395154    -0.38343868036438933
  1654   3      23.190000395370575      36.412095878018143      28.586375198699329
  1655   3      2.8614741067049594      41.961296662076556       31.35938640269498
  1656   3      17.472835378546169     -1.0919325684900569      49.497962433395692
  1657   3      5.5736855923294426      11.466113276083863      9.2331495593632642
  1658   3      10.424133377082759      38.146232535424701      50.239460746742338
  1659   3      15.961032010014025     -4.7176159549186378      46.970067432978396
  1660   3       59.80812313602673    -0.80470504512995733      35.591091433104985
  1661   3      2.5541735977040236      15.251509740204682       24.73863050214262
  1662   3      30.557653189335834      38.370909257390991      43.305366045489812
  1663   3      51.345251956419425       18.81571438383563      10.040253545724051
  1664   3       7.058190299030163      21.205646929013941      12.571010140330742
  1665   3      19.126884743075774       -13.9297263420266     0.26677985199211612
  1666   3      22.993293189844159      8.0431676655153694      1.6577692134934101
  1667   3      8.0500770273069886      53.069145174666133     -2.1802552216839355
  1668   3      23.616227504273077      28.968284554663963      43.705057516254762
  1669   3      14.331597846979518      27.226916999963265      13.660622783333999
  1670   3       22.14784470577872      19.956353715698572      7.6866559752901491
  1671   3      36.002102586087872      10.730142750392529      24.069330456031075
  1672   3       21.96016137297288      8.4396773577453583      18.552979081362434
  1673   3      35.219210952535768      32.324172500739003      20.458187722584224
  1674   3       12.27552086212112      27.814210984872606      18.324415916050896
  1675   3      35.360745027351243      39.649557027226159      18.053516857554094
  1676   3      24.719792046076805      27.436531471687612      3.7230301983822369
  1677   3       16.86256581495298      29.455679091679723      39.941438155867168
  1678   3      27.998865533878387      39.414138723682697      59.450575151179471
  1679   3      31.381279660327184    -0.94604416763435206      38.167452156961225
  1680   3      28.107967179072553      40.582907913250089      61.987023986885745
  1681   3       10.00350975831542      10.661656420605238      28.745966059840892
  1682   3      12.589032685416088      30.163630540173337      35.481887346606378
  1683   3      36.840276478780893      0.4444961714460316      15.873861865996023
  1684   3      42.859462601419018      22.391458288906431     -3.2775495329589526
  1685   3      14.648143093615833      13.891673934038574      46.478448834858689
  1686   3      34.629950073885112      21.954816818082335      38.995668895206116
  1687   3      25.040115321914506     -3.2708707034686628     0.15484784042966362
  1688   3     0.61786461177469376      20.545087066414531      9.0362793841546267
  1689   3      30.111852778500296      21.090836087392017      9.8851768816567152
  1690   3     -8.9084875409214934      48.748164537561721      39.325403122385651
  1691   3      40.573225369775152      24.117252390519507       31.61535301329474
  1692   3      35.115027383658472     -6.6790359551271203     -0.3683915000209223
  1693   3      37.048177905887606      15.424848830823249      12.363110455458859
  1694   3      29.180462180203698      25.750094021728685      54.334650518870809
  1695   3      5.0432122151840746      15.819618067133121      7.1388702210479895
  1696   3      39.316154667427796       17.58762147464822     -1.9938066285774947
  1697   3      34.136518952650825      7.2438945818152698      14.400938785992153
  1698   3          13.24077868232      7.9664448649638668      39.890023135549846
  1699   3      39.171804666391054      31.909294479258726      19.966522337903267
  1700   3     0.87336660256074694      44.554006691640637      16.518187706301855
  1701   3      34.077728858446051      30.913408382236867       36.55890243384907
  1702   3      15.171579977878636      12.653989683154512      42.660073056751543
  1703   3      57.241708304007496       3.354668525012757      29.876666683367525
  1704   3      24.981332676284897      18.872256919394975     -10.229438503510581
  1705   3      17.449016164033427      50.560998464031059      43.351865445508437
  1706   3      6.6284274535037229     -5.4121209188580517      34.676309417815681
  1707   3      25.345022474534183       30.20169366110941       52.39082786181546
  1708   3      17.570377607190988      11.248611229816914      33.849157190871061
  1709   3      30.099753652388305      38.426517102157064     -8.6358363508144382
  1710   3      27.934157475224588      24.172808117406124      34.883314490623768
  1711   3      64.714860496194063      10.523810568581517      20.182440404122381
  1712   3      25.679936839277417    -0.35156335811960804      38.087724175190736
  1713   3      14.784036741129531      29.982254420608296      14.229726559124904
  1714   3      15.425198646530514      12.039789722560052      39.635002375817301
  1715   3      48.534458723462379      32.226265349268928      42.718365101627448
  1716   3      16.694114936903336     -19.735108256251856      42.748922104756403
  1717   1      24.482928024847006      39.927895866358888       27.61740478708348
  1718   1     -3.6631521675755163      16.042688103662478      45.954264942099201
  1719   1      15.052289583286296     -9.9461860559900774      22.001505211051711
  1720   1      7.1265580660305936      25.692378205934446      4.0571872697799582
  1721   1      45.564590726557725      30.304174957486374     -2.6143889466203247
  1722   1      37.160385938674175      23.035656840290358      17.926461905810417
  1723   1      2.6911185384930514      27.020028320711422      46.907896434647704
  1724   1      23.495463732507414      58.620602406387448      22.207317396851582
  1725   1      55.188914434454006       2.000964040508268      31.750501876049572
  1726   1      44.901399777792008      33.021878833517874      38.655030080504325
  1727   1      6.7382708048060849      37.272304469445416     -4.9995297856258647
  1728   1      55.889723925473575      13.517829552684105     -11.022442991477128
  1729   1      28.317817208449217      12.488826925471438      4.2043574109321886
  1730   1      1.6395332496898873    -0.58578623284024411      28.469313868563322
  1731   1     -4.5569525742536063      25.721112229412618      6.8867566312767057
  1732   1      10.765536872591838      53.794725631658395      28.508280138601158
  1733   1      49.405983708026127      37.438703980171034     -9.4945650932880756
  1734   1       19.43609636241246      59.179327716204419     -1.5054199557616252
  1735   1       43.46264148938787      31.084446200202851      19.851239949908685
  1736   1      48.009702719294935      8.5337906081994728      23.736480818252883
  1737   1      40.379988298068788      13.616423427515006     0.21346958539009767
  1738   1      28.842599148187716      39.756599243868955      6.5788633905626552
  1739   1      39.325156156634783      21.837640253839957      13.114206264719812
  1740   1      30.276946548006087    -0.97882825922880556     -20.885112105675468
  1741   1      24.124216624421852      17.405139594426185      32.357848186414465
  1742   1      39.542018206820089      41.830578185380347      32.990027908391866
  1743   1     -22.329480791066523      27.679539823021944     -1.5588841837392549
  1744   1      8.7602307543494362      37.987300900079092      52.856370686632935
  1745   1     0.81908051291773498     -7.9751988222362167      49.659318562736068
  1746   1     -7.3538251575230031      32.100141250747527      31.813828790093471
  1747   1      20.605001368962942      6.0362704871956501      17.496335495911286
  1748   1      2.7729360872524267      4.8230320762395298      1.1699580908594414
  1749   1       10.79179040644426      24.192994476884316      3.1778208990975627
  1750   1       2.887227890614843      11.976236326841914      59.771676464564919
  1751   1      4.1067371688150347       35.56898906504717      9.7706627071665828
  1752   1      29.071379427674415      2.5939628132339063      20.002269032026458
  1753   1     0.32828877655828775      45.612403577992325      29.915145738857547
  1754   1     0.61924245809901746      17.056798993015548      26.102316556940302
  1755   1      65.341098450134396    -0.41710645536350927      41.505870101156162
  1756   1      19.414635387696684       42.60321008505224      19.076116088659443
  1757   1     -4.3768399533953097      12.792611434611768      45.171632427188435
  1758   1      21.593959109448804      3.0664024930344613      16.121676266442734
  1759   1      48.118975821083502      5.4506725530432725      25.643712322463333
  1760   1      22.563091354450933       28.51079992722309      25.797435294065689
  1761   1      2.2426643176949557      22.211287965290136      23.527673886516705
  1762   1      42.126893471112083      36.072567377571751      5.6534416509986247
  1763   1     -15.203244156725765     -3.4765527227678041       7.588517710563341
  1764   1      14.898061858546143      24.635844183159588      28.785487994104706
  1765   1      28.387611044788834      20.455687492902928      7.1211439671097825
  1766   1      33.568705214780813      43.359311793982293      40.878014537163459
  1767   1       -3.73434892000164      39.569330470947783        65.9846267229576
  1768   1      37.022038496107164       27.90244771275616      51.881078195763891
  1769   1      36.174082268978481       37.59779899605924      42.184754934441521
  1770   1     -1.0591436796579483      18.273631307033781      20.572079684441324
  1771   1      31.256344471014348      20.680845932386685      63.343580059624252
  1772   1      10.699733944106381     -18.487748142379761      41.487986198782231
  1773   1      49.097157074540533      12.561892914363611      13.744377587686992
  1774   1     -2.2038776000045845      31.102427598718574      52.475620092870471
  1775   1      43.603686564978915      31.800065861518696      28.475574602193724
  1776   1      35.256339791602066      39.636995383262494      3.2654789289882871
  1777   1      1.1511669865172789      34.313127578692331      36.799445503724584
  1778   1      34.573514218221391       46.32937939652723       25.39598741595702
  1779   1      20.672399590946426      16.715951709965807        34.0192561778289
  1780   1      1.6152057917010263      56.171310869171521      46.638214601785897
  1781   1      -8.301981955399361       26.58586579786812      23.352762919161389
  1782   1      41.633361232925608      41.380909455067673      42.367523602539585
  1783   1      33.235711180669817      22.447577785150788     -12.767420627222732
  1784   1      12.555124542777127      48.978110605946675      65.509373377450189
  1785   1     -8.0826709376499331      61.417708069233001      54.764963058279719
  1786   1      17.235846225110095       1.848714557952031      37.947524376815693
  1787   1      8.7480431011525503      38.907607015541736      11.391423184161871
  1788   1     0.35090735771374965      60.188761907038774      -4.571880828514499
  1789   1      21.182237705989579      3.1685613980015432      55.083059740447901
  1790   1      34.550294242672642      15.774006765036926      26.833675640339298
  1791   1      52.069276390552581      10.444506062818562      56.093002104602945
  1792   1      37.570100743189322      35.796680841306859   -0.046193914777970996
  1793   1      28.559789715315659      53.686970701278916      8.1794610473857183
  1794   1      41.821881107356589      44.826293951703043      44.775356083870925
  1795   1      9.1412458990929402      28.362105517189605      5.1860112959888713
  1796   1       3.509669033227977      47.455800915843035     -8.0313784349083299
  1797   1      12.897096859761493      15.504374901917098      24.707683016342141
  1798   1      14.133160861040562     -24.949410968504203      41.409697906553539
  1799   1      23.393926006705552      47.021284656445133       2.243424175591195
  1800   1      21.763803602460339      11.988871886393943      16.515538301380253
  1801   1     -24.435220500050068     -2.7514688047822689      6.3922439018860135
  1802   1      41.354030402421024     -3.8402357417204676       15.41358939157989
  1803   1     -7.6053973514922157      17.633677705173014     0.58405672387412577
  1804   1      6.5372891938768349      35.109349871841061      6.6589395319095175
  1805   1      10.579329079356842      5.2094766056513793    0.011888141909830263
  1806   1      9.1446295921749385       25.37172709493716      6.6645291343532929
  1807   1      28.565309756514594      29.605545038471274      13.296323298806341
  1808   1      23.395185695308793      17.882938770667785      2.1771290250056521
  1809   1      15.501601878419679      5.4847508473984155     -10.056501989704474
  1810   1      -13.10893525924379      66.556439567134021     -7.8521647268174313
  1811   1      43.229552739208323       16.19196857070698       14.96120136694698
  1812   1      35.666493421149966      31.208020228217233      63.548688171322532
  1813   1      40.202739936164789      30.062211947772109     -2.4620745532714787
  1814   1      21.270986443820121      23.045216339461263      45.182150428328747
  1815   1      50.214730322667684      20.918826826272745      6.3848138897796654
  1816   1      23.179660819940835      42.429840821728256      44.135282318223034
  1817   1      10.954907902516792      18.156135006360707      6.0700536632164157
  1818   1     -5.6714702279974851      36.341819914407651      22.260384904630111
  1819   1      60.424513193813254      13.126569608934716      59.439421786906294
  1820   1      28.864798490961544      2.6761766764415262      33.297062534492213
  1821   1      50.323143517842418      2.4355762636576235       39.14740509397236
  1822   1      8.1284660874118284      23.063015782304916      22.033571266174203
  1823   1      15.389629497925498      38.857959984124705      61.109855996003155
  1824   1       44.03083970132375      12.955052975908201      14.403748093770819
  1825   1     -10.961593095402229      45.156646282484914      18.849647600677226
  1826   1      7.7529249214911147      18.629341666415886      46.921629818256555
  1827   1      38.079590806878421      9.8771685789109878      14.306622665813505
  1828   1      36.895391889089744      29.806443930878277       36.15124021817352
  1829   1      21.564894337347269      48.828320046507464      44.444057984611298
  1830   1      13.092960752725523        33.1415160089445      51.091178044497667
  1831   1      23.006592096468768      47.766580689816131       31.20863415075366
  1832   1      43.238145905993626      15.890163541518037      -9.956742042431717
  1833   1      15.280574535698829       22.73513987090513      32.367108526310687
  1834   1      -7.483512303177057      10.652569694462324     -6.6570343821582059
  1835   1      26.546253524584895      30.050026232523287      40.654327248366059
  1836   1      16.614749580016017      16.246849962458565      1.8820769737725154
  1837   1      18.509994763529249      30.394840148455309      35.908625359537218
  1838   1      37.100941441389637      42.144516592589468      25.094838802297076
  1839   1      43.437154678772252      17.958167274540077      28.839654340533396
  1840   1      -10.39090027512313      27.542467051377141      45.125275419909883
  1841   1      27.917333904254786       22.51005222411807      21.665221969217733
  1842   1      25.500039072278842       20.38265406798628      3.2471660658941555
  1843   1      25.395647109574774      20.955475355968176      28.200533544553558
  1844   1       9.296069999348429       8.451728426569769      9.4126068469074688
  1845   1      51.838630659961261      22.775622904806198      51.373260695576754
  1846   1      38.491556165911156      33.066888003717359      31.584765654998332
  1847   1      55.515355030042407     -18.675748112288574       42.56590882492484
  1848   1      44.790132883131228      30.357540536280951      14.034261063290142
  1849   1      28.989407379530785     0.33343021747500107      10.235641957072648
  1850   1      49.439204943235168      5.7300388964833404      22.555122762988265
  1851   1      29.625691962607689       24.44369057765218       16.06983646898486
  1852   1      31.287852045266298      19.868717078613308      45.141430279792743
  1853   1      36.564350374165123      38.830154283944452      27.026817385608211
  1854   1      51.946309887217048      28.323955222285193      11.526276159776661
  1855   1      12.120551709260925      23.273055913817686      56.912257399764343
  1856   1      14.283375711744181     -6.7891753178940935       42.14501508979783
  1857   1      33.409638725458677    -0.58858124543170964      4.6586069598415483
  1858   1      34.899096191268903      29.536973291225124     0.38363470513052894
  1859   1      31.963369073310396      16.685290957418523      46.258922858782853
  1860   1      4.7705406040544744      13.051871463431331      31.665658766843013
  1861   1      10.998305046152826       18.75658631805781     -3.6130501866678446
  1862   1      2.0787271797405755       17.21735741636649      14.377955945826901
  1863   1      25.925760633419735      15.081914796300946      7.1687016077304877
  1864   1      30.242450557183165      28.053453511219629      2.5972108779885281
  1865   1      5.2606959579762993      41.998594078642654      43.074784684234395
  1866   1      20.294781601404249      20.726048145093021      13.095315639857898
  1867   1      26.187313791012183      30.624240267732961      55.380321584541036
  1868   1      21.100433556895446      36.194504388609609      31.326654004022146
  1869   1      46.257290258384295      10.275289956690726       50.37514413708152
  1870   1      5.3422862477975137      28.047364460729273      38.766875267596291
  1871   1      41.713980777865643      7.1395258740965639       9.186405223117859
  1872   1       32.40933830413239      25.712823509925794      66.226817339760643
  1873   1    -0.38602683687481609      19.509629802418058      12.070551522156556
  1874   1      13.821086169017725      30.107315745758001      24.014686657981571
  1875   1      21.410595038846637      26.097136981821897      60.645050711197349
  1876   1      42.249490776483377     -26.200238028146504      33.719483408378842
  1877   1      26.707946126846828      17.567556043313111      1.8568195009906308
  1878   1      1.3551634409562854      57.679090907744147     -10.789620015277867
  1879   1      26.667780385541722      16.019189242788514     -13.691381402757973
  1880   1     -6.5850689364916475      34.763172118061249      29.663682525676258
  1881   1      31.024931797639141      33.596210978007946      20.512365948137504
  1882   1       16.25623240476121      2.6379636951175689      12.293137836938676
  1883   1      9.4553785290811003      14.483895455671673      14.466964126534004
  1884   1      49.254281363117144       17.01807726152289      30.046092978277024
  1885   1      13.971623894931556     -3.5908493842705469      41.025326668008539
  1886   1      72.037576028027686      17.189026269110268      8.5640315417709303
  1887   1      45.477010473767301      19.145042749763601       16.53306185009037
  1888   1      26.485849448179231      4.6349791546728669      41.969271471656192
  1889   1      26.685317262807381      12.879958399026453      13.060612178432249
  1890   1       21.71451555347079     -10.243843341429331      57.409097304053347
  1891   1      32.859235613589561      50.613464321263827      33.504654383048894
  1892   1       30.11251409253763      42.801118471010973      30.467909362917094
  1893   1      25.575592698502327       -21.4624904752303      6.9966550798895453
  1894   1      -6.689100898350655      7.2555494159937108      47.332420685588396
  1895   1      38.277686339215983        46.1929774835016      38.484670856873208
  1896   1      21.325053832478321      13.153286336546916       46.45909170536747
  1897   1       6.443730845571757      5.6338544997192699      32.968510157321596
  1898   1      30.041356610640602      74.171496348526091      27.204444189228781
  1899   1       48.03670892872502      3.4103504015711179      2.6648682928847407
  1900   1     -6.9264976391651132     -0.8709920657828093     -15.999577947049934
  1901   1      23.686757866668358      41.731417460499749      38.492890492211842
  1902   1      51.759942330226636      16.109529960613372      18.923154581191937
  1903   1      14.672639690929959      51.656658808927467      33.020291074321804
  1904   1       21.51644178199059      55.232846460148203      24.154863173266623
  1905   1     -9.7236081516875128      55.969495655663906      35.537036775114707
  1906   1      62.373217683291038      35.407101340527433      8.1224218134473887
  1907   1    -0.12667986795476774      21.604891488801798      17.674955902159919
  1908   1     -7.7598041823006945      12.806863084818776     -22.981280690868662
  1909   1      2.7935757882089725      31.739583819582254      42.897351575336522
  1910   1      2.5089627803848717      25.230229547099007      40.129339694137514
  1911   1      39.725688779971804      29.269556383390622      53.079829995669904
  1912   1      18.488587891419971      4.5190098282375502    -0.26733722252021308
  1913   1      49.137699581160248      4.7961109092260621      36.250947884706378
  1914   1      58.969515677666209      5.5765369198413133      32.496429945128661
  1915   1     -1.0498976629981793      17.970705876209461      53.357533807443886
  1916   1      41.401275940439888      33.752383853227471      19.714915540076433
  1917   1      29.372190863083361        59.7702827187371      12.539909006689227
  1918   1     -9.6874370234155744        2.28785094509858     0.95904377020993004
  1919   1       8.031560233046898      25.837827334018687      36.707254984306509
  1920   1      -22.70210331208148       48.64699267290635      18.098428955506382
  1921   1       44.74347245277302      8.7132376966138736      9.7478892752610005
  1922   1      35.418351055120588      41.663603346820189      45.364996694986374
  1923   1      3.7659517405708964      14.010551467607552      53.659369518215861
  1924   1       34.10415040787715      4.4005389116879794      12.607057486855167
  1925   1      23.123366729192504      33.845263742124942      26.456622222014293
  1926   1      17.007536574195093      19.540859382848939       11.41010220342778
  1927   1     -6.7251348841647829       9.629944430032257     -22.527025875631402
  1928   1      48.822730520360906      36.222788529678688      23.508636347390329
  1929   1     -5.3243150074176251      10.888834076829085     -19.416995753972156
  1930   1      34.159250529741897      11.425818882105753     -3.3403669001769876
  1931   1      44.018150832649923       9.493991570607534      14.642909505120024
  1932   1      2.4153351836698485      40.117214806884881      21.478744200514782
  1933   1      60.172522626684724      11.748623997225939      23.342531802209372
  1934   1     -14.356396455732206       62.83302105739773     -7.1050133863872356
  1935   1      22.371666742975037       24.10276166358042      9.5166469553306978
  1936   1       35.79669619904886      15.962431104211579      4.7642278339778397
  1937   1      11.080318591273572     -3.4640087160862607      22.223110072146664
  1938   1       27.32930655572509      21.071417403418835     -4.8839089133464375
  1939   1      28.928597987494342      50.693205035346587      28.121722333154782
  1940   1       11.23451240274531      26.694581908614847      13.802330329370349
  1941   1      23.356886753169405      45.500148835537189      11.473296637022496
  1942   1       52.13714476338243      46.940169465535462      50.872576405364988
  1943   1        43.4903002595305      30.949209492041408      40.380595217042909
  1944   1      9.4631376948535326      22.842941163842557        37.1350194218467
  1945   1      5.6573174156410184      44.115214235588986      25.195716794097407
  1946   1      30.228837230039829      40.638981495937728      18.740131020958838
  1947   1      18.908225175829749      52.018042895198377      31.981681205627183
  1948   1     -1.3879295188537404      47.566095954394811      4.3695955530345794
  1949   1      9.1541362643610711      43.878625513030705       38.68159301661867
  1950   1     -13.299129613523295      3.7199699772802841     -2.9906229257863499
  1951   1      11.607565271594382      40.096959651826211      29.957082617871656
  1952   1      33.502176916484878       47.29657420845971    -0.12012327737828064
  1953   1      13.377872302822436      27.237348024157711      21.894262125877514
  1954   1      26.762967736414708        36.3303615817089      36.066594088684617
  1955   1     -7.4438780550460173      7.6085023065045139      31.082465911344375
  1956   1      16.356063753242168      21.942144363559905      9.2521641676097932
  1957   1      36.653967241891266      53.642884016543817      18.793320589183704
  1958   1      69.013079503675442       19.01883949663776      30.317717917577529
  1959   1      26.838135175249906      44.263450071450478      29.406546822619752
  1960   1     -2.9940573012501095      -13.65005443430424       2.726555008029945
  1961   1      30.508887370441848      11.452655737099185     0.86965709972885452
  1962   1       14.88103177445778      17.346238555085339      46.709815855001281
  1963   1      39.897590294935867      37.725042825576189      15.333714194111687
  1964   1      38.999408516602735      6.6042016857637433      10.574561439246795
  1965   1      58.587549509493208       1.941784545059086      32.409737275228238
  1966   1      15.412196368779092      27.800595846489898      31.298977520908878
  1967   1       42.68588075117399      48.410712608461509      45.010375993728253
  1968   1       12.38939206527799      36.122164002511838      37.784262181473849
  1969   1      39.661069557288563      18.664715792700015      8.1674787275151033
  1970   1     0.10394037742862884      53.460194099317917      -16.07226114751511
  1971   1      50.719063112165578     -18.613401879670633     0.39968063698553813
  1972   1       5.794201282355286      31.575854571004363      24.634925269811252
  1973   1       70.65782706765394       33.93868227687841      53.973712752540251
  1974   1    -0.41203776107350626      59.220956101753949      28.267827588867256
  1975   1       20.66227676036107      48.733826678446263      28.438896671830985
  1976   1      37.132222014247859      19.171960439231331      13.127249044161164
  1977   1      26.786212152413196      20.552775842339088      0.2690954891685709
  1978   1      28.857050031328168      44.978756251697391     -1.9293515109210864
  1979   1       42.71999411565637      39.246706126725272      24.014202136199476
  1980   1      37.494711886160779      44.246197803651931      15.381649579312436
  1981   1      10.078605766855214      7.6063055156468238      35.506109458377907
  1982   1        4.34781377915857      32.297917402383987      39.008542962793406
  1983   1      16.468383282580245     -6.2033227663429651      53.683316719923383
  1984   1      40.359764779057798      11.506381998826836      15.942365215570291
  1985   1      15.686512079603313      37.405383532880919      46.937271276378524
  1986   1      2.7603362709481583   -0.035810462521797613      18.248008453477603
  1987   1    0.022560783114522705      28.080410514032067      2.4505164862304176
  1988   1      44.073360345341861      27.954216512545315      22.814660836465585
  1989   1      -6.755927645990667      15.343826193244034      45.390079139065392
  1990   1      7.8874776535450568       50.76025800791782      49.564893305447626
  1991   1       31.79858858830001      57.276289540636526      20.498078750308302
  1992   1      24.997922433973798      33.647795650551302      16.540919482232102
  1993   1      53.017837574726322      9.3006926117391178      34.857457296092882
  1994   1      15.642779550307221       20.36369574775674      1.5827327330129979
  1995   1      30.502366201114942      38.055902511583291      36.869611047525737
  1996   1     -5.9024923834338239      13.825648554191094      -6.400978596900023
  1997   1       27.85894519514904      20.466523632003081      63.943013657563569
  1998   1      50.041352175835662       27.54762598419979       6.966944056452312
  1999   1      37.934631207997342      3.4515140605950156      21.138394420844051
  2000   1       76.35197940789422     -5.1694956073817639       11.64798225393109
  2001   1      9.2987285861808715    -0.99675097574819926      25.710678835945515
  2002   1      21.954281478415652     -18.550530121295957      34.946960121734087
  2003   1      28.246342693095151      7.3784002207427664    -0.11169632787395452
  2004   1      13.057922537914282     -1.5719484820991125      27.265664988470899
  2005   1      10.266386868631209      8.8131386635391316      24.908642125166999
  2006   1      -8.301864258368683     -1.1856911230862779      48.285390921645607
  2007   1      30.675033659951403      9.2862498861501663      53.894412169785788
  2008   1      7.5637672560216593      7.8264455722092645      4.4622824420812899
  2009   1      24.907700038573548      14.224272326530766      48.172323916518394
  2010   1      7.0547860760770584      32.099218431041756      14.792929695682107
  2011   1       11.84505492766028      40.103359217469297      23.006494906241542
  2012   1      13.935239594706097      34.003515063822356     -2.2259479224535479
  2013   1       35.53999967463244     -2.7126556214473725     -5.8877609207962092
  2014   1      45.749491312720565      37.492514602582858      24.503449938600752
  2015   1     -9.7260808305714868      35.339793976713629       28.88616689727727
  2016   1     -1.1572816790009988      29.799034458926545       41.05564855182412
  2017   1      10.656483638757146      1.0602695177079176      13.701580677436358
  2018   1      54.528254148302089      42.518719252710298      12.783267835960663
  2019   1       38.27859172354885      12.220267273323751      22.639220900336468
  2020   1      29.473760983539695      58.980132722480079      18.414004470396609
  2021   1      37.981289939735618      34.322133077622048      6.7528493907231555
  2022   1      8.4632049465680907      30.508142717415289     -2.4365371654340047
  2023   1      16.295200603186586     -11.733734768244778      36.192730237621333
  2024   1      33.754629934120715      47.894617515366875      29.617021325167261
  2025   1      16.978014359312866      44.041704128329286       65.96360466201709
  2026   1     -6.9272653702672491      40.599821633081973      38.404175209114989
  2027   1      31.201501554184393      5.1191014438796358       21.00210256550309
  2028   1      50.533564800075034      21.544633961213812      13.528805145793219
  2029   1      39.678774245819383      41.260926817104576      29.096676554018153
  2030   1      20.017280668737474      61.937745107819161      23.104233438922268
  2031   1      11.945611793159783      46.790380889897101      4.5780257796844666
  2032   1      6.7181812066828996      18.780598757082227      32.340465633150956
  2033   1      19.420349950730223      45.655908144921376      26.227963093186297
  2034   1      30.836472935293546      31.992936513158092      1.4094890937876194
  2035   1      -5.559163513147455    -0.99807663067418573      26.892230702333471
  2036   1      38.373300151298999      47.401867200535222      24.228131410530992
  2037   1      38.593822921220536      19.508089485462818      24.477191281231022
  2038   1      12.212357399999132      30.075570086125762      38.423213812829452
  2039   1     -7.8632559680010621      23.377302890693446       47.57086456155519
  2040   1      56.787798442292122      8.9120546109815049      38.043384474426674
  2041   1      43.807018940194197      19.588085965410752      54.354124886650908
  2042   1      37.253839718921355      25.628108585135735      22.981209421512681
  2043   1      8.2570736569359635      22.881128516496677      10.243965075496865
  2044   1     0.41808574027631457       45.05652531711668      5.3803665441205615
  2045   1      33.840375736403352      29.099736414700768      8.0737287959605784
  2046   1      44.725764052103003      36.425682130820967     -9.6740140114529911
  2047   1      53.598368654815722      25.935360843713159      49.283343132672982
  2048   1      27.381403172549366      40.874326437080086      39.716829542021088
  2049   1      7.3117534724398379      30.919458754855064      8.1444236302497686
  2050   1      10.246547147962323   -0.093435452765379928      22.599138179397819
  2051   1     -8.2742389619532393      38.389800116984766     -1.6683633159027955
  2052   1      45.241364069962287      25.301983504013613      38.075901454500851
  2053   1     -6.3814184078958318      52.676034951095687      47.812599696299117
  2054   1      43.958034369296129      15.940873095205859      35.445738105028795
  2055   1      3.2163605229188876     -1.1072930120423787      35.336191763914101
  2056   1      13.445291146717063      14.337384293758255      40.612707502617177
  2057   1       45.35263710497636      21.125330579458943      3.1033933400060483
  2058   1      45.623549254020034      35.566049168201104      11.768129663607022
  2059   1      35.361591424913897      1.9120558793447913      31.214789824578695
  2060   1      46.598270550069913      27.187991074638578     -1.8853923642049126
  2061   1     0.53254245633935871      16.206420310979407      44.523256911305211
  2062   1      38.922398831687836      42.981972433679289      38.944955516264699
  2063   1      53.287236942468134      2.5738552394630001      36.708216478562925
  2064   1     -1.9435718972922089      16.205471331110111      28.102417198810624
  2065   1      34.017916204522557       49.71934341699783      24.188070054656968
  2066   1      21.061195214602357      30.107473539775921      -10.79911485268879
  2067   1      34.431657360014185      -5.517661858690369     -25.334168606332721
  2068   1      23.562530596971797       13.53257446708931      19.630383585267655
  2069   1     -2.0880665192953147      35.652790897648686     -16.045026533386547
  2070   1      9.3419822552266361      36.461816416356278      36.463271959860904
  2071   1      28.659191235702824    -0.87149686715646979      55.526680561524593
  2072   1      43.182404671025949      21.042378236020053    -0.59192212597622729
  2073   1      46.367929840458991      6.8109918040801709      14.199042600354948
  2074   1      32.038862322105395     -13.557069795450259      33.176739974683322
  2075   1      44.560556284604836      21.428274455815107     -6.1056994776916902
  2076   1      14.485068841275258       5.743766398104249      53.427606083187406
  2077   1      33.148124206773673       17.18497017735233       29.68353644169223
  2078   1      44.287495962071425      28.233891781058659      30.622170560317507
  2079   1      18.477210192041021      15.933854599221636      36.610455260083491
  2080   1      55.870522770433588      10.165152026295285      15.410084034885024
  2081   1      37.811021626947081      18.787337785813573      43.407174099442756
  2082   1      7.2345271106842333      33.327423285993284      27.558070193259422
  2083   1      11.023619918216889       40.40372665849609      36.010102077954748
  2084   1     -7.0165559293449595      10.684566531196998      19.800939876567043
  2085   1      3.1682743828306177       38.62668352880808      12.097743160318256
  2086   1      4.4682833254219094      19.287057208394259      35.964117849101143
  2087   1      15.783593341760225       6.065791305698645      15.633963594742706
  2088   1      34.530926867106196      29.022906215313164       24.24267810900729
  2089   1      8.4519743812521071      17.124941717140825      15.899758425747248
  2090   1       25.86338490455698      21.676247530369793      19.123605953775201
  2091   1      6.4415919987774251      36.295927899019702      25.803817739597822
  2092   1      11.355760603750827      55.010463029671342      10.877017577357519
  2093   1      8.7075011872615136    -0.29374482687870279      11.509255082026709
  2094   1      28.684934885278931      6.7799501931346713      27.616141008531084
  2095   1      4.7422354632090604     -2.4869695860228118      28.649797083547274
  2096   1       60.65833432930846     -2.1944349562981533      56.603275903839567
  2097   1      36.369553493046787       39.37988011647208      6.7781095875050141
  2098   1       25.24473334279763      13.860467512721637      4.0922475262256386
  2099   1      53.265034175228621      57.344997547388225      44.003343385643902
  2100   1       16.36816455178543      27.045350997009116       47.90114073637978
  2101   1      18.917969189312103      40.635917427589803      60.435592211034901
  2102   1      24.831128758663041      18.105639399935274    -0.82494600332793033
  2103   1     -11.437860686276624     -2.4439923367484013      30.174540830784458
  2104   1      44.934636009449839      36.247300734387601      29.153592346608349
  2105   1      39.026874638285165       38.68801780075318      10.995217223027069
  2106   1      44.040533753156943      1.9428131800123256      21.199466765667484
  2107   1      6.3896537667558482      32.770064045451662      4.4016198221990726
  2108   1      2.3583277069546775     -5.9040297218926092      40.102713373746624
  2109   1       18.63582852911318      19.814366620645945      2.9543283556592725
  2110   1      46.252610107879526      26.140702581951775      25.022840680869038
  2111   1      32.139895673003309      20.034867052185934      38.201355225545761
  2112   1     -20.804308440510141      10.710198333212601       35.19465634358432
  2113   1     -15.850538589158083     -5.0947384471034241      46.723705484312859
  2114   1       28.52806618923724      29.907792413653638      37.782160580987671
  2115   1      14.547642106380023      41.992546524636381      23.158740223739397
  2116   1      34.101927336018903      10.112118063064443      26.638226078956595
  2117   1      31.877175644563525      22.430109252317866      20.200557803256881
  2118   1      19.057751546943074       35.45339251100539      23.978121984435308
  2119   1      18.424638603860643      9.6321106035872095      30.609762496257694
  2120   1      19.583988711997563     -3.5658826555238097      41.996777130503183
  2121   1      39.180427829959839      12.216894456743853     -4.5595223623874785
  2122   1      17.979037945433781    -0.38569987084323182      11.747419198557289
  2123   1      56.705601333358082       11.20220728537768      7.0643218154871663
  2124   1       17.79055985805358      20.600152746711284       46.15403944814684
  2125   1      8.0730759687051616      14.518395146431455      44.977146071887944
  2126   1      12.705980793461352      67.382910385664502      3.1083565563280335
  2127   1      32.314206058729752      52.324830522978765      25.540308764621237
  2128   1      47.397457198109855      27.346719920523977      32.199703748327977
  2129   1      38.792808395501581      22.264382091453552      9.7498360166216091
  2130   1      28.485098596642629       33.47999873918608      48.033909833167442
  2131   1      9.1571847739518475      26.866463118615961      39.728769938475843
  2132   1      41.340877733352748      17.908076585491063      25.195616151515004
  2133   1      7.6112488240480056     -4.9895534995701301      41.587033997536146
  2134   1      27.329578405355758      44.745737551902948      5.9023454606932138
  2135   1      17.925994944179283       -10.0597826960303      40.457453198480628
  2136   1      20.114469358411565      37.974441268395751      42.893281999724685
  2137   1      40.390523844283457      32.313155910277302      26.336181725317704
  2138   1      2.0395540346667027      66.899691900210357      23.538109987657975
  2139   1     -5.4928735994068942      58.624574804633674      32.972130851600262
  2140   1      70.755150573089168      25.048884690010514      20.697758854106365
  2141   1       30.86156013785785      41.064445721666253     0.99950379627368158
  2142   1      35.369394986092956      41.712479700370174      20.280891207710869
  2143   1      21.956536921192992      39.126278379603754      1.9996523600988247
  2144   1      41.588723127324315      37.735127703470532      19.683632990181817
  2145   1     0.59567847610632552      51.082416855096469      16.317455963773114
  2146   1      33.940000850332453      17.769064352575391      7.6897555780007041
  2147   1      10.234338489346213      23.752377304001605    -0.20860439819126031
  2148   1      18.162839862572721      -13.48125215948674       16.96290425907166
  2149   1      16.736194413258318      43.452593371543351      26.513230825615121
  2150   1      17.314991801899467       7.178753881623126      3.3711150922534849
  2151   1      26.241087701952829      50.946166090055158      23.424355347481889
  2152   1      50.951021520069979       24.81916483138091      12.441150639355911
  2153   1      36.522217669240476     -6.2408131082921505      2.5942726307601776
  2154   1      15.761803893093111      26.558780409013011      39.381898640741859
  2155   1      28.985428304662904      31.993134528700601      4.5094398141589052
  2156   1      38.591206204550375       52.35909697424033     -7.0458087411864057
  2157   1      24.935171749470058      51.868653730236375       26.51290080758795
  2158   1     -3.3996651528998654      47.155862964980599     -8.0108734020348411
  2159   1      37.817875915148178      16.811283780069513     0.50517751712398129
  2160   1      45.130508866900563      32.288014665206468      10.066131982555063
  2161   1      14.718965485147214      5.6491097192383641      12.431326480386053
  2162   1      36.923020489805396      51.320124862485727      24.752121617800082
  2163   1      10.205343919253147      17.981211984690539      29.093085399720898
  2164   1       44.94087943524795      11.957693747374842      20.516940728234246
  2165   1      23.219737278001446      23.387699402668762      13.303075737397005
  2166   1       41.03504943479917      33.163379565977039      14.799547128530724
  2167   1     -10.779876994242901      58.127038521357655     -3.7861255835587593
  2168   1      4.7046529675357887      20.458137442457861     -2.0580566673029783
  2169   1      31.641240977918784      48.280748676043942      41.198898462701145
  2170   1      12.064526950673592      42.718794971290237        44.7565236284603
  2171   1      28.025579841804081      40.218440679150071      35.778427605328261
  2172   1      32.613659916687283      58.960931387568621      30.093613742161683
  2173   1      19.854743539051441      34.038970068976766      37.330800259517602
  2174   1      21.067958659532223      15.990228010847877      14.606002176254819
  2175   1      46.101113654675487       8.775763955133975      17.008195173484044
  2176   1      13.966310957705057      3.4300232132900277        14.7852610184067
  2177   1       51.01835169433091      26.396745485785246      3.9822464745213391
  2178   1      41.065101762229958      21.721040664342528      5.3519217154584595
  2179   1     -17.732799476606356      12.959625021048584      42.542982985750399
  2180   1      4.4246893934478777      23.050483063674726      41.432571103118953
  2181   1      50.783687471119151      28.993899915957293      41.346771767540375
  2182   1       25.12427316542713      25.037236659952558      43.864767157860761
  2183   1      18.435178211941345      29.794829847079118      22.481886025662657
  2184   1      35.884196513736356      43.857035613380063      9.6255657820494847
  2185   1      18.018710585701992       7.353043278553141     -11.505156026726103
  2186   1      53.408432365056683      29.501113780185985      51.235998924338951
  2187   1      37.609422086113014      33.478018610566373      2.8732519625356825
  2188   1      16.183595732613991      40.222672107147936       49.28435444388068
  2189   1      20.263301222036795      52.416042700848351       28.78795447391466
  2190   1      10.053440631343326      11.292776501805367      38.660950419015144
  2191   1      15.170462970999337      33.945897375590498      43.499489297940976
  2192   1     -3.1701844414914646      5.5730927819027034      5.1375474737083175
  2193   1      13.743259240341871      20.053140590824807      8.0500633380414737
  2194   1      40.049117496947417      28.144100567287637      1.3328633165652102
  2195   1     -8.6902956170280845      17.609014166315681      29.048730372612692
  2196   1      46.300089186525952     -7.6089329292387244       24.94069575375784
  2197   1      70.323937001611583      10.448182192208026      28.913369839262103
  2198   1      8.1099588202623369      18.687815232505645      38.427477208366192
  2199   1      12.152855805482952      2.9205988584120748      60.248006153915192
  2200   1      25.042574082339854      44.315202907981195      45.885622965848754
  2201   1      27.437841964913225     -5.9165849608799226      24.499913023521618
  2202   1      -6.995937456650001       48.86786060603346      17.796450852841907
  2203   1      50.500073190895364      11.487198015421887     -15.508193119384783
  2204   1      42.639360494565111      3.4546425443202238      17.168121528906088
  2205   1      20.638860818816845     -6.5817229266485198      31.776233877140928
  2206   1      14.775813768217342      58.803962696733855      2.6827456585793059
  2207   1      24.581427256469432      37.566720693095448      44.400438928476063
  2208   1      35.753208238307046      10.740804250987376      21.066902505062902
  2209   1       60.81610950813009      34.353518982428945      43.919158792604357
  2210   1     -7.0677948120602831      45.203048917056009      18.543829384199643
  2211   1      49.749475411907412      29.104178674249241      21.814003343589896
  2212   1      32.078134895158684      38.000445722397785       13.08591506341066
  2213   1      18.881624801663815      41.606483649533487      57.329782065682522
  2214   1      9.1619629209342595      37.067414814240053      8.5122399105995843
  2215   1      21.061192667748706      34.124677651031575      9.1907845288524666
  2216   1      64.603829461069296      19.529548126690734      53.730689893488119
  2217   1      17.105456399175271      10.752434333798929      23.393920041443668
  2218   1      33.034025074317029       35.01392164572794      36.183775920078155
  2219   1      17.396239724722857      22.416678406576999      21.721837195979784
  2220   1      46.732331755045145     -1.0395742050109837      21.737950989771782
  2221   1      5.5740267316308261       47.27394804355874      19.247170974299458
  2222   1      9.6796812418612443     -1.1699658165050835      38.343838068548664
  2223   1      38.448816587001495      27.877582691445649        25.5463867079857
  2224   1      47.398110487559251     0.96770271566224553      27.267883228461628
  2225   1      27.771978618326141      30.377758892641058      49.258785478312191
  2226   1      21.349359998740894       8.238105846410166     -12.859297689826834
  2227   1      23.875152503653243      36.931140285572731      25.456155773771908
  2228   1     0.19356285836580742      12.858401883001633      19.269635485111614
  2229   1       32.20330460787256      51.020754987613685      30.194582797390456
  2230   1      29.798003836734999     -2.6508305399657877      11.161364233162169
  2231   1      -22.88823762854237     -23.997737324354826      20.493280193979203
  2232   1      4.3026641752181547      7.4829247585028957      52.977470194360016
  2233   1      20.739751737569431      59.496019534372437      10.311019650996014
  2234   1      60.657377116964298      3.0984075148728318       6.965254190787018
  2235   1      33.103996396649066      21.971236118535714      3.2170131929767258
  2236   1     -8.8890644446463511      53.426602094578193      30.160449842378725
  2237   1      21.005575021826893      43.119417162128741      37.174325602188915
  2238   1      9.3746821750486546      20.302323531051439      25.328015220393624
  2239   1       28.46075113382301      10.908259258464572      9.1981815072267388
  2240   1      28.512078453491316      15.927721104894278      26.354486432242862
  2241   1      20.775366008829209      24.767713244092093       38.81914085815098
  2242   1      29.394642225062093       38.85637463013105      24.830195197513703
  2243   1      10.413730091717985      27.929225175396155      23.824141757463501
  2244   1      25.850172488766766      29.179079677538436      11.378458585312828
  2245   1      3.4811698721607289      18.605554311192996      31.634543425899544
  2246   1      27.001878998666779       43.26490001968655      0.2387002771605605
  2247   1      25.655529173455299      10.862726901868731     -4.3810615235476291
  2248   1      34.213831567109295      20.910579899634691      45.400723820069331
  2249   1      16.039277177436368     -9.4561816116156834      25.628669107108255
  2250   1      13.997399911639592     -5.9661795152324792     0.40684107201870756
  2251   1      35.664986167462132      56.771638133304442      36.872728984570131
  2252   1     -9.3328392712755956      3.8096279040195116      3.9236760058048827
  2253   1      5.6939300395657169      12.953850703443271    -0.97931826957816803
  2254   1      20.781838359905642      22.867233678034438      51.283610488089451
  2255   1      25.320159013156296      48.908252952046603      7.1458653108372916
  2256   1      15.182998822336655      20.595685617279777      34.961777209490265
  2257   1     -1.4776904683738754       36.00743852812235      8.8246288779461626
  2258   1      19.908074049231473      37.840652840697686      -0.353649109716072
  2259   1      19.758150602146209      40.825724600963127      44.293315365323359
  2260   1      9.2965682234017049       36.88732478979658      21.163732548866623
  2261   1      7.1021773949952705      10.807061332172895      2.6738702441511557
  2262   1      44.183648689518868      22.302004756661269     -9.9172369101905868
  2263   1      14.827445366577336      45.035776494877481      31.359384677949837
  2264   1      35.598120505587914      56.378092731518926      29.202360131013734
  2265   1      20.972492360009802    -0.26933422248997263      24.971345020547108
  2266   1      23.461826587792618      21.280137432140343      10.159069801042316
  2267   1      15.022126379065803      32.606003575027991      31.033731024187087
  2268   1      21.785376394381618      20.768791605273435       28.16038100515307
  2269   1      30.267183701332272      27.434707543025688      11.698797942744569
  2270   1      4.0954043921396064      28.879544827174279      19.458194109334624
  2271   1      34.686174441885058      55.351003016546414       40.01569120424243
  2272   1      27.906046741377086      41.148843759187436      20.964153510190123
  2273   1      17.104510465109897      32.077063159207519      13.501815572661265
  2274   1      43.371733670190558      34.825784591346725      33.441658956749421
  2275   1      65.047103853763417      10.510131435335882      10.101537622026621
  2276   1       28.93648334310339    -0.63701684679739146      22.104603073292857
  2277   1      62.319384186833609      64.052268480723825      6.8425665537967406
  2278   1      21.369658927912958      15.995429593961546      18.882908603660333
  2279   1      29.336867658660541      35.571229451566651      61.918968818337149
  2280   1      33.465395652398904      24.868601702193502      62.168768368549379
  2281   1      21.195622166517918      25.509944184625763      28.570637846449227
  2282   1      26.354184495475653      10.652675601029932      72.551034828857752
  2283   1      9.9729070190100764      31.204066089832132      51.399032619881396
  2284   1       31.58701719764894      22.514782820666404      40.294465161473582
  2285   1      27.036835165523133       9.901776344924917      1.9643432708340034
  2286   1      75.259243612834283      46.212779693045846      57.745889167477849
  2287   1      29.999568562942969      19.322702698263267      42.129220016122417
  2288   1      44.623686926543343      11.677541388894609      11.174683887202519
  2289   1     -9.3851004919356704       26.80248178849493      36.580401004320933
  2290   1      9.0167928789489089      31.319375988282477      25.608795718852154
  2291   1      31.614777855484203      43.286273190058324      18.980483149814688
  2292   1      21.858861696339073       27.61101236892506       31.26419506582226
  2293   1      45.414054983537781      24.799805449855231     -3.7610137136145947
  2294   1      30.946166661601627      48.225574521610334      51.174183588884418
  2295   1      5.0466649923295348      41.643058817463498      27.312545330822914
  2296   1      28.879085722124092      48.556071458764357       16.18329011166292
  2297   1      12.776160419881355      48.491473176234969      39.222184833328711
  2298   1       43.36047059531689      31.643356020827916       4.206975715589091
  2299   1      40.432059675511525      10.322673229505881     0.52087374646349094
  2300   1      30.379090937388796      31.360304983148282      17.429532615694303
  2301   1     0.90010306568900811      34.226777613362678      30.871231106371916
  2302   1      56.019589984440913      8.8710571572323218      33.671306036837166
  2303   1       29.26583823320501      54.611883893368955      33.798577020844313
  2304   1     -4.5100822906317726       61.55671511385588      33.461023865208169
  2305   1      49.610241859571261     -2.5765935410250345      12.180187133171172
  2306   1      38.589253985413713      28.463256358339994      60.811215424521556
  2307   1      31.718734257241746      44.714744660138699      42.932766742943585
  2308   1      41.527348814995165      5.6105697647977992     -7.1826067566586351
  2309   1      42.277159911136728      19.255448094307766      38.506680792739417
  2310   1      30.878140651548584      25.117901661590103    0.088558253571318093
  2311   1      27.094186869117749      24.270091280489201      29.062291706555353
  2312   1      15.923280824943163      8.5826190178113411      44.818334751219183
  2313   1      44.913073640551985      2.3406768746686271      4.9651543675992151
  2314   1      22.630566227451538      6.1337025404068903      31.900256763467148
  2315   1      48.340636421953839      45.165846651242845      2.0133388346107557
  2316   1      27.121992300495226      23.187978206538759      12.249051113659737
  2317   1     -11.319219191735355      1.0886852969538015      52.208976397398551
  2318   1      13.463071843940964      11.605226286727328   -0.013453417176124442
  2319   1      51.755379475456728      27.414018581439272      23.883026745554805
  2320   1        29.3539513482765     -30.091910107727376      29.554910764281004
  2321   1      25.869499199489248      13.069966716182588      9.8700607345343698
  2322   1       17.07167577709814      46.012791108106541      28.598485067079466
  2323   1      7.7301139335795996       48.21765199434234      3.1796483277764844
  2324   1       15.90826440084509      50.393074685785372      22.188985380244684
  2325   1      17.935033245811173      15.336605332542932      22.233449650391805
  2326   1      33.593909120776154      47.405541101029598      45.202311433835114
  2327   1      13.714703945448203      33.120700649186162      26.116739937525786
  2328   1      26.093518383474944      10.034736841981324      11.368437317585814
  2329   1      9.5166970076981912      21.553814375129818      30.770215902851564
  2330   1      18.993927700612026        22.1243703151932      29.780400238706605
  2331   1      64.527400036564359       61.59105592384099      17.919002604062836
  2332   1      47.693446339643053      26.875516195975042       9.726027525976999
  2333   1      9.5164576650506927      9.5660829022105816      20.747729108343723
  2334   1      38.473500549962488       31.61194000924289      61.493140912510611
  2335   1       18.71899377506227      62.518527076374404       15.42644720211065
  2336   1      23.449637571500297       16.10954424565244      40.824452177612102
  2337   1      15.505115958446167      52.644016411606636     -1.8300964480714546
  2338   1      40.968345058976098      30.969510426394244       17.52431953682354
  2339   1      21.593559171228641      26.518466257747949      44.114598119473044
  2340   1      5.0156534366783365      39.724242241382683        52.4596901863871
  2341   1      20.256176839307408      28.348205677433146      58.528294708121194
  2342   1      46.843228934697535      20.802693796535447      31.263060056417551
  2343   1      12.072132157115986      25.225001420151795      30.428876160671678
  2344   1      35.927357578364855      14.028020773753436      21.337631628372126
  2345   1      70.885243580371281      35.340266171237509     0.25340177515849266
  2346   1     -4.0318193711547217     -4.9142544662626912       12.33618351878588
  2347   1      15.992199929106008      19.578392404500722      43.463317995727905
  2348   1      16.999410006125419      27.689752523995178      56.800725860118028
  2349   1      2.2003766850634787      18.608191681571462      43.228680876711167
  2350   1      23.539476925950471       2.965893769382336      52.735742000618586
  2351   1     -8.0751375313546472     -9.9809607045983526      6.5070357670637211
  2352   1     -8.4747324989703579     -4.4945866076708603      24.534508499720907
  2353   1      45.135124850758132      52.172241104394622      14.949760293939892
  2354   1      25.968339024662331      15.335572589472479       18.47862325020764
  2355   1      28.819676318513885      7.7445852901511145      15.035429710107307
  2356   1      28.456555389191017        40.9274820289925      28.085487750136604
  2357   1      50.528676235751654      30.874464641836195      36.745994625282123
  2358   1      27.394195239110381      5.4189981987110283     -3.1114627489574285
  2359   1      3.7307509735008653     -10.704730119839887      18.722885283134456
  2360   1      16.417181316717084      54.455744929978771      33.325410807730584
  2361   1      40.042991877475764      22.701756084674926      -8.146635633487362
  2362   1      42.239966944692917      19.643164638612419        10.1703378121029
  2363   1      24.440246171779389      43.368455542217767      64.081296235284967
  2364   1      39.284323395294287      21.432573264954542      36.330546121654592
  2365   1      15.055555525525994     -2.8054190681303472      10.747199369748561
  2366   1     -8.1915559249179832      34.206914559255281      23.605783662376258
  2367   1      9.8401563494193027      69.002840983404823      1.9797496007885156
  2368   1      46.244391143792804      38.429403690913652       50.57871770699991
  2369   1     -0.5015765247594729      3.1192109499982004      11.662868884440371
  2370   1     -14.898175112518004       65.63276397508487      14.916390559004132
  2371   1      48.453797429479764      27.540093760392676       18.85610715836285
  2372   1      23.573656937216331      49.518220403507044     -1.5006737177989431
  2373   1      36.038131260547821       35.35431048891639      31.445811838045802
  2374   1      49.817411760451783      25.049187700481287     -17.583751943911878
  2375   1      23.987013548335156    -0.17792430533015577       26.87975615765145
  2376   1      9.9156711174476193      1.5520845720837646      4.7793139948488212
  2377   1      26.589365062537233     -7.5128214742105959     -4.3731309170783517
  2378   1      32.989945559805975      32.615140910408293      31.162278511762374
  2379   1      12.249652908957795      1.1657447201592055      50.923054565063936
  2380   1      26.288690014934215      33.202542042110061      31.698676754520243
  2381   1      19.181596599649229      34.664701559209931      33.906593934373632
  2382   1      26.741906397270871      13.597242237736058      31.364050075911035
  2383   1      21.414305074694425      15.656546891455143      48.562353254412471
  2384   1      27.876736553164939       26.96683595814239       16.81593716828942
  2385   1      56.313970046608091      14.414221292623896       33.08864915309406
  2386   1      20.254729294140688      1.6408936877120717      61.610432774482824
  2387   1      25.396273085981591      51.340354257601916      38.553339772126442
  2388   1      43.841347582386248      30.532374745318794     0.16197473130917459
  2389   1      39.261402637689692       51.74655529349301      10.367071148072338
  2390   1      13.151998835794187      39.273467138224035      2.6811169195187006
  2391   1      8.6192977746656325      29.216636249157975      13.868920350372015
  2392   1      15.938042710745346      17.075188056206546       34.16359191514367
  2393   1      39.244842342570479      24.817297850723669     -5.3761244307780434
  2394   1      21.470088796220647      37.436291451216249      17.388045774543016
  2395   1      24.739820763927671       33.07203733645327      46.933231997349502
  2396   1      27.138090392446731      15.362974827312625      41.698291455212221
  2397   1      10.149771803207265      49.615671346265543      28.967587755975693
  2398   1      16.613099625659498      8.7215708701867154    -0.67471986305413878
  2399   1      30.900330735643315       21.92223826920965      27.272888135653389
  2400   1      59.641557707274522      35.638949011957997     -18.250021128182851
  2401   1       11.44749185760732     -5.5057334048618358      -7.304092143548452
  2402   1      42.072580104579103      31.620473492280496      11.111568872692931
  2403   1      5.5201902557728566      39.419038656889768      55.957992485784871
  2404   1      15.009822962490071      24.919869192079751      11.645459673306888
  2405   1      10.364715389912179      11.033631722546797      1.4610487431408168
  2406   1       8.257777112885595       33.86860532033694      21.070111265562332
  2407   1     -8.6770273710512402      37.461948471334139      22.569615582034711
  2408   1      57.892011456310151      16.302215169743139      36.462490285935154
  2409   1      15.792396054257658      4.3705846999335094      43.757524738566488
  2410   1      16.072107008040799      36.175220898925573       63.41217583692616
  2411   1      32.932255373601976      38.775145878251863     -3.5181648126652219
  2412   1       13.19193395157688      17.250091480764233       21.86015079598781
  2413   1      31.380264039267082      -7.274244323151609      21.812878175485064
  2414   1      50.270593698300011      11.663809801197305      22.319048852103247
  2415   1      -12.85029063840881      34.437363418202835      11.002331638196742
  2416   1      7.2951653152698972      29.803981798199089      35.863402219500308
  2417   1      51.352688414219799      5.3678380132901475      25.290205187730219
  2418   1      28.882584800510568      4.6526554809114238      11.447788105935331
  2419   1     -13.798944804403575      18.987422580633364      25.600244702065769
  2420   1      36.970477302630805      20.275567286981882       31.04300206800167
  2421   1      48.815793568935902      35.963294701937485      28.222951038545439
  2422   1      27.361413441197119      19.901630574083935      35.506720764472448
  2423   1       8.587537193177825      31.213754304504462      38.783133234196917
  2424   1      51.108733560334038      15.361948157495332      37.220970235381195
  2425   1      13.425736553090459      42.390590281458877      32.836273447301309
  2426   1      9.6150421490164799      41.667333540759429      17.279065631573101
  2427   1      10.240405652052788      40.738181268168518      3.5723424060106028
  2428   1      24.143012008834773      41.947630823116619      18.829874557008633
  2429   1      4.4388076175095756      28.311689056799406      34.432630901531489
  2430   1      36.795607670011378       22.93350386907974      46.790795623211544
  2431   1      5.2799409154810943      34.472613358118295     -6.3608914318635126
  2432   1      9.5442993988526972      16.238681360687373       22.80693951166938
  2433   1      12.583404589742878      22.235653136291152      29.170365042840803
  2434   1      23.169048954436146     -9.5566960614975365      30.435385768050185
  2435   1      23.324872928051789      56.645760200656859      11.098376073001345
  2436   1      29.402519065356795      25.636899174186674       19.11230163398703
  2437   1      13.482420376787269      31.387170200330889      5.0918198289476582
  2438   1      35.251946155069042      56.341428287385114      11.612850973545404
  2439   1      10.770978542007565     -2.0877566130540584      30.783310522530719
  2440   1     -12.639382465215936      49.170436224422815     0.20343561735051491
  2441   1     -8.5286616050454604      5.4604394778319953     -4.2814803033387134
  2442   1      26.943026839004951      16.960679970647128      10.250313928064205
  2443   1      34.443416347938886      23.890548089842824      23.946122474732743
  2444   1      51.122764144450286      47.096703456720775      47.722796979492117
  2445   1      18.749673661557917      15.172483884875978      25.535638610524028
  2446   1      13.532861878938624      51.747375288438093      36.676048296574947
  2447   1      8.9202327072062371      21.712916141638551       42.10447535483145
  2448   1     -3.5223654887301636       49.22925112911345      47.259865788077882
  2449   1      8.6925260229070087      40.279202765435599      8.1347618272068249
  2450   1      9.3972862616133455      23.285116438200546      33.324155372567901
  2451   1      27.230753780858041      16.191897123010548      23.154663478276575
  2452   1     -7.1049915138022373      58.085986285114132      38.105283336688878
  2453   1      39.988175726754719      21.566462005375516     -4.0430225257454824
  2454   1      15.001687026060036      42.299749002093634      58.156968778790215
  2455   1      39.228793609044558      35.764604958433395      45.315666578564553
  2456   1      8.6653118380791572      52.736320338746978      36.444151803169468
  2457   1      3.9742661446481162       29.76503813048901     -18.804053970925121
  2458   1      54.733889159869541      21.841672878713467      26.398372968672092
  2459   1      36.241595551280732     -14.997670047385146      24.882132488693493
  2460   1      36.934463743608156      24.748725395262756      13.070787440221659
  2461   1      24.608204058050177      58.085578446750752      38.329058095968577
  2462   1      53.989693722235039      8.5341441446863584      1.0361900084791966
  2463   1      45.171740764952482      9.2219120247062563      5.9647090537035119
  2464   1      2.8644356417378307      22.197203398569332      16.389087677994056
  2465   1      32.198807762510427      21.483965948261876      23.389220229350958
  2466   1      27.874763121318519      56.246387986689641      9.8871958124873984
  2467   1      3.8419816463230823      13.066678482029767      26.861862713836892
  2468   1      34.183175620986567     -10.920128379133319       30.26362951476635
  2469   1      16.610851548845567      19.739111510623882      31.061562944021453
  2470   1      12.938953982146726      5.6337350496321603      41.607523877499162
  2471   1      45.099467582885083      27.432900000809802      1.0967419563026777
  2472   1     -17.472353055219703      48.191071608044659      31.798144886320646
  2473   1      -7.743772758619671      45.076348590048163      40.607778076961793
  2474   1      26.552460263988845      34.958646355243914      43.623524478102929
  2475   1     -14.556471331577873      23.317343811762267      28.059772219571165
  2476   1      44.394780177120346      31.524209938499357     -14.984414074501835
  2477   1      40.657615940638557      3.4181752821506581      14.672865199694604
  2478   1      15.065266739449344      2.4874826898156099      4.3032063556192153
  2479   1     -26.234639602159383      44.095291065418607      3.6266487173222091
  2480   1      11.553033500958851      45.867442428328424      14.998666871534617
  2481   1      32.923328260363149      -9.786607262458455      16.749562589952856
  2482   1      44.453483420051107      42.264983491807989      38.664938860913509
  2483   1      23.639622437343327      37.793910367015933      41.207822732581185
  2484   1      1.7366059569757955      10.098990097053544     -7.3040410350014993
  2485   1      47.366299026020648     -5.8968874620449112       17.87542631425352
  2486   1       29.14029051479265      45.605920849148553       38.91032123181526
  2487   1      23.347007330961702      33.276999966684897      30.233532082349086
  2488   1      46.281249199330652      51.436328331018082      32.829736177566353
  2489   1      33.660723519715944     -9.2386626557893781     0.14454724902282759
  2490   1      36.176434500484959      23.753005214480496      33.964584818690014
  2491   1      55.423262532963427      45.398954981315214       11.46468120919894
  2492   1      28.123810067115443      24.371571735934086     -1.8946839800188764
  2493   1      11.752299338212147      26.487303951903986    -0.93144708205397642
  2494   1       36.79909780975467      13.019011660483429      9.8276441687367537
  2495   1      15.762524138405407     -8.0621158027548603     -11.104920230083691
  2496   1       16.86096313324332      43.679613233081895      49.959681441959752
  2497   1      30.345790663200138      25.997365073586739     -8.5504674438257471
  2498   1      35.713610393212861      37.443663009016532      15.772962420614054
  2499   1      8.2979144718110955      20.425968760457316      17.259652264096619
  2500   1      54.090264868114083      12.634382968963118      34.731736463500965
  2501   1     -6.1675326781450917      16.334221674187088       6.706492847121738
  2502   1     0.51005340375569075      29.790905622562022      44.327844468312875
  2503   1      12.955636459491231      23.876024486118762      26.053207949745602
  2504   1      35.767997481795582      33.184715064125854      35.330849555036025
  2505   1      64.765633023925176      29.784911263230427      60.136757836826796
  2506   1      25.494048682380868      29.036409128254373      37.245065055127476
  2507   1       20.85055773461448      40.678849810613414      41.116707869883676
  2508   1      5.5453755948883643      40.012601764346194      10.538340258699252
  2509   1      8.9611164095809741      3.0754296879429783      11.294589258187496
  2510   1      24.906291823579405      2.6499838195161667      15.253148340967394
  2511   1      18.262076833187663      46.848278937930544       32.64958232721407
  2512   1      15.336290372150071      49.420207228675345      8.8988706542348321
  2513   1      23.407095457962871     -17.142049688555499      18.529967062710288
  2514   1      41.865985782703873      7.4825488658796324      4.9752686479714567
  2515   1      23.812530521708794      42.513750168862416      49.784778085747618
  2516   1       23.12385090577618      20.445640953209654     -17.734905493924646
  2517   1      30.474316821507706      25.338201721816944      33.748576989267136
  2518   1      7.0975365143379365      50.292860328519218       19.73201214745308
  2519   1     -13.322425657934529      43.319230366901003     -15.620366516876395
  2520   1      33.088456657581368      4.4295777060543946      18.464721822628949
  2521   1      33.028157853724032      47.652042825070538      17.202605826725723
  2522   1       13.76540872765805      48.349804930547705      20.494436178634206
  2523   1      18.875489934773018      46.642390084580676      52.083028209400759
  2524   1      18.574655769365915      27.123898598901192      41.382375987795335
  2525   1      13.924994039560046      16.605623788624197      18.220407426589361
  2526   1       16.88208049464027     -11.006439275400025      18.953003103003692
  2527   1     -0.3247680472496654      17.912924296353431      8.1343820694407984
  2528   1       18.54470414809057      39.883394919945928       54.04338737792866
  2529   1      26.269935356686087      34.037846517311948      5.2400706585081371
  2530   1      25.706316884742453      22.530918872740276      33.906500417614176
  2531   1      61.348694027249401        58.0345922456507      28.123054122365421
  2532   1      47.293802933313394      21.160408690290883     -9.9120552488050784
  2533   1      8.4190338593154781      40.879933757043318       39.63537043168202
  2534   1    -0.42979739025185049      22.760017118155407      27.203248247988377
  2535   1      28.355623354658842      28.985923537012653      26.914998635182414
  2536   1      33.500344451210736      17.997890457794028      43.379903371271112
  2537   1      39.911650538168068     -4.4966085437644026     0.48701144892349862
  2538   1      36.177783120045703      9.8888898625823796      47.875651392297236
  2539   1      64.594365110870044      8.8153141461251252      34.228393025659884
  2540   1      38.737583240823604       41.72246439753981      9.1159086933691533
  2541   1      25.063064049114487      26.499212480630455      26.179434199484319
  2542   1      37.530886782487016      43.167017811864355      46.978226775219134
  2543   1      9.3145374584182452      11.673843117298953      34.873344552672158
  2544   1      32.259342326085424      1.9903764172621732       20.67266413875263
  2545   1      16.722340620204847      18.643589831812001      57.202895076781708
  2546   1      17.150551177592494       4.552016603074029      27.770854485521838
  2547   1      4.0680917371302829      24.031937425393394       36.22453775824826
  2548   1      7.2118860573382513      34.463493422960546      58.638052377350412
  2549   1      16.321295764104732     -7.1836863955018684      14.701697396344684
  2550   1     -3.1897518243575429      11.891464832314075     -11.144425263573543
  2551   1      39.199872464787667      10.071457995920278      4.6640020301895282
  2552   1      3.3856106840078906        21.9805577551118      33.824009406752317
  2553   1       34.55464935630738      1.9240336030798268      27.269736890436434
  2554   1      9.7458689119500956      63.541969736054256      3.6682525340335208
  2555   1      6.4621925575429291      25.573557259584256       27.99061481974012
  2556   1      49.334319268445071      1.9510383846423645      34.724837687161347
  2557   1      56.818702102323947      38.172585883361613    -0.35330065398462912
  2558   1      33.958997011650872      55.372879578074723      7.0689113476886547
  2559   1       28.15474218963795      13.470206794657912      24.055549607706986
  2560   1     -2.1003239812637751      56.747604068703993     -1.4119264560256142
  2561   1      27.205940452223143      41.650007710359901       8.859987729971774
  2562   1      12.179081395472398      52.160640592414978     -2.6796271134456688
  2563   1      26.126180592868042      17.675935884668398      28.864295581010733
  2564   1      13.634310779439435      19.949110720743789      23.634281155124953
  2565   1      14.508386598671917      37.919839424094974      31.741169561377692
  2566   1      51.845634527740337      58.228471904782381      28.185362516993017
  2567   1      3.0995054428400746     -4.1765142094278023      14.027576485172892
  2568   1     -1.7508537882291195        23.6465735762118      5.7022851696444858
  2569   1      30.354372549335032      48.887904282669275      13.212062561266146
  2570   1      51.783375970960712      23.596253651336223      26.402078264094452
  2571   1      37.368294970788106      5.1684691490259471      27.800378994299898
  2572   1      47.269491402940588      11.614784403233093      47.288428693908656
  2573   1      29.179988479182118      70.259022647087562      18.598035015566058
  2574   1      38.654902319837355      16.906357690092026      15.703196058129455
  2575   1      11.240254022872007     -4.0449391443489509      11.328051724224574
  2576   1      13.179901280303692      4.1189501762154244      30.248365597766639
  2577   1       14.00941558582331      11.870839920095422      13.163391819838667
  2578   1      15.649536824914064      37.634038367883399      3.6319750039735679
  2579   1      7.4996503103881986      5.6319386843838899      39.827649809740784
  2580   1      53.546091678468741      31.236948523239388      32.879641008575561
  2581   1       18.58001381304183       19.21348189092819     -7.4394352680629972
  2582   1      32.753302524921189      18.707211533330348      18.447074813558128
  2583   1      29.981846482631028      31.086536397269409      32.406480651616775
  2584   1      26.594559539424004      23.331607015333759       41.26965581668474
  2585   1      27.568044730571625      26.542932599852513      9.6935596463282945
  2586   1    -0.43992571905888478      39.801442352477345      31.157200474690711
  2587   1      21.666707820906577      61.052600217545944      5.7759249627477258
  2588   1      34.041809549633506      50.470102910205242      40.478717537653829
  2589   1      16.919125750378001      44.880595708837603      13.814826478326749
  2590   1      27.090981627635454      5.1540552442589735      2.3317362284032086
  2591   1      30.499219007307744      32.100451493853541     -6.3512140587506272
  2592   1      31.335172930545681      42.567413366354074      25.494736871108319
  2593   1      34.556444870710536      41.575790413769994      35.619318836526865
  2594   1      10.713187578154244      29.821249223390318      32.825943422333829
  2595   1      -13.38918298988793     -4.9263687420082949      37.894451021471149
  2596   1      37.975220004893927       12.61116302495585      18.242646124002654
  2597   1     -4.7433194582162432       29.21398325533757      9.2766222059779295
  2598   1      18.141077711632825       10.61989537207938      43.988119436848393
  2599   1      6.7093156689284816      43.495589777126085      16.571684214422984
  2600   1      18.232084941296872       35.67184306546784     -2.5826144460160103
  2601   1      -4.244343882987482      57.224647541389842      36.889274513411721
  2602   1      29.121415267717346      10.019513437810643      29.760241738382788
  2603   1       20.08043239927094      39.781156482456552      23.910649043985035
  2604   1      17.754593155410127      41.808248936527974      41.686516433303041
  2605   1       51.29528407646832       8.383676341334505      10.724929460789795
  2606   1      24.148666094181653       18.85287856949266      5.7595718300984213
  2607   1     -5.4449837596164672      19.264684739086743      31.970249522217298
  2608   1      29.406099569406436      50.302794990864271      4.1177530188400278
  2609   1       35.10157620603001      12.898475078843125      30.206232669237714
  2610   1      51.079607373227574      20.292985667048558      49.219517071843498
  2611   1      -5.952232157004798      13.982576498939579      2.4965738510274744
  2612   1      18.054864584913002      5.3304586994463534        13.5221986247671
  2613   1      34.334074222371626     -1.0749696569344929      -15.78945343249886
  2614   1     -2.0144215091005058      55.634666933797511     -9.8685798838346841
  2615   1      12.454836484766176      8.3887834901072171      49.527245961175716
  2616   1      12.807115111085517      27.518604457109163      10.933390502619295
  2617   1      18.597674197171063     -10.321858620223741      31.057941012296808
  2618   1    -0.77481755088686699      75.287289851302063      28.792342424737569
  2619   1      24.172703137092274      33.037904038900962      2.0907864314455162
  2620   1      7.8945695205069031     -3.3503622438026608      29.810960860805853
  2621   1      22.217566642500124      39.546362790662918      68.392876082512771
  2622   1      25.467532319489184     -2.9214379767187117      39.651167793300679
  2623   1      4.5683300512254723      3.7656392638453342      60.692397788609895
  2624   1      54.184369093836978      59.997526993656649      22.550326796088083
  2625   1     -7.3578858636277964      62.246040861524115      35.342956303574816
  2626   1      44.841217704462892      16.806493813860239      24.048852673364451
  2627   1      18.990746124342106      32.270254610552627      2.1329159732693945
  2628   1      46.042440244424633      33.144398739500787       6.024093290670681
  2629   1      19.928121070171109      27.856770209840864      34.056882684480279
  2630   1      44.005495539029646     -3.2807942957015901      21.072855025565975
  2631   1      7.4981373844756982     -6.8339399404066947      46.346491598143608
  2632   1      42.800263744895744       33.74877746132168      8.6815681379124818
  2633   1      6.1300906465936649      39.312322820608934      41.354858090577345
  2634   1      10.821563981720953      28.602987128696494       45.44755080342113
  2635   1      18.301181129861384      23.672062720294043      62.133322367104647
  2636   1       32.40367394323674     -12.403758030316984      40.992800924421921
  2637   1      45.123564499329582      17.400650148390717      8.6386399748671643
  2638   1      7.8493471393520888      18.875856164014628      22.695080100458913
  2639   1      54.838383238651119      8.5226780511673681      8.0032933125740033
  2640   1      60.009972087559014      52.115144142770255      18.340233066331518
  2641   1      11.401049918826672      23.281330733061818      22.623297135988587
  2642   1      -17.15760855920292     -2.6796383820019418      22.212553665574116
  2643   1      58.357992891212838      19.832010676875928      9.2975847763586152
  2644   1      55.807006229516965      11.183260554991479      40.164817326997749
  2645   1     -12.571523530981645      45.733721602835359      35.257356007889122
  2646   1      11.843512471180155      9.2202793761890227      3.9287711284360345
  2647   1      6.0449287995297052      6.4208444981319772      25.186676780462339
  2648   1      2.9346209284285241      14.322741026826924      16.158971887320227
  2649   1      45.347922842290764      29.425065980566046      25.404730319468737
  2650   1      33.738556303605222      35.100073492098538    -0.95664168259088822
  2651   1      34.084310262073878      15.054542621018678      18.152854635576258
  2652   1      39.572472998362876      32.258337006815275      34.544505985069954
  2653   1      33.840208782174614      25.089899249488749      20.784528815745919
  2654   1      16.403435648502963      12.977967466678162      2.4465701070274832
  2655   1    -0.73905751930389008     -6.0286931149869032      7.6500693008770204
  2656   1      37.714463154069733      42.532885600111044       35.61925397915099
  2657   1      11.941074730523734      8.2305473656471655      32.971372814119007
  2658   1      32.514517747080667      14.862973119929883      11.176127457199719
  2659   1     -14.570930822889048      4.7147225450479331     -12.909375645290185
  2660   1      37.022925364225323      22.674912721459449      41.873675827091986
  2661   1      18.580649780623197      18.915146927740903      35.330143570547051
  2662   1      10.037708329808391      18.366943483397414      32.507075030284987
  2663   1      34.543692725897927       22.36878679322513      5.9938593060361685
  2664   1      41.798526727617165      35.896194919713153      61.830999863249566
  2665   1      5.4781163616393949      7.3628403488736289      60.107438191850427
  2666   1      27.323623173782803      48.000140970520484      28.860568323336576
  2667   1      44.064579793898979    -0.44851690086941864      50.910795700668722
  2668   1     -2.9930093628259984      52.820426271611787     -3.4069381823268814
  2669   1      7.9305659703449569      37.126410743212425      39.381899161168512
  2670   1      12.819849956595966      23.146570386173092       34.77454050693747
  2671   1      12.972773897716449      18.349067115158057      26.546381838686141
  2672   1      2.8830083831045008       23.54818389288338       44.46122561799686
  2673   1     -9.8898532340705341      36.629655179842977      25.790795651859277
  2674   1       51.79182521683915      20.331649484414299      26.326943198465116
  2675   1      57.213538024084507      2.0696971790892027      16.500045449460245
  2676   1      6.1718218876180666     -9.5671609239018292      13.481405624166905
  2677   1      40.101126934746524      51.076978203161048      25.935611649430019
  2678   1     -11.534413669524877     -9.0264045912867097     -9.4029793255837859
  2679   1      7.2450266521498312      16.363904187179191      29.856889757598005
  2680   1      2.6894813423441963       43.23819169559723      22.184201461536968
  2681   1      34.177232669671689      8.2086118828687713      23.905646500813521
  2682   1      55.587023853524215      8.0483743524347382      22.039869370631891
  2683   1      23.063074868159621      67.560452559269947      19.254046651534512
  2684   1      35.059977614837244      24.299067969265131      59.292878815170333
  2685   1      4.9268275432341779      32.030464729032879      20.445944075550102
  2686   1      40.205752107181986      7.1964186867079487       27.82700050805343
  2687   1      33.286603960938123       34.80534337031375      28.070949553788967
  2688   1     -9.8828234590860635     -13.167075659083437      58.664077233678931
  2689   1      33.079029824024474      5.4406661215427157     -1.0986179324003118
  2690   1      21.821382883007207      45.142760817340964     0.24677593685995783
  2691   1     -12.717940904597311      34.971573084537461     -4.1517726993187578
  2692   1       24.28303529619766      37.808833503108275       37.73212489310535
  2693   1      31.441454286653407      6.9104960453891628     -5.3630510230580857
  2694   1      5.6395556961339182      25.396794750876804     -2.5515162836393555
  2695   1      13.616530272739597      42.259590120956126      26.155393482269915
  2696   1      1.9868882922486368      27.753839364995187      37.525626259012348
  2697   1      34.150391462484876      35.989886489764224      25.200778954920423
  2698   1      25.371602149811888      12.758761678903211      34.356052365818783
  2699   1      3.4416723490999841      39.320662466938295      32.852011160729468
  2700   1      59.460798527589823      16.550676184063374      39.312294318091368
  2701   1      42.792147416215769      20.443479633658967      17.907459072946654
  2702   1      38.339714426506028      25.956009320270972      9.5639695855458076
  2703   1       48.03242570905568      30.628436231759373      19.570294864713542
  2704   1      21.281949898758967      2.3188083040733014      1.6090568327815067
  2705   1      14.278262233740703      17.767061324909662      10.583427620379728
  2706   1      29.461726230498645      22.091276530284251      36.707118617432997
  2707   1      50.240484894393518      10.492550269065795      17.602212883503984
  2708   1      9.2188381379194873      18.609577116744791     -6.4951950380702259
  2709   1     -9.6222086748912599      14.761698586932743      3.8874312062404317
  2710   1      23.684284591190583      36.160210421093375      10.950774566694246
  2711   1      29.823695331070084      33.772821738697495      30.715323301150768
  2712   1      17.370791397427428      1.6560753870469713       29.72624873590474
  2713   1      51.580166355766231       8.337895602898886      24.075131177520966
  2714   1      35.867943402998215      15.748160149101905      31.696238018478549
  2715   1      17.539402535853252        18.5788497499999      28.095427969882941
  2716   1       4.233508377483691       45.52647281249876     -5.3304156544958863
  2717   1      36.864095856894629      13.189689608750729      46.813289875911508
  2718   1      57.368059845583353      14.162327240987537     -8.2074828242705209
  2719   1      2.5440997682529498      36.986918297736061      30.204695976596593
  2720   1      42.089093956941532      39.178374045267482      34.062224820051007
  2721   1       29.10699596860378      21.923313841761257      33.376432110173127
  2722   1      41.085198741345792      8.9356606579711926       11.87886685067725
  2723   1      46.620012611997034      40.397402127779515      34.764419080486526
  2724   1      31.890189922602406      11.969199473598319     -15.738274775294682
  2725   1      19.435795898085299      41.168754467276017      51.022087175990862
  2726   1      22.032032636759897     -3.2701998683003772      34.046604983075142
  2727   1       22.12640903510313        29.7941835624841      21.084481721667633
  2728   1      7.3312164521174443      53.877006005524812      49.632645390950863
  2729   1     -15.001983818901035      15.324425690080821     -10.189303833823844
  2730   1      8.6830079775246851      40.891166752572815       43.02759178890949
  2731   1      9.2431531147151471      64.404824997516499     0.50348459241268573
  2732   1     -4.6158057168922344      49.702686764044174      30.305625714641792
  2733   1      55.389537717986542      14.674457672783376      2.4095312958418065
  2734   1      50.001524127119019      36.666402617099315      34.616769390793102
  2735   1      13.981586323989797      21.801386215491966      20.356961642312775
  2736   1      44.513322547097879      -3.640559153813947       16.66053992986771
  2737   1      45.664619441134974      33.094180949856792       42.60785746959133
  2738   1      50.050913981048232      21.303433750449628     -18.875063310013832
  2739   1       27.56808137049898      12.672295538662558      16.913523243821007
  2740   1      11.820478401736468      27.012533481497016      34.093006228097138
  2741   1    -0.46894330697728054      7.9528333543690772      2.1900779941152444
  2742   1      33.581504428707724      13.867203035365065      54.962338395052441
  2743   1      30.260318039614383      23.713598089432043      11.814330909803415
  2744   1      32.266264239600147      44.511342382723882      28.011085375615629
  2745   1      1.7645228654951679      63.045568086329652     -8.3188604331144997
  2746   1      21.737951848353902      41.695131014875969      10.030085671476206
  2747   1      47.699879137197051      30.010249076865239       29.26362323685586
  2748   1      34.772591159172954       21.84915420728715      21.158525036080242
  2749   1      52.119012736650362      2.6008980097128136      22.973606578573271
  2750   1      49.523250993561717      35.476426856340126      3.4865207100458857
  2751   1      -1.500148668717296       40.78850466772186      15.237526323673642
  2752   1      18.868729021677932      23.545062221649655      16.748335049025357
  2753   1      25.240774211020845      47.770338291574397      23.893527267165375
  2754   1      23.715642156263129      46.181847281768924      20.867190008338401
  2755   1      2.1619746743698496      8.9958322982738554      14.051511048846884
  2756   1     -14.220817890308467       52.75657039696879      23.018222115953066
  2757   1      29.044852284031737      32.970606846061813      14.932432208071072
  2758   1      -4.508901568906075      58.293186775405381      39.977853504631881
  2759   1      53.956739018323461      7.5632365097895908      14.468994861950859
  2760   1      22.492453496615649      47.318628701788136      17.395829562529386
  2761   1      33.207373154306552      40.902417151279401      57.094498861521018
  2762   1      13.967319360484661      9.8589963234616906      17.751356084860877
  2763   1      38.860531024501057      45.616503405777244      3.4439798568999787
  2764   1      20.918901245720775      8.8179931615906249      32.815607388635819
  2765   1      49.672052431907261      40.034681430195675      9.1425199311668823
  2766   1      44.158618646046001      15.711388445738496      11.186527274483618
  2767   1      35.198833148058306      32.996143441607195      8.0364445588028115
  2768   1     -16.198993423257349      56.457316645540658       36.09574021947202
  2769   1      -4.081801789802717      37.715906636786727      53.988321632951404
  2770   1      35.378594723066719      30.661220035137635      4.2228966569833979
  2771   1      22.105915432519772      27.713147704765834      18.590503337777509
  2772   1      20.927651013217417      22.203838053297204      40.746295928181901
  2773   1      3.5842829722114105     -8.6099387554381117      38.760201026845976
  2774   1      47.552701585056909      27.712487284235582      38.005734666199565
  2775   1      14.469323905674711      32.033252283355409      36.802756706737107
  2776   1       34.90254776773341       10.86556597228155      40.071917218674542
  2777   1      14.196889146137176      9.1884623408517729      24.357592893069128
  2778   1      13.763587633338108      20.971795947300159       11.40721853764177
  2779   1      30.732837149285917      38.381611595038805      28.659581882108789
  2780   1      34.155372395390728      26.500734303497879      1.6586704879759395
  2781   1      16.974723632017227      21.136100433722753      14.936260922362289
  2782   1     0.69886138322955316      25.623855250168649      -6.238185561022429
  2783   1      14.621582646423525     -13.427057787106554      33.754576147066814
  2784   1      46.954649830193368      30.096937075686089      7.0586271109805105
  2785   1      8.1207904489611593      32.731707946484562      34.201645714047906
  2786   1     -5.4980585516657072      11.953392313522187    -0.16910412288628759
  2787   1      24.100198790480455       8.110336184187215     -14.711218579979706
  2788   1       22.39601686804945       13.18271783064869      39.477924797336101
  2789   1      57.007682780728452      18.277051563499167       11.78542254866634
  2790   1      6.8320498205879225        46.3816407807197      35.683342727878987
  2791   1      24.347217818857359       29.32219787841511      16.013226820929003
  2792   1       26.05795240806491      40.827405672883366      52.578543871125994
  2793   1      23.177047250233034      52.898721979361781     -3.4409303250946239
  2794   1      49.501377908924475      14.096615092368507      28.691156118457503
  2795   1      40.294371010708169      29.122152524183345      33.304675270527682
  2796   1      0.8455371326298039       57.91516312620768      31.146028588912195
  2797   1      7.3925495900144593      43.775802520053581      8.8278495359522609
  2798   1      33.794838534452701      34.890596021775764      21.617795419238291
  2799   1      21.587145515315758      36.510996936093385         45.931984618605
  2800   1      19.253582772159088      25.066695055556906      9.2365396981272134
  2801   1      25.374279119904369      24.088885925932967      15.757285894446031
  2802   1      20.920602482635097      29.853178456248898      43.054438254084552
  2803   1      23.476388422355402       34.87726422267496      36.313725558009438
  2804   1      18.456572275621909      26.680564584050948      23.395400564154265
  2805   1       38.58518147951574      36.161985767665861      36.479537403265113
  2806   1      26.764710072521567      12.216359076154255      19.941389780892067
  2807   1     -2.7832921734831557      21.413203969466934      8.0579448791417061
  2808   1      23.125007571140145      29.407531861180555      5.6634714173626701
  2809   1      19.574292487234825      48.437248534391451      47.558953004158191
  2810   1      38.469057864833786      38.045477530023341      52.509909249162554
  2811   1      30.488217366599859      43.087679923484018      8.0852466753613967
  2812   1      27.271109356672941      11.450253923522702      75.565325352442599
  2813   1      30.082402363153864    -0.35273431313151393      47.656077965945613
  2814   1      9.4134305400220324       9.040896337375619      47.504889521338171
  2815   1      32.561599766491248      60.229593038955635      18.727971499030524
  2816   1      42.863683242680764      6.1249620959195337      33.592261276332735
  2817   1       27.85443897585775      17.792792792153353      39.707675528079484
  2818   1      4.6559993406035165      21.226663713666536      38.400126662571751
  2819   1     -3.2656227193074252      50.297517290487022       17.60168693698909
  2820   1      13.071644666572764       37.42249718303745      25.338028487447207
  2821   1      23.239305460518125      19.706354698046376       35.92480953331264
  2822   1      10.851546237834139      13.513886822167088      17.720485568503548
  2823   1       29.71973735986515      3.5916453337601881      41.234693266089479
  2824   1      23.958473593910803      41.545026857322668       55.71323773433091
  2825   1      35.337106247214898      53.633308315694201       15.59199248305802
  2826   1      15.926236912620258     -3.0026675068052593      20.992929460698456
  2827   1      45.427634140984289      54.169123705741214      8.5048462292061302
  2828   1      13.754425955189108      6.2893313794598358      69.994128133976645
  2829   1       60.31401222497577      8.7639014227564527      14.512507619598896
  2830   1     -5.4177050888866258      42.190162584202923      33.065579384221472
  2831   1      2.7383379923080859      11.115684581704114      47.656660675597507
  2832   1      15.847209973337582     -2.0464807715118845      52.956663724524319
  2833   1       31.90752260628954      56.783272019135914      40.515976446964217
  2834   1      74.678343865961693      9.8675265998301747      15.563584080376982
  2835   1       22.14136673495592      14.755339072254367      36.357210659173411
  2836   1      12.412150068763502      55.236870853478031      17.982254990244986
  2837   1      10.411911959938639      43.859296876507635      4.3192184421325619
  2838   1     -14.925477737691512     0.78187181737521372     -11.725592621683933
  2839   1      53.640081229318547      16.983824452675094      16.416310426150613
  2840   1      9.1740613226647643      45.592361857534542      49.424052355268515
  2841   1      47.447091929443225      39.585581927835079      6.6110588966469006
  2842   1       23.92475172222586      30.697821870578959      32.003475082951972
  2843   1      37.595469014066452      32.362017670457689    -0.52324033437944883
  2844   1      29.192386630066459      16.750551359170899      32.751487205306034
  2845   1      20.153209269821641      58.371007865560756      7.1447702038757965
  2846   1      54.599228729093284       11.33051780078158      12.332897639934158
  2847   1      22.126725366859056      53.490558486188625      11.000394088079609
  2848   1      16.081992119122202      36.184098174729151      26.748304678173934
  2849   1      39.383759635544358      12.976957971579893     -8.7680203609511871
  2850   1      28.836415246345158        33.8808083830112      7.3596973528875527
  2851   1     -2.8542227889069478      15.173543873613143      21.363140996635714
  2852   1      17.308028640897206      23.745602097470414      42.333901207989463
  2853   1      3.3671484485528236      34.481127138397554     -3.6787261878467103
  2854   1      52.326087380443873      50.286631972690564      47.575926986633526
  2855   1      29.426927564358284      32.592861961535334      60.389871871447603
  2856   1      35.650985921002295      30.109507952229404       60.16559583317536
  2857   1      46.062222608177763      16.052305930386581      31.503045049600974
  2858   1      26.835060543643088      40.092035333555145     -0.1964251446425988
  2859   1      41.866800901931001      40.280715628441207      9.4666200626129786
  2860   1      16.323873832461388      13.288579148179245      5.5490974212126369
  2861   1      16.716209198339502       56.91570094764225      18.473980067454789
  2862   1      26.395007585149077      37.601640899393182      29.736974033992865
  2863   1      22.432405285510306      30.883243215350781      45.958684379797546
  2864   1      7.9990040794389818      4.0192735662998009      53.231920019253543
  2865   1      38.369721464549343      41.715381513086442      61.117856915561077
  2866   1      4.5133817219030608      38.196354607778161      27.816329389584052
  2867   1      38.158337204439668      46.180490817367918     -4.2775072914457413
  2868   1      39.764090513865803   -0.025441532754616161      12.584400023231385
  2869   1      19.315610848618206     -8.1108617084200603      35.130857227159979
  2870   1      25.864376667511085      49.816613347570211      49.442508578118236
  2871   1       53.02719426801081      7.0181314767859444      18.000305284651859
  2872   1      1.7330778818230996      23.767715333860885      48.660506557233568
  2873   1      35.104862543878887      19.310718278135266      2.4458685496212587
  2874   1      31.348298691754376      41.947893738403224      34.162449651184851
  2875   1      -16.59710836340539      34.543479303091367      11.739745943046771
  2876   1      62.605283408610589      15.113805874065292      64.023520677761525
  2877   1     -4.6133939288139238      7.4936450752551913      1.3343655452197374
  2878   1      38.103211705789654      9.8604988745006903      10.628632998418505
  2879   1      27.632323037863827      25.641787250184226      32.360523535530518
  2880   1      10.378766008746783      32.319065583178087       6.583728903647275
  2881   1      47.797813579578616      19.602693110483798     -20.793441561422249
  2882   1      53.330380268036556      18.027063993234407      11.720425205249066
  2883   1      26.584967035453854      37.430353409100697      24.092662852241908
  2884   1     -8.9668983925603758       50.30300031681324      45.144849272617428
  2885   1      26.262497419612799      19.648844344924246      21.789897453532557
  2886   1      33.580637293154084      53.346832836910856     -6.2464257942773571
  2887   1      44.097437049341977      37.087109765826185      42.237429111450979
  2888   1      14.563093086196684      28.326597690849997     -3.5901617925810423
  2889   1      30.941572918272293      10.704053050182196      38.435514272193402
  2890   1      61.257573509769003     0.15708071057073728      33.276454103566032
  2891   1      42.966938892883839      23.597482794353191      2.8909897926849393
  2892   1     -12.475364826472918      49.026682286860392     -4.2860705237769317
  2893   1      29.843394149874744      43.074147361518676      3.8007792905569655
  2894   1      26.092379290139391      7.9659345463190245      4.2830135870513546
  2895   1      36.477086867475315      19.701190161870795      54.404944109068715
  2896   1      14.746368442095545      14.325746800220179      9.9309278286937381
  2897   1      19.379965569454686      31.484105416969932      30.444839331030785
  2898   1      17.195960641433491      3.0031070340229737      15.368573011422587
  2899   1     -1.1754719293290419      32.219723893377264     -15.560559199252113
  2900   1      18.503806312757934      14.654850244152945      44.811160763398455
  2901   1      43.813832695186797      23.353203021131016      12.186864335686669
  2902   1      36.794893496957954     -12.720803867898354      39.020712394832309
  2903   1      73.332696942689239      32.264971430961765      38.227702096378891
  2904   1      46.888397500797474      14.730440656194375      4.4643403526141494
  2905   1      30.982801359243989      16.879528975351725      7.5410193802437631
  2906   1     -6.3499289422402496      13.999932057210241     -20.290949326882025
  2907   1      -9.831040351116016      45.107593883062918       33.36550196433187
  2908   1      24.127846698659411      50.934419984438001      60.680432699027229
  2909   1      50.177712639638017      29.921009767850911      4.9333494572318859
  2910   1      11.732947544369898      50.869863164404883      41.059418293755535
  2911   1      33.454167634409238      54.599966544033677      33.112626483497586
  2912   1      31.252135742869722       35.95671443138253      49.474919886670499
  2913   1      13.359471773926026     -24.635376285665732      1.2132359191932525
  2914   1       49.78050324882188       35.03624717151407       42.42079559813002
  2915   1      42.910693773025145      21.068623977351116       26.47405151806608
  2916   1      10.974515697120868      40.982510476902924      10.488770529999853
  2917   1      25.472705445308591      32.623028114112202      21.175103205620406
  2918   1      49.919631355466137      34.854970056272123      12.111609034570266
  2919   1     -5.6561869014855652      27.936861219523589      12.625885030392816
  2920   1      15.944284873153425      56.848574321130236      27.263910387742005
  2921   1      32.420015068839234      28.110392883948442      36.331268872316826
  2922   1      31.772056582418642      20.272129870540944      7.4200210904782091
  2923   1      38.271564878871445      48.738991860083161      27.805260356234093
  2924   1       16.84610685963921      43.110754512773553      33.400711856997731
  2925   1      1.9956188412357938     -17.323070089314832      59.134863734457568
  2926   1      32.307529420113639      43.375000136920534       10.79926370112512
  2927   1      24.038353814705534      16.572036997970752      21.480228729700507
  2928   1      28.165082039931207      7.2939049271584517      22.867637849632736
  2929   1      4.1073005226464465      25.940076319365382      42.636012391388377
  2930   1     -5.5477320803907935     -8.2270406105636873      5.1912165211272177
  2931   1      10.718960084768383      43.451519718295486      7.6886645901429507
  2932   1      16.687123046212061      10.188613432239952      15.730533563639135
  2933   1      50.820626054047558     -16.690344940816161      17.580594361622254
  2934   1      38.403618156113637     -5.5568289771498662      22.109940714828937
  2935   1       51.49322506625559      41.816753913135038      11.370990778979483
  2936   1     -14.116210652103442      38.073898244795188     -15.448585701441358
  2937   1      49.286314328108588      5.5465053065155052      15.425926088708438
  2938   1      10.233169468687699     0.73908494842218153       9.121934191098056
  2939   1      20.502589341825054      34.864477182731314      28.013673150422985
  2940   1    -0.86796717334236106     0.74471577447269288      30.581983356181929
  2941   1      31.004184543689206      18.119475465238764      12.433413745998656
  2942   1      5.9022422206878247      35.395034707265722       12.73960541362456
  2943   1      68.661561610775379      2.7512910994944737      18.806428837441167
  2944   1      15.659403857418258      14.078662834070393     -11.522584486496742
  2945   1      10.021454346197137      12.408763020763535      46.822156086161797
  2946   1      27.934587182335953      45.777524180078544      33.035337175558752
  2947   1      50.173410247805947      32.506177149064456      7.3281888977184231
  2948   1      31.819368924092839      1.8575823541717014      6.3478050331343647
  2949   1      46.120876804286894       12.81138355554582      16.747750030506243
  2950   1      24.571084317214993      17.719434322185787      -5.131108840087542
  2951   1      48.848202934326082      3.2102272870961457      19.525553043969889
  2952   1      52.089352567514986      12.383734413673858      19.720924294106595
  2953   1      14.876589273222404      28.345496031226645       34.97103257692202
  2954   1      37.078095094068608      19.517423875798304    -0.78158590146500473
  2955   1      2.5546022757564493      43.667387543563791     0.54936576511729107
  2956   1      30.278309212274369    -0.25237308555915505     -13.375718085424786
  2957   1      31.447900589369723      44.327468558873399      1.3037960987109725
  2958   1      22.557367205751234      39.561646884916989      13.219575798394708
  2959   1      51.259236876922216      22.652467883524427      19.831639348050032
  2960   1      11.322316205896238      32.924300813508879      22.743481430510133
  2961   1      40.390479000719964      16.830404594293192      18.581245209424527
  2962   1      4.0930313375806886      17.913668506352209      5.2324548952938068
  2963   1    -0.77849462752530774      21.389644361627443      48.857556337678872
  2964   1      37.457457332918047      40.351530316481949      15.829835985028716
  2965   1      19.597530486488079      11.659470591636873      40.419491153690267
  2966   1      41.948999575988424      4.4555758888523842      24.521979317910496
  2967   1      26.301484566803591     -1.4056589807654356     -1.7944728257921378
  2968   1       35.12315176222814      1.5408668437084199      17.948413773517206
  2969   1       32.13444526024967      41.359205061174002      13.775388780146674
  2970   1      39.528271676801175       23.99397187018014      20.081712507539706
  2971   1      14.455857297638897      32.948774294023515      14.458603870356797
  2972   1      21.133097126832421      44.486343501716568      23.199965854696135
  2973   1      14.524876370596219     -3.3482401740627847      24.424627532509703
  2974   1      60.755573282656314      52.124405037653112      21.398324491943146
  2975   1     -10.897683373143979      29.172981656144906     -6.6493581443638501
  2976   1      24.423801385547833      29.853106418570416      48.699355752036659
  2977   1      51.626435059900643      25.263874706585845      17.672904195149258
  2978   1      37.449912351676815      34.151743214505522      20.998527657436728
  2979   1      8.1661337733212118      49.618883832873024     -13.604239178125994
  2980   1      7.3843149405183279      24.014030674471964      13.341484403685877
  2981   1       7.125485657958845      13.916326936112457      59.323121307042413
  2982   1      32.079531964805845      1.4439787187414257      10.642124519153205
  2983   1       51.55466678239025      44.688944795757294      18.950833279285018
  2984   1      -10.09534391448547      31.261026908449463      72.547245745519447
  2985   1      18.863642288652912      28.268769055944773      28.969762004433072
  2986   1     -4.7999916320170284       16.82246432743883      42.883775834736191
  2987   1       37.09318683534967      26.023014647068081      19.422130741599471
  2988   1      42.434498964068283       37.84786612815855      27.126814099058258
  2989   1      6.0063792208218469      43.111057661681315       19.91954229660757
  2990   1      44.540889622289072      53.453766011837814      19.254370333046477
  2991   1     -6.1113778430582206      56.582208481083178      17.189088504207177
  2992   1       29.85219529137575     0.73963961248872012      25.189833354804303
  2993   1      59.108730653023414      54.631357765416396      20.476646311359222
  2994   1      32.404077756977522      35.753411296251244      -4.554953960206257
  2995   1       54.55795860623229      13.620790465434707      42.295502489782308
  2996   1      47.092066851001299      9.3352740408341486      11.889354097172882
  2997   1      36.852800824728462       22.35473397055738      26.500344567245445
  2998   1     0.52975403074105953      39.341393767622364      24.891711372860172
  2999   1       35.03229437503829      9.2671242573964889      53.942086865185757
  3000   1      9.0064784948173795      46.071134314647402      6.5194744916112279
  3001   1      29.339500228052835      26.125382607076233      36.815090431694273
  3002   1      46.928497057923742      24.201403015259327      32.808924711736175
  3003   1      47.975364869296662      12.670550532153204      55.637239565227176
  3004   1      31.596336910968859      42.923385887570134      37.332939999086847
  3005   1      22.991463118219063      11.074902478813547      2.1224491044081355
  3006   1      66.565015973341346        65.5655929090303      14.433052624193039
  3007   1      65.009712428159048     -10.142547555746249      28.887150430479203
  3008   1      16.111456674038589      48.058270473488911      25.994662912549266
  3009   1     -19.525905125308682      47.644403547477616     -5.1032084657618428
  3010   1      38.731301344913881       35.18076144497973       13.81312688360579
  3011   1      11.415787829828641      25.669320045029579      37.344578213929147
  3012   1      21.275693797223994      37.594049899927867      53.611192456300031
  3013   1      46.416824258857424      15.417731947427471      63.576599875331659
  3014   1       11.42810950955919      30.042622028661082    -0.34172799118425484
  3015   1      23.811574115704751      25.191833879787698      40.679923520482397
  3016   1      22.236388035751524      24.728959278617197      33.036360532205016
  3017   1      49.269126371642351      5.2607892832407925      8.4352144721807161
  3018   1      30.037096194001428      28.901494629298956      43.144698703400032
  3019   1     -30.186391223420618      30.297277709687805    -0.78093024115594079
  3020   1      47.710081004022364      52.592715233547061      28.663134419836069
  3021   1      58.721164472848329      37.057410008399209      42.670959165170714
  3022   1      10.689433842299291     -3.8551519676200972      25.400666915300096
  3023   1      6.1054527928186939      2.5788679818715061     -3.4877076147087256
  3024   1      23.382155968508457      29.151456492272267      40.440145628093916
  3025   1      36.865968442400053      6.4494765701248964       5.282041029702695
  3026   1      20.173005697346746      44.969690027290852      29.498667733619232
  3027   1     0.29337922620861329       42.84684076836394     -15.913399494552666
  3028   1      15.804123631702062      47.350019303497199      36.664014420682271
  3029   1      45.686228310663004      33.190986416310622      30.776661706839111
  3030   1       42.04158328578545      9.0170394913431071      22.695793089150399
  3031   1      31.915672586882437      40.237544771550212      31.176842099739165
  3032   1       11.72200328413688      34.144238705788155      10.534541311901854
  3033   1      32.899377001024988      26.597248315133378      29.408581961195278
  3034   1      43.424323531805349     -1.9266741641366483      13.100639009357172
  3035   1      48.495798280579187       24.19398851984414     -10.880990016568347
  3036   1      12.717422472541019      38.415110280811462      43.891727662862436
  3037   1      33.667806536043912      8.2235386810402975      17.680697002849072
  3038   1      23.295659537097769      19.301409906204515      24.633838682742148
  3039   1     -4.4138880459643444      12.173848211514674      26.260258744007935
  3040   1      40.630782876939648      15.467971850153445      23.344243153762942
  3041   1      38.700746868254768      14.075420508823251      33.134295634210936
  3042   1     -3.2689376203582055      45.963531877107734     -2.5491889686654821
  3043   1      34.105203978629206      32.884651161616056      1.6161402997542222
  3044   1       17.79574899275719     -10.297122213535403      64.785259053482477
  3045   1      45.777273657892252      21.744448776754744       45.71240438865626
  3046   1      15.985664291597846     0.13761270891158231      33.903880460328665
  3047   1       13.96384676055159      7.4799494256555299      9.3550331557216637
  3048   1     -6.6251202169195986    -0.65107507603465198     -7.0092501463814241
  3049   1      27.356628244981497      26.573325206265132      13.017393813837332
  3050   1      24.593442511557868      36.122319537640131      33.338382405051313
  3051   1     -2.4759451145149738      14.520822305340857       43.36648117076443
  3052   1      40.197645409386254       10.40549623335826      34.338432691928524
  3053   1      38.124489408774778       32.32315171543241      9.2946450178575457
  3054   1      26.304364929397043      16.583951314305033      14.496437246319006
  3055   1      34.373237387001353      29.190139313060588      34.034514743150581
  3056   1     -10.837183220776314      37.734540054563482      32.937029384405037
  3057   1      2.5303004505864277      30.951146276856782      24.045830508155081
  3058   1      62.980990439121712      29.022175384596196      41.126664883655209
  3059   1      35.219133053243901      17.649828632830758     -2.5927468356301548
  3060   1      39.486258669521902       19.82059416446333      16.863321148382219
  3061   1      39.229953312306826      23.487978814070679      23.891153277481656
  3062   1     -1.3731848831250442      18.546424430129164     -2.3999740795312099
  3063   1      56.260975614285854      27.541112018462329      47.397311298752314
  3064   1      21.004205764539531      6.7369414300091677      52.324527113171335
  3065   1      3.8019436300357916     -2.6810553798140382      10.105218091351242
  3066   1     -12.429433039542854      43.192212118223921      55.384235988525084
  3067   1      46.510664776748314      45.616874532222596      38.018975063264214
  3068   1      18.642852768520388      11.063829081860838      18.367299129127652
  3069   1       12.96437413742253      46.964416460893453      49.657303100813188
  3070   1      23.771498860588295      20.933135407274982      15.697930595522719
  3071   1      27.712700669072969       46.08883676678326      63.075996892696473
  3072   1      19.769846145411758      45.542537533510121      20.437132759030249
  3073   1      14.699043698034338     -13.519819452178842      17.878398210115247
  3074   1      35.680233292394483      12.677319716913489       33.40277826514987
  3075   1     -2.8509402720133772      44.231458709781855      33.660432469188137
  3076   1      18.246029499227539      43.240918398610049      22.275608206930904
  3077   1      15.493507793606756      26.579998299697095      52.504788157732186
  3078   1      36.411186161941174      40.220111100146141       31.12834411442255
  3079   1      36.607047730906729      38.833502942625465      22.265386905642892
  3080   1      26.167015818953764      4.7334680550928674      33.629405507734447
  3081   1      23.994480588868566       25.36492379103176      30.388010493095848
  3082   1      29.352240211255811      4.0061883253680923    -0.91426171738144191
  3083   1      12.558973210785677      61.068551211195839      3.4004732017426211
  3084   1      26.334835753992213      22.581238950223874      37.306859409185407
  3085   1      48.547537518534199      45.991595603844807      40.898920373821191
  3086   1      46.024401096691989      21.958895765092116      14.909828437224501
  3087   1      41.045846393395657      43.073363103571232      59.847776279087427
  3088   1      43.000786613414093      13.770183509327047      8.6529603240729092
  3089   1      24.994462876133149      15.268221701031067      38.013017433732571
  3090   1      1.6285382494564473      32.927688816409571      27.988799682533241
  3091   1      -8.426107908949966      35.419823432430526      1.9066574625050392
  3092   1      11.722408851861568      39.300449877767129      7.6367637743957859
  3093   1     -15.656615857575437      28.048560272146251      5.1228111102175804
  3094   1      21.441365782340231      49.415830464389359      21.589789852489695
  3095   1      19.225544873171646      61.523185192367428      8.0595777832247535
  3096   1      13.607584571145887       24.13499005921874      14.476777365061453
  3097   1      24.640828107636388      34.686462972189751      57.122076205059535
  3098   1       54.36855614196844      19.918966508168932      14.883525175504895
  3099   1      30.874058282059824       27.49480754363838      14.932932741034829
  3100   1      31.575202809217792     -16.135667266370501     -1.6941283162553695
  3101   1     -7.3623349297797906      12.185871584224097      31.932501878188365
  3102   1      18.673102553259639      6.6299928291828119      55.207549585036979
  3103   1      13.871916928069655      32.121551457933528      8.3749721809436757
  3104   1      23.778733677733346      36.730960221479755      15.184052200539261
  3105   1      12.055924036212719     -2.9349036045967281      43.654107456463784
  3106   1       14.47670916965922      37.532357596717695      41.314024317713717
  3107   1      32.784425409747449      19.303135989248055      48.005755323017546
  3108   1      19.936504280484293      21.856276536226769      19.479804278812708
  3109   1      26.971664550632163      35.594360326294264      10.916520963760567
  3110   1      54.407524801726488      47.986151125554919      48.399806480477906
  3111   1      34.254874468007671      22.362818200912777   -0.052149024922112333
  3112   1      43.016330418222488      22.900995705718628      8.2788986355345831
  3113   1      47.075200029505822      29.819965040728505     0.12841830048613015
  3114   1      9.4972415600421805      35.159474879797308      23.980604583876776
  3115   1      54.721832290484805      34.680017550332416     0.51693909090167345
  3116   1      43.188821592437449      39.702670688107844     -3.5316693153081631
  3117   1      23.315315136364568      21.741191815915258      38.511089506396992
  3118   1      16.666441092903383      32.686224849648667      23.594156922377934
  3119   1      27.011850671591286      34.762302771251981      18.846289157448222
  3120   1      30.926751977000087      61.584594635943596      30.167308775542026
  3121   1      16.007471356934392      35.745060801287771      22.508862970323207
  3122   1      31.471952565032424     -3.6982191554618828      33.259580720166674
  3123   1      38.248707887371339      29.282597147227964      15.284249905242689
  3124   1      7.1037357607935148      30.013278290857453      18.643643425062077
  3125   1      26.855591873190505      23.647229680199381      5.3057616538884034
  3126   1      27.928175071631919      23.137882880850881      26.191708279830472
  3127   1      44.139307236356004      37.349492181420999      9.2416555353749725
  3128   1      37.524265794800606      6.5863110320937661      13.859396732873019
  3129   1      8.5582260274273096      42.626995538752141      24.186193184901565
  3130   1      42.021221713122699      34.028051359388058      37.177906423386041
  3131   1      39.520552894465773      34.981935713272762      17.072615098848171
  3132   1       18.68700710276751      26.905960756599661      17.095599542041352
  3133   1      24.233736320884926      25.350838700800004     -1.8113387046093175
  3134   1       5.110523466322638        49.9028455266509      42.059449365955537
  3135   1   0.0095735011710538984       43.47300808950471       36.56314178234858
  3136   1      39.790939409869395      54.932743875189772      17.798159381983734
  3137   1      8.6082816934415796     -23.203209963153014     -5.0871901251952201
  3138   1     -9.1107823784333437      13.858997566527723      11.368739382806382
  3139   1      1.1949780224705377      4.0128108007720398       45.11638735902531
  3140   1     -8.7269807188068746      16.314654267883984      -6.589864109965907
  3141   1      61.032261286647064    -0.36348125208902077      11.291795680238897
  3142   1      25.936566786380432      36.563144868273795      47.376256699634546
  3143   1      35.001607002699814      41.612172570451015      11.906299423092609
  3144   1      6.5001443190707855      40.515210203521498      17.942503506137232
  3145   1      17.674687771879448      43.042157627199636      29.895286071611434
  3146   1      14.622748201109451      -10.62060367580319      16.219303695137146
  3147   1      10.425980080212211       33.23165981352745      46.942452537399284
  3148   1      10.677312720009345       23.97433314979747      40.090421961583289
  3149   1       2.662002673379106      35.992244306388827       15.45418344191045
  3150   1     -12.976519915063054      16.172856526882263      9.7202825719993662
  3151   1      17.598157715785437      44.235281557581253      44.784084373244831
  3152   1      24.836571443506958       62.89435622733847      27.385846521135299
  3153   1      26.198907895234392      38.476157039769106      8.3140640177625418
  3154   1      37.302475308064366      16.199949950769248      18.787481369603363
  3155   1      33.531118068535534      11.188746126361501      12.103707838264121
  3156   1      1.8739189310467781      14.838098555450154      7.5022452930002048
  3157   1      8.1198661454457248      4.8293287352534762      43.237871490398128
  3158   1      35.484449449581582      46.411533358585032      2.4732419250018913
  3159   1      41.675901943721207      29.766418681860884      24.528856190737535
  3160   1      42.323773066303588      43.689239506388269      7.4297104736990214
  3161   1     -9.3555436692305882      18.089535080316427      53.309537596172952
  3162   1      2.3216685134029968        39.2608196522323      5.8760784340595462
  3163   1      39.249021558748879      2.9830686963347604      18.072578540224221
  3164   1      36.417969912117705     0.14213158462930955      20.816637757688451
  3165   1      23.714820096964011      11.679315159201829      13.858811441016341
  3166   1      4.3292888293980596      36.624729311751473       34.89066145707033
  3167   1      48.635452479595735      28.500848622748421      24.768317362029869
  3168   1      20.317038047777672      47.822825722892716      7.0110059499338222
  3169   1      5.6138720860505043      -7.999770444474426      30.884045031265956
  3170   1      12.556521772297415      20.735087330188318    -0.39592713085400649
  3171   1      27.011691639289037      40.596174628856247      66.070632418689385
  3172   1      1.7859385083549013      37.629625652023222      1.0897272174753367
  3173   1      33.881672269078003      20.068953847602504      28.587680089996105
  3174   1       72.89736623028584      22.236394255441695      7.2199476752477922
  3175   1       2.719587366475678      1.2750144132971246      13.364760322630779
  3176   1      58.614515470834682      19.467304592483639      35.670657199147662
  3177   1      24.780855161993806      16.262651592198452      25.089170369095147
  3178   1       29.07325255344708        13.6321908448089      7.2746736429904981
  3179   1      12.130350446535319      33.105184024828155      34.848527559870213
  3180   1      7.4160588049952914      13.967835924381758      17.404568110882987
  3181   1      46.347115984300565      34.069960319743366      27.373139216751895
  3182   1      26.787813487893832      28.331562521593696      20.618216525650688
  3183   1      33.898086980455979      14.081035481403338      47.274588738835895
  3184   1      53.247924990704405      12.664419407614904     -9.5396921840441937
  3185   1      9.2410579547432565      36.176197273276976      13.162827330704527
  3186   1      32.290458414345551      11.832213950577515      8.6064412846075644
  3187   1      42.952772356081987      25.920475288287967      20.612963855975014
  3188   1      6.3133242832643379       4.966806014403665      19.206557770017302
  3189   1      24.076347782110112      52.695304010685376      57.292903456469155
  3190   1      46.257439535410953      22.971044757928027      24.318053530534758
  3191   1       20.11802694160026      38.176970407762774      36.988853384277604
  3192   1      17.388554305888245     -2.7015426061091601      56.536458145758182
  3193   1      6.4270592204458881      48.044287514971487     -4.3128239956435044
  3194   1     -4.7269888525799182      53.015216067114103      50.329212924141828
  3195   1     -4.0534286292903428       16.74119967666088      51.858443763391186
  3196   1      54.254916252810588     -5.1257890811552951      31.987149741711786
  3197   1     -22.716813518505564      50.256561791658072     -4.0375457472778571
  3198   1      6.5333740256032762      34.352317494868998       45.44319012952343
  3199   1      15.454585481587644       30.73592269495035      2.5886536065185783
  3200   1      49.494543114121079      17.108861506458698      39.297834616119744
  3201   1      42.788132128867304     -2.0421233012850952      4.8534515003200625
  3202   1      10.769055938283174      30.023933405595585      28.021637114136677
  3203   1      36.889526229040079      29.810454027803807      20.284409271951642
  3204   1      16.873384068477471      33.508035690549548      20.265747299789862
  3205   1     -15.021292014338339      17.209604116138941      21.742034254017547
  3206   1      43.113324419004989      30.748776028824356     -11.897234207836076
  3207   1      25.356718066210288      33.533341585603537      12.919940801861099
  3208   1    0.043955357485306594      16.692487926540203      10.975845704900069
  3209   1      24.759236961304175     -12.122687045563671      2.5383872780874794
  3210   1        59.1694102469189      20.830859379387942      20.672542599037065
  3211   1      29.323563852997516      16.321534290029795     -5.0113971727962321
  3212   1      34.025784371263192      12.292858373333059      37.244383570621238
  3213   1      13.167270397628124      45.770436567454944      18.193468439308973
  3214   1     -10.829538756863872      10.306880135835755      41.790027244374613
  3215   1      13.429536914588359        1.29807319429687      25.121204842897917
  3216   1      35.797655619659849      27.794124983753509      62.443517429052051
  3217   1       38.25261470981809      19.226230662819283      19.753080606702586
  3218   1      26.814613780055019      31.473619382016857      18.491777646740374
  3219   1      27.486226902569292     0.40333837718663174     -8.1696318440014064
  3220   1      27.046205636239652      1.3820204013847464      35.876096304226579
  3221   1      32.055382239551918     -7.6976870738558514      4.6389917192194083
  3222   1     -11.820399312194926      15.541737638254027     -5.6107734762569699
  3223   1      19.941033490864587      14.601612018318498      41.813839602253893
  3224   1      51.939793615501372      13.748981268531448     -3.4635917613324554
  3225   1      16.095168767993545      39.818822038868724      34.019585985074812
  3226   1       10.71291268689782      22.447730276975811      45.084760501464054
  3227   1      46.383454654651437      28.496522518402266      16.332052406183681
  3228   1      1.3002421335019623      2.6262338851666893      26.913160384396104
  3229   1      22.252382305490457      55.410009733483577      14.768016412459199
  3230   1      40.370386728351306      46.142875202973237      21.751174566796948
  3231   1      34.692344871165339      42.096689055433757        16.5330699268602
  3232   1        25.6614397162963      35.209985741644367        40.3297249646346
  3233   1      22.067033434693283      25.063524484797146       25.31934254640964
  3234   1       33.06866549512231      6.1049925120088924      27.953049548597523
  3235   1      14.443146356284997      49.461463028107637      43.950473124322585
  3236   1      38.384462131033757      16.343520527760361      25.454332731108373
  3237   1      40.412833441998465      11.407159264691298      28.780445195736331
  3238   1      43.885896164691118     -2.3746416262693306     -13.498020042538359
  3239   1      41.554462286846849      33.535353657120439      40.405049592887629
  3240   1      36.620784555479929       19.66026243543438      37.285362140398895
  3241   1      47.205595469591394      36.210392079279174     -11.697055618081389
  3242   1      49.589710336768761      14.076022986620609      47.526427999130583
  3243   1      30.194152052511551      23.395357859893704     -4.3873844298514575
  3244   1      1.1530690123140148     -8.2896850583285371       35.74514258958564
  3245   1      5.1159362490813214       21.44164403279591      5.9094028419628994
  3246   1      46.724866182016662     -3.1931612411269992      27.060895239447945
  3247   1      53.456025367499343       5.112987264331351      8.2291294966384925
  3248   1       11.81985773507515      36.738809341766718      52.936173903456194
  3249   1      61.577948045845751      26.821384022620506      27.419912156085847
  3250   1      6.9020985064130578      55.919060499185584      46.477180097362684
  3251   1       10.84830905494564      -9.243134150029519      47.317109858523274
  3252   1      47.125558073388277      38.871862824851441      28.271243703792749
  3253   1      26.587954353960612      14.829379982819647      45.374248849337015
  3254   1      23.694436328148775      5.0289041419931593      17.824637386501127
  3255   1      0.8546598062372126      33.078124734303572      22.526144886139306
  3256   1       22.96783022420766      5.3260430582496765      35.149145627162675
  3257   1     0.67316825865093177      20.898895659988931      45.024828752620216
  3258   1      8.9120527983057958       44.35013027973131        19.0675859774414
  3259   1      24.150902997012352      16.121493178887501      12.250773303337928
  3260   1      25.761435836690371     -4.2595973645173251      2.8844488441431224
  3261   1     -2.4982125658459022     -3.6780599850317923      9.5376791651811761
  3262   1      12.362857567456107      17.251363249821093     -12.300672363580254
  3263   1     -1.8241047279989528      19.418118785077617      23.695178983997454
  3264   1      5.7885815859844234      41.111762671007661      23.706543778274931
  3265   1      17.289949222846989      27.558727251769952      13.828227592964595
  3266   1      28.789578179726668       29.54774336586599      9.7618499391105527
  3267   1      20.716372434522345      22.773943926923781      36.162513779540838
  3268   1      13.596595576857515     -12.002870933149437      28.713160692333378
  3269   1      -2.299206391127584         14.558323004574      50.234587877639065
  3270   1      4.0886512418198215      35.446469072845076       39.10173639299235
  3271   1      23.719769525166111        24.9638125229969      4.7777168331517759
  3272   1       19.35269510199571      31.802808445676416      10.555390002936274
  3273   1     -30.057794440792861      54.924408515041208      30.588395592389432
  3274   1      15.089350743858621     -7.7073331980619324      46.487641080119552
  3275   1      50.947853753985115     -1.4638178233070136      15.262294280952998
  3276   1      6.1198830363934604       5.297080806840003      29.003824335082427
  3277   1      39.298215782717968       30.06284048845632      30.163308321623791
  3278   1       29.45839746211983      63.427666255082073      46.715853814754027
  3279   1      16.790035032786434      32.410677925615815      27.831734244905761
  3280   1      12.841850900318477      19.209223270333379      30.843207506466268
  3281   1       14.01813208552552       13.26083827413836      21.776421736336008
  3282   1     -6.8573353871422995      2.0513803169742899       2.571500929307895
  3283   1      6.8799167198441689      8.9786557762316992      28.065803430855176
  3284   1     -22.064381716460399      26.119696987143492      39.519330700573285
  3285   1       18.10565085901132      22.139837290943159      54.029305188368923
  3286   1      7.6788533943280619     -18.235960311430382      21.993546357846043
  3287   1      14.534703078224272      22.704500261125784        17.2190346353743
  3288   1    -0.36370499421704006       23.64002863516291      51.207026652334591
  3289   1        2.12085362809098      42.458340247572764      25.549832010255578
  3290   1      22.617601380469619      10.064991276598272     -7.7605299362953977
  3291   1      35.658922186743681      26.676565525271421       35.84117876271786
  3292   1      31.261950661060279      24.510587393064217      52.904748419681297
  3293   1      23.570338985247862      34.713398061060325      19.665019377229552
  3294   1      43.168565215687494      24.394319548675789     -5.8931422054443656
  3295   1      23.901394848483239      31.593796213360662      42.660767845904473
  3296   1      2.9609419950092262      13.415604532142552      1.1899688464775249
  3297   1       30.02674403973846      15.048297540731603      21.912095125475769
  3298   1      13.772319628823427     -2.4908323676160204      46.318238311058394
  3299   1      21.875603706532569      6.2561111349285818      8.3019745947253902
  3300   1      52.537856443429789      26.935714310630729      31.368225553007431
  3301   1     -15.515023379643955      33.845294054368551      18.274465307508564
  3302   1      39.179299250902325      20.341092301360128      1.4292430413517851
  3303   1      20.459571781196988      58.269435816075173      20.905042947918439
  3304   1      25.786343461490169      48.784273010045958      32.279572801243177
  3305   1       10.21428615464086     -0.7241622775847486      41.533566800868883
  3306   1      5.6372579874558992      64.663641832958263     -9.1067617209347418
  3307   1      19.507113846888537       54.16814897781974      21.680476737052278
  3308   1      26.414040638119893      29.815267289846314      43.974023634227613
  3309   1     0.37768590781908745      24.496826433935155      15.912927640674097
  3310   1     -2.3460801106704183      5.6421180980184555      34.706521763125266
  3311   1      37.026690331857012      38.240478647825888     -3.2260099880840847
  3312   1      30.864874854087933      7.4041983292991755      25.086040573345283
  3313   1      32.945476104247888     -1.4980508725435409      11.953664726098815
  3314   1      43.288956286453448      27.992399085526369      16.066670888064319
  3315   1      38.164858528618474      52.924568140622007      35.233005321050946
  3316   1      19.432678350516493      30.603143724220338      26.804404542507179
  3317   1      58.694126266400289      10.416778598721297      16.909888018966605
  3318   1    0.061927612431441882     -15.641223307466595      1.1731408981200213
  3319   1      50.688756895994885       25.90313820847674      21.165641231235576
  3320   1      43.431055223669759      25.985198121501746      34.281619530691302
  3321   1      30.913176007705143      26.295229469789561      45.852586331882542
  3322   1       31.19738027591978      14.751932862424082      25.048513024861833
  3323   1      30.809564507392633      7.3737562921519268      11.675233653248847
  3324   1       31.88939233856274      34.551017569772661      63.807992174292387
  3325   1      57.303224679291723      6.9111989463700958      30.240067403203657
  3326   1      52.696936715550372      40.773396527362863    -0.46428323467519705
  3327   1     -6.6137455179987077      5.8948956867710578     -11.247063914187573
  3328   1      54.625458471235177      15.641621991884831      21.499741215598075
  3329   1      23.157131189836175       50.89451534288272       31.53089660400931
  3330   1      1.8195836939790322      21.477228969604251      36.574740290806659
  3331   1      31.359883640242295      5.7396114026771086      2.0141364223284715
  3332   1      5.5261262524106618       18.98559161959356      19.302261823717025
  3333   1    -0.30982214122959117      46.565129994188773      45.231175789787741
  3334   1      47.633304870152344      18.633216814520594     -5.6395650547612863
  3335   1     -1.1586436439625991      47.302785037240639    -0.33702320383967033
  3336   1        31.5741840930399      14.284394309294402      52.403590495464258
  3337   1      15.423163236015549      -7.496301893745196      20.168231879279027
  3338   1      17.030096694554818      55.916641972237684      24.075312966867301
  3339   1      46.360545413412154      48.772777052192239      44.166012758466522
  3340   1      30.320027390201577      23.639552109211209      30.129036574912153
  3341   1      11.204781171665042      34.004272689368619      19.736761841706379
  3342   1      37.246136411557409      30.314967200856259      32.954814087366316
  3343   1      28.844367896534592      42.493763310277224      15.395396715071362
  3344   1      29.925121174642907      10.080532822298053      41.530905620991803
  3345   1      20.343095505969377     -1.6564983012829482      38.984801715098641
  3346   1      53.540611167203288      49.926677399777667      50.656587817599942
  3347   1       17.00095662078586      39.287850922011415      43.674476183388684
  3348   1      17.834909756554808      35.389346963923529      30.854519563575565
  3349   1      2.7402844605395908      42.000362830703402      4.0915033118478359
  3350   1     -15.640220273397199      29.405122712124115      16.957471686495733
  3351   1      43.561736241564738      19.220600613517668      35.410514084486792
  3352   1      10.890712385835696      40.592762332695919       26.84743289001781
  3353   1      45.609227310094482      48.256827449133517      7.4893859713363966
  3354   1      58.497603598056585      11.170065661594107      13.424872064500267
  3355   1      64.636364117055408      8.4116226830085168      5.9851554373002926
  3356   1      13.037422720845916       10.69213379694226      44.578720468662482
  3357   1      23.374163106539974      5.8942564723231676     -7.2213499243787691
  3358   1      7.1414870228259861     -27.224555907691048      3.2740458333971287
  3359   1      31.455510134529035      24.762253848441556      22.966242951545468
  3360   1     -4.5064297663136701     -3.3255149348316793     0.56666497739166066
  3361   1      67.797340788602256      2.0958298624292544      24.025384931681153
  3362   1      42.605107676023145       10.44968636223048      3.0633895375819606
  3363   1      41.332215598901058      26.421985723028037      3.9849541704879554
  3364   1      38.330680042782262      26.194808999957846      31.133474155164933
  3365   1       49.91926755463021      35.201126616451546     -1.1166994772270933
  3366   1      19.669477934720312      42.552575309151166      26.975972323864649
  3367   1      55.036640334296507      10.333292227998248      19.625784938866548
  3368   1      36.986413068503389      37.168066837381623      19.354145296980438
  3369   1      34.900550723129278      35.880840133804604      53.851907500606032
  3370   1      12.718114138391154      -9.815123706863881      19.986317754722961
  3371   1      6.8923976187606346      49.864094905932667      13.902597233984077
  3372   1      0.1196037333042069      6.3959274737638738      18.373961465021296
  3373   1      13.911138164573835      15.652515335626536      43.981651932801277
  3374   1      42.423637554655421      22.001471923919869      22.044877563333714
  3375   1      38.919524973462991      6.9558205064121079      40.310961211668378
  3376   1       18.77731052984516      7.6017833102493553      45.695734002234502
  3377   1     0.42312508734705256      46.752794740974053     -15.152172825176137
  3378   1      30.620493315687938      18.672412866643857       4.390442459340159
  3379   1      -2.863947495809533     -3.6075597726223982      54.892584527394405
  3380   1      17.860845046162908      31.652000355830509      44.027060927337715
  3381   1      41.063115056244534      28.671864571082562     -5.2754310237875819
  3382   1      7.8892390458267405      25.150415248409747      17.373401869089648
  3383   1      21.525370898538718       26.25994745286846      55.916727673587495
  3384   1     -7.6683443959253852      5.6274629262915852      1.4206331893639739
  3385   1      7.0296584567662386      45.313756658131872      46.482984073518068
  3386   1      23.084016241883049      35.045871700826652     -6.1545199969068953
  3387   1       13.48429214057786      30.239662561690654      19.362899432632982
  3388   1      37.874526502698181      25.807409979141045      16.014529596210888
  3389   1      4.5187331681226688      52.976264047179498      41.814999152209744
  3390   1      54.597068690804186      2.9979673988017947       26.08206297503207
  3391   1      8.2241995591044414      38.971690910546585      31.564599796275392
  3392   1      31.578008105052948      53.869712676197558      39.050775052138668
  3393   1      43.043238021621917      6.3661991875107518      14.107939914158701
  3394   1      1.7394440211844597      29.609075858030494      32.534352752083649
  3395   1      9.1339879728853717      34.876971797888153      16.534593549172072
  3396   1      45.716616709657188      34.312015105206086      48.181099880803139
  3397   1      54.685806129475814      25.585082344540922      56.072350351244843
  3398   1      12.824548635993027      16.554540618497278      33.007071289878056
  3399   1      26.856985899339495     -10.485628605186761      14.598522945695098
  3400   1      17.451099646367737      22.884400677461869      34.868182243389683
  3401   1      27.156820154720979      1.0393904202826616      12.812060749137217
  3402   1     -9.5582693657116309      38.494769708132154     -5.4589354553956477
  3403   1      48.931254680018213    -0.98575063520995743      9.3749667099507619
  3404   1      12.353754254569813      36.114393725239623      22.073078388561807
  3405   1      20.380814521997632      13.124970717301583      33.072267475044782
  3406   1      26.981064060245746      30.145126555796288     -18.351392830763722
  3407   1     -12.725241319046768         38.294823922488      36.738662205051341
  3408   1     -11.066645485092584      42.059920725030572     -5.9541628448286499
  3409   1      20.433892337715125      44.511234025887809      6.6350713342635883
  3410   1       8.640968620935821      25.282108089056081      25.551878232201407
  3411   1      30.587488067436425       62.56823324586329      15.052823542418309
  3412   1      21.372106270867132     0.32018334364404227      33.681906505293341
  3413   1     -17.299081164380521      67.721996321346168      33.382551416408873
  3414   1      40.363674046744187      26.418140570184139      66.931777885965019
  3415   1       24.19437754042141      58.000358206604588      47.931983231490698
  3416   1      12.205083391291602      11.601066568475311      30.465701362927792
  3417   1      26.300037664845444      32.368469975979089      58.842650055321663
  3418   1     -10.555008311079799      51.549437711270464      38.630580851765608
  3419   1      23.080649491258516      13.699261260571975      31.143409482990425
  3420   1      12.196060093276509      19.107256440842036      17.045519782287034
  3421   1      46.204465796768517      -8.588127420477047     -2.1527639615841516
  3422   1      41.273255447807472      17.509890431078738      12.487786505945312
  3423   1      40.008934718876638       32.05158687315015      1.4882850812496082
  3424   1      20.599246206857085      37.192677551132327      14.050651424339254
  3425   1      31.696695468607839      53.551997852672585      9.5217049840690784
  3426   1      27.695003822639098      55.795242812544203         18.206747973469
  3427   1      29.130909030687778       31.00603219532934      24.778150156403445
  3428   1      51.661324122114486        14.7190109812774      33.751861157553577
  3429   1      44.656796881134561      52.214336120061716      26.455677634885664
  3430   1      47.729997958026352      12.304815500856478      10.363225422055512
  3431   1     -1.3058145669415147       11.20292297799687     -7.6695971138784387
  3432   1      32.921978192118836      31.747520911878041      22.517281398525434
  3433   1     -24.785142823701491      20.997394098175661      44.197899371019304
  3434   1      57.225615459494755     -1.0872967034660188      17.136438048616331
  3435   1      8.7183025427951613      41.102093299102876      20.425146814523238
  3436   1      21.066047604981478      20.292551729216509      46.664909940273425
  3437   1      36.992782884082892     -8.9832699130496021      49.122654982420961
  3438   1      11.717912530975669      8.6033900457919348      56.211967485476009
  3439   1      40.400985919540645      41.598875351533785     -2.8007931271522701
  3440   1     -7.9511105988384374      17.154863094346602      36.601782886909916
  3441   1      41.217108522292428      38.643458676186775      30.361123776917246
  3442   1      27.773812124492469      15.778965244110442      53.245054201883761
  3443   1      61.257720584922559      36.508320354147436      48.331898130332625
  3444   1      45.993529624186678      48.869861371388986      35.378071461790512
  3445   1      28.137347595419353         36.662781634683      5.4524437854939443
  3446   1    -0.25155123510359534      14.187832373979344      24.936728800824572
  3447   1      3.2091360008534875      41.862213117931354      56.098114174514734
  3448   1      52.928449171068387     -1.8169282794175732      -26.40775200439505
  3449   1      25.560403800328572      5.2027145035690276      11.223294465945873
  3450   1       1.297660379610021     0.10477753543541786      21.825364633791519
  3451   1    -0.73406053962774531      15.934570481301739      36.723443661218589
  3452   1      29.968380112045491      38.943097698422434     -2.3914672047524634
  3453   1      29.932136403759404      35.309665615410111      39.082741321577167
  3454   1      16.719790274999752      30.707900639744103      33.007317159216576
  3455   1      61.580274496503186      64.593560664159625    -0.33363072790220205
  3456   1    -0.88318923692476659      9.3820772611081509       8.664033089811042
  3457   1      33.738739329259928     -10.284587986444144      20.390412604208418
  3458   1      5.0643558845262389      16.883483492871999      25.969389652611017
  3459   1      9.4643211456016481      5.6066638448333332      73.096340039056088
  3460   1      22.308648841430571      10.034845830966333      44.282974494269844
  3461   1     -23.979245462879053      47.841943550865615      42.548635976917552
  3462   1      10.612775733970249      6.8019695112142031      45.435651034280319
  3463   1      22.708333644911001      40.452071687597737      47.215096068839486
  3464   1       30.64493352527607      56.450023378653455      8.3009845465269336
  3465   1      38.445092213489552       9.478104326692673      17.659073702255771
  3466   1      16.457600633758123      23.272355590348958      24.630413462781615
  3467   1      58.830817101056496      20.987243487761624      12.376491110486256
  3468   1      20.471072518242195      20.082590068254859      37.724062807994009
  3469   1     -10.374610583938962      28.665716428151736       7.358728258295578
  3470   1      38.450557880747738      15.223575631641296      8.0306921705208847
  3471   1      19.007091770066634      35.713086612491288      20.776082316669832
  3472   1       45.31796890980641      18.117221989313393        -10.760473689285
  3473   1      42.208722278870098      12.077346141492031      22.574553178979791
  3474   1      31.951472082348193      18.043789367651765      26.732377613127699
  3475   1      17.155749471600974      44.478811531396033      39.502055141072489
  3476   1      19.885643155745843      10.051505329653423      52.081512600224926
  3477   1      9.6134613795859902       35.53237596892339     0.71940202690910471
  3478   1      54.974237531825793      21.807008820310546      35.449744447252733
  3479   1      41.322382797166917      40.030616113801862      61.510493344443653
  3480   1      7.5926915257729704       22.22317754506879      46.984151205052548
  3481   1     -2.9794010459034808      39.884898079383099      42.338017715002565
  3482   1      40.980290320656266      40.566341222745862       21.42646266531731
  3483   1      58.951464147721609      22.775840547233784      16.081525345570903
  3484   1      9.3180784190102948      41.984605800695853      0.4788269357305287
  3485   1      31.055843395748592      30.646272093037346      7.5459516346967632
  3486   1      18.945387864601766      48.189393246963355      35.745137610479581
  3487   1      43.196440579043824      42.405982958187778      47.520448017952468
  3488   1      26.702042449980091      3.1970140155886364      30.583129513654605
  3489   1     -5.8085205412405401      40.770824329885599      28.222755865098041
  3490   1      2.1658638778996799      18.938112425486221      17.192837170610797
  3491   1      40.599937941827754       18.80475814932997      22.081484873355912
  3492   1      26.880919791534112      37.812434825346919      42.070213150898461
  3493   1      46.602131447510352       23.74869161490744       40.66162375270536
  3494   1      28.840159791696436     -10.336754942320802      51.113927233668214
  3495   1      52.165645324094598      35.774359457848405      6.4109430916239303
  3496   1      20.562591558994935      40.402397613354267      15.877035984316292
  3497   1        5.33396212234919      35.807327564207299      52.416760006490719
  3498   1      43.176401769669567      27.989294639189481     -1.6605770853869724
  3499   1      37.897295027814536      13.129927503156766      14.800328783976587
  3500   1      35.932090453999756      13.777414394023662      24.549430018500225
  3501   1       18.93402524304749      47.961563560073479       15.99046287694626
  3502   1      48.617192442849664      14.149326593389961      31.956325806984541
  3503   1      14.999140029996189      23.084466264832727      37.206402651911858
  3504   1      33.558230715024017      40.419881647567799      26.129932798390517
  3505   1      53.211585756046773      35.805589098300615      20.898396093199935
  3506   1      20.877986076752876      37.627027113348156      26.496815561342487
  3507   1      25.129293456179337      55.665894344279202      8.2382643182026634
  3508   1      11.318823025374451       37.19423955141383      17.186223317557712
  3509   1      7.2651963401772779      10.062274288062783      45.612185595016932
  3510   1      -7.714590722611403       9.647245819782535      45.270868217718444
  3511   1     -10.936407847283586   -0.017550936428298244     -12.212802776509378
  3512   1      18.742690675908804      13.792324955862018    -0.52307289412628299
  3513   1       21.96393639544128      16.159919122726141      5.4939453695056022
  3514   1      46.302261725403689      13.300967548377001      29.662997203102208
  3515   1      0.7737148575715268       53.81541218026026      5.3038936332353916
  3516   1     -10.981348713259841      5.4096719155974338     -1.4045628380300788
  3517   1     -5.7697840234908648      25.494081422681599      25.752594338319689
  3518   1      12.430973412987207     -6.2521481157056629      20.468994218352186
  3519   1        30.8789729155049      5.2219233706098231       15.17103174394175
  3520   1      23.247248621844967      59.064227480613724      7.7628411936676569
  3521   1      15.485752980781283      13.449698822096231      29.805532206058345
  3522   1      50.718229969054825      6.6130762840089696       28.99150646207541
  3523   1      26.727614435160408      7.1815343987758391      36.381845631346287
  3524   1      14.928824380331896       22.54093849140272      52.805283384410075
  3525   1      16.633380438126537      32.555082892141726      5.5746742900556949
  3526   1      72.179208831090563      20.723381489952683      49.385237172055092
  3527   1      22.647021048450441     -4.6173760384741795      40.472936107499237
  3528   1      10.482893530140633      15.169751556870606      31.269846782767416
  3529   1      23.951690292850781       30.33111436626826      28.732904656522557
  3530   1     0.41282497468009199      20.514305299899807       51.76660645555031
  3531   1      19.025453046805922      14.371250946043935      3.5459725736527727
  3532   1      46.638297799208857      30.150313500140602      22.498856903420219
  3533   1      28.914253886895871      13.802633085485672      10.779880657923867
  3534   1      5.6433544917717473      28.436674592799559      54.323775544926171
  3535   1      4.7443078084218593      3.5917722645063055      53.999210626639673
  3536   1      37.849961852039911      8.3586929231815397       23.83450109875643
  3537   1      26.161633639779897      32.848329243195018      28.466636469136358
  3538   1      54.894734984666798      22.488108979473783      18.615948145215444
  3539   1      29.066319269706007      37.188581345887677      21.937359549385373
  3540   1       24.79797406640046      57.314773047980154       19.35024354797492
  3541   1     -2.9268601829697412      50.547759940494963       24.06248188394536
  3542   1      3.8712008047593129      10.766184817534173       3.289182020026058
  3543   1      42.553619600688783     0.29618131714254997      8.4560711783368792
  3544   1      46.033519462770656      25.317816806022016      19.328725302249346
  3545   1      38.571679713798794      35.513879273250929     -6.6378672085807509
  3546   1      31.702455692572414      37.517195194466744      5.0552307072515275
  3547   1       48.19972895110876      37.889162535484189      11.597420948618128
  3548   1      20.151428520556806      1.3891771585743244      9.5801232272150063
  3549   1      2.0945364314205137      18.375465767553305      46.672146199506706
  3550   1      4.4512746301996575      29.658384925778183      15.898473359565434
  3551   1      57.013695460467297      8.2857022140046723      12.982152568773339
  3552   1        54.7415519665117     0.58168985875814883      23.481112089902421
  3553   1     -13.112175461498518       32.54853784865535      27.896447231498566
  3554   1      13.196613757597335      11.644963338948285      33.663324813481886
  3555   1      6.6459397336916615       27.41004094627257      20.867094803094211
  3556   1      47.581406187583681      7.4673427237429069      28.762840197881083
  3557   1       24.74407075729227      9.4711920419874875      29.211568427330157
  3558   1       29.77675814465498      5.7754479791114433      5.0425455646964092
  3559   1      34.285763591052238      4.5039233328487862      4.4884894265983784
  3560   1      7.0152494381020869      25.321484169686642      32.541855505398431
  3561   1      50.340749532124576      15.159079328018169      21.897260796318072
  3562   1      30.969570261977548       35.69160846838443      24.446987845566792
  3563   1      27.630172184477502      44.324523490571067      43.150960807612869
  3564   1      18.590541963583075      36.998735106718712      11.017649495959903
  3565   1       4.587835656447437      37.131695433373736     -2.5305795790745194
  3566   1      17.536549397408198      23.039560484631153      2.0730539940263313
  3567   1       37.94911743625304      7.9761915285381804      1.4361493345632925
  3568   1      39.040155347791575      39.351872693123845      36.599226811785101
  3569   1      17.305231164432236      20.319375974812445      18.605532657154889
  3570   1     -18.326414472284714     -12.096176174434159      18.103552996708913
  3571   1     -23.960503636992883     -5.7183296331633304      21.716670987859118
  3572   1      10.494453384439067      33.378511248745632      27.900728980345285
  3573   1      21.695642990924046      33.085105250262025      -9.183472404854264
  3574   1      23.580847797030806      13.200615682798967      24.331246028349796
  3575   1      36.569108680185636      22.055546317853221       3.256020448822857
  3576   1      3.8535252996748395      29.461281541568368      26.599814440013063
  3577   1      35.936672812554598      36.306271189174474      57.198266128804434
  3578   1     -2.7484101323932295      41.635264944799424       29.53655399013412
  3579   1      38.753881704798331      6.7684227669957586      20.838972473303908
  3580   1     -7.8888482667935884     -6.5624062685996831      16.797185506523789
  3581   1      53.318060434508538      8.1199981787947841      31.704113908169038
  3582   1      33.153928156956951      28.222567542552358        20.0382652590717
  3583   1      23.663258818672833      53.668035027292063      49.815600607500336
  3584   1      20.977878017034012       19.42366294409371      5.0580512099914143
  3585   1     -8.2641658096386728      49.657180762740346      5.2324348048875047
  3586   1      4.1282642924634994      34.033189628203374      30.006454275297347
  3587   1      18.496403839322305      6.8848619660572963      9.8599744822617748
  3588   1      27.431104609829905      7.7422118102111641     -5.6184702653830145
  3589   1      22.286371588509432      25.490287470874282      15.654452568691278
  3590   1      33.394323795332895      12.129166699603426      22.910734255389027
  3591   1     -5.0366057936817263      6.8803615031530398      28.076505544555427
  3592   1      30.759951727531767      29.311492913247886      48.079205686027933
  3593   1      20.143090990680776      21.499369168334798      58.469402792842843
  3594   1       11.92184196780893       37.91389336637787      10.573832603176703
  3595   1      33.497438448766417      21.561212955139023      11.991212657572527
  3596   1      1.8818477924744976      72.629711939532115      7.6535954872176628
  3597   1      34.357090864354596      27.956120032227822      46.254121667629171
  3598   1      5.2849451408100743      23.604250696244577      23.864221341101494
  3599   1      31.339846748658495      28.204669877029136      23.768748207296344
  3600   1      18.244694960265111      32.104077324500373      39.188540989587302
  3601   1      38.164296248001847      40.341007790003694      19.621217526281516
  3602   1      16.748441091362618      16.558721569462474      41.912263626198957
  3603   1      5.7880214632018623     -1.6918773860726337      15.237812083401181
  3604   1      38.000460171841922      16.910562225748379       22.06821464377547
  3605   1      -0.671713832359084       23.45121725590019      21.445522766816662
  3606   1      21.586484379451431      7.0229876508416309      48.190116897823813
  3607   1      43.655752321246965     -6.1747239262702474      18.643154595744139
  3608   1      57.812856111358307       13.43578629496306      24.887935107481692
  3609   1      26.558870937974156      42.799744335592251      33.773566218939685
  3610   1       52.19654135807032      53.910016415493772      20.403703027909881
  3611   1      46.938393258393141      -5.928188530123184      52.802776918548105
  3612   1      47.970445360441197      40.323042303023634      20.755143105496032
  3613   1      18.356275191445192      31.494141851083857      17.763884895733465
  3614   1      31.856272248120643      44.593803585453408      14.915666041566968
  3615   1      16.557228329548362      18.246056765040692     -9.8239239538218932
  3616   1      48.613609875435507      34.625547874667859      16.770453587456856
  3617   1      33.055841061862857     -10.153566076839496     -10.019888293859326
  3618   1     -14.211314217007915      24.351357523448126      44.637838937562542
  3619   1      34.740732020614587      38.340950367924698      59.958501750350024
  3620   1      23.271467663315942      13.043617721736886      43.179327826041245
  3621   1     -2.2374256512104034     0.14729111744287174      14.615336389333674
  3622   1      29.129308716987907      28.284683519597976      34.165515647593672
  3623   1      17.971962140304427      12.364373144158453      28.217143724273154
  3624   1       34.45024591074035      21.978543886846698      32.100117516283731
  3625   1      45.490756237432763      28.362096550242125      19.708297141664978
  3626   1      19.296944605022713      25.243152459351936      31.486491216693508
  3627   1       29.89958558190499     -2.5181181127000229       19.16019831058507
  3628   1      1.5484088451157667      39.953027087734768     -6.5948949647886144
  3629   1      19.169448583972351      4.4084911747998632      43.283795398489346
  3630   1     -10.003008617203182      25.099473652608065      2.2622133353142049
  3631   1      37.620707049051973      24.131366359802826      38.962770352437822
  3632   1      21.497623742546633      13.717916756416722      27.246758094751211
  3633   1      12.593179029896877      30.708581516932949      61.573651381599433
  3634   1      9.5292347014496528      16.239338167041048      67.650545207282931
  3635   1      8.1942210040017791      43.083761715576536      27.414716979573047
  3636   1      49.174719487955734     -1.1459905839491742      37.772198589196314
  3637   1      22.662718875007737      16.576872600924151      27.670067785842619
  3638   1      46.637867786180806      9.5484485337211087      32.155188043224186
  3639   1     -20.843238281548761      8.9436830321214558       38.72710819406857
  3640   1      36.851562462323912       28.63160589561766      28.235750915270632
  3641   1      31.862374221317761      31.566717927484166      62.363127179548371
  3642   1      29.423394592486154      35.881108905618625     -3.2761186482778841
  3643   1      35.055773707643212      28.593956928518796     -10.155533379218605
  3644   1      13.536123270106977      30.040950750166775      29.659570709541946
  3645   1      15.882465599026137      21.049917753303561      40.504717193647544
  3646   1      19.028079448575191      39.184430158006286      20.867181677767785
  3647   1       11.59556166301391      24.498971347460269      11.667115409698962
  3648   1      32.847965988888596      32.868402713805551      5.4292327287036679
  3649   1      44.417932763292427      8.7339934274702244      20.177134612399581
  3650   1      20.406604191144822      51.756320661886079      36.850050849515313
  3651   1      43.753394748561988     -6.3541217439209614      15.047074710658949
  3652   1      14.616052638879205      6.9629302345156496      30.415839754657796
  3653   1      33.767863352828009      31.524018041448858       41.55532166920807
  3654   1      20.771865456190767      22.598277416816018      6.6838032023052802
  3655   1       5.844633098422106     -6.4026554095460444      5.6799420041911324
  3656   1      49.072123888639467      16.267571329984644      17.168134914074805
  3657   1     -1.7218303222665026      14.555272707466353      39.649653290321943
  3658   1      12.202110280466595      17.950848007151691      13.914103900243843
  3659   1      8.8504882674373526      31.917868677159895      30.370398209908284
  3660   1       52.16755572539239      37.079885264043718      43.196213654881483
  3661   1      41.734793095548454      27.775195426752738      27.795060164633014
  3662   1      47.379158040925667      26.854212957575864       5.135732756577057
  3663   1      23.415173291194012     -5.1678423084700142      74.948059285410949
  3664   1       25.00869647579778      72.672037393599325      1.8117693999258064
  3665   1       31.07711622094962      2.0081563137238185      17.560334144255886
  3666   1       19.27995447788312      16.068106017464952      29.655055436370748
  3667   1      9.3262703624751868       27.16820484280175      28.421482865335914
  3668   1       49.17708509300499      57.895617159490321      5.1155702315732645
  3669   1      27.970984458258496      34.423317195770345      23.842035300185348
  3670   1      21.860776656274457      37.439947114921537      22.188236316113901
  3671   1      11.316679644017324      19.847879880509673     -10.074059852637399
  3672   1      3.0593134853953963       6.460865690517795     -14.752101634791813
  3673   1       7.373884573811849      61.794572681575254      28.372086349671175
  3674   1      34.993392404429883      22.216572037935887      14.964435957332507
  3675   1     -11.461701821619616     0.40651462740492789      40.948876156608158
  3676   1      22.105489714629062     -17.825207134215809      9.0395646472877687
  3677   1      30.316056490994658      16.127028591857577      40.735878653289731
  3678   1      36.355772867764358      19.826579016762285      9.9865853265133442
  3679   1      33.210934684364027      10.958464448480793      2.9041769000844089
  3680   1      15.386448286232394      24.803136399893255      6.6270280585859327
  3681   1      58.088263148183557      32.079991198194591      12.327882076074367
  3682   1       14.11044083825772      17.956638605978579      41.234954218136892
  3683   1      53.855832722754656      4.4487366935207771      15.992798241575914
  3684   1      51.673699201355319       9.191747445105916      20.486304924484546
  3685   1      9.7361829080170725      28.575432845431589      17.106547241492283
  3686   1      49.457260588371263      1.8366264522541988      42.312630262359157
  3687   1      6.7067371197323746      46.882112418469909     -7.4081678368223516
  3688   1       11.47356884963731      43.469741117635166       28.60855452153524
  3689   1      27.768540762426891      26.189519942029644      22.740054679176311
  3690   1      29.909638046274928      17.742404600261015       15.57002566173683
  3691   1     -5.5079642700181317      45.222559937450953      24.154099743648732
  3692   1      33.869530761706606      16.171658117436529      2.0652703546510622
  3693   1      47.824244902194877      41.772767477076151     -7.9820542500338094
  3694   1      50.901795889283889      51.017088154557271      30.019807834061925
  3695   1     -13.144836335885637      3.7452562904292597     0.50062535358511495
  3696   1       20.41001585319696      36.229170913309552       39.95856096112535
  3697   1      22.385080484782016      13.328925556256392      8.9416100204724351
  3698   1     -4.5500377792467779      28.706532451756672      5.1807577929146476
  3699   1      48.603422854846102      18.644884402574718     -14.356643089670682
  3700   1       17.49546975959845      35.189175155601376      39.536672893061677
  3701   1      31.676170904139301      32.337566258755956      37.466677585235274
  3702   1      31.741940642360532      23.540471352744007      8.6236887590107933
  3703   1      9.2015465902445808      33.603255997145133      42.625656714390374
  3704   1      10.732591697403153      13.472150044289917      7.3892495329354269
  3705   1      24.233063451271825      50.542731867363088      34.713886957415959
  3706   1      30.405360122801842      11.348741038380387      26.037920928349568
  3707   1      22.262868048722233      19.034303649790722      40.434773980297813
  3708   1      48.709274301528687      42.819470167201025     -1.3708442500747391
  3709   1      44.084645794787505       39.28846082838843      20.873758208580618
  3710   1      40.046085408150454      19.269637296943653      31.820035263714871
  3711   1     -5.5283123753389889     -5.0160066307910434      52.090961276743748
  3712   1     -3.7371270728258201      38.856009722320017      12.134394472990275
  3713   1    -0.27772097802651924     -16.852569614656428      61.628333147628766
  3714   1     -1.3110435203278674      41.618686850196724      10.811336332875092
  3715   1      39.990241244187864      26.048277767072594      40.590718720982032
  3716   1      15.497833919522629       25.16448771792713      34.572504195153215
  3717   1      43.384798934687424      32.673291312172331      24.102241700968086
  3718   1      35.843418503726468      50.589962131122078      7.1175536174732139
  3719   1      4.3217067391923329      14.467170788504081      12.343576211964075
  3720   1      24.094433453704863      54.044319530286423      22.352212864805857
  3721   1      8.1429203515239728      38.091516521366607      15.734755461448566
  3722   1      15.110265129819712      53.956381287453098     0.95554303108754735
  3723   1     -1.2515670959791689     -14.140160647322523      -8.909778178714955
  3724   1      23.337584771326583      27.078650760874464      9.5969452636234625
  3725   1      28.259736389990969      25.553660554330069      51.608916990380976
  3726   1      42.633915634368321      19.408567828964522     -3.6138652789105001
  3727   1      48.293493098106403      9.7786663389732595      20.352768254777153
  3728   1      18.236546317450184     -6.9224905167079251      47.449375663513784
  3729   1      36.406439902177404      18.672718738140034      17.145975540185166
  3730   1      19.308848991214447      7.5858357558136573      40.472766213654992
  3731   1      41.077891111263391      4.4341051923109092      20.691003076722144
  3732   1     -1.5667955534098705      30.636503127721738      37.091177645206272
  3733   1      16.409417009234602      -15.57319372098466    -0.19939204715138653
  3734   1      22.867958987357479      23.148497825534523      18.073916247767158
  3735   1      13.305201759455059     -4.4432198746502847      6.3083707723896607
  3736   1      20.492720388443654      45.788522047455849      45.182874441994237
  3737   1       48.46387603737741      45.814515477045802      18.989495037869659
  3738   1      55.263406640631892     -5.1586459935167106      49.624785189014524
  3739   1        13.4197669565201      25.011765782384696     -4.3404323749132487
  3740   1      9.7805618613474223    -0.29420337798529939     -1.1656801098544602
  3741   1      31.030213485702244     -6.8464741860255121     -4.4790479920010879
  3742   1      1.4331688833007317      49.672009511535919      49.868990279375055
  3743   1      15.833777725520939      14.040740559354949      26.328061597705968
  3744   1      17.732707750179287      36.215496617931478      5.4804399417347875
  3745   1      29.459140771879252      17.148745265514364      36.264157494401999
  3746   1       5.690395508383542      6.4762361670733215      35.938563781607435
  3747   1      12.227542007354698      27.260875805259815       51.26712305290625
  3748   1       18.81181288657352      17.086469648494596     -1.3478355215838982
  3749   1    -0.18376781642341911     -5.3335816917605241      13.730925655099524
  3750   1      24.354924752279032      5.9579972584439123     -10.631837036470355
  3751   1     -7.3726701945682169      2.5246676148955327      39.900878401477335
  3752   1      1.0470557425158928      32.096143418795961      40.028663992784551
  3753   1      67.454255250428574      9.3092855264685479      25.806908266469257
  3754   1      14.327273505208447       15.32355624742576      3.7482558033076958
  3755   1      46.740773697955738      27.987759655656781      13.075837753767711
  3756   1     -3.9080616056115351     -9.8320325610636505      32.285092720402872
  3757   1      25.717285420491105      37.949757045097265      19.794236460272966
  3758   1      12.030841791507285      35.464671415307492      14.656548415701707
  3759   1     -11.709991386379023      30.458801882480483     -3.5978675635073252
  3760   1      43.923190561484446      2.2043649349791528      10.995343183283515
  3761   1      27.716387926183714      33.046315663131871      38.165219926217482
  3762   1      16.860625071211807      19.186345078270094      21.682937123773758
  3763   1      13.035778001535357      12.006655892994713      37.529127009276507
  3764   1      23.228884453312006      40.269145950259883       22.87179991269338
  3765   1      35.982013682343009      26.609287657119268      7.5523401523964875
  3766   1      69.304493916720574      21.440151183374493      32.718583351244341
  3767   1      7.8045707350745781      36.597685386822853      29.692635534515727
  3768   1       51.44815714710257    -0.13495028993976926      24.848992860386495
  3769   1      21.029046150573883      33.879836371930296      12.734196877315629
  3770   1      10.832641573563004      15.242669482330472      43.111636464021231
  3771   1      29.995382718404688       64.20025277101297      18.598810029225319
  3772   1      18.654330376946106      58.021121234992293      13.205933085803668
  3773   1      29.185937575645578       22.35889348809431      3.0947159494026062
  3774   1      38.193025455218226      72.792002897939298       6.666581692209677
  3775   1      39.807810927361508      37.602613897266423      39.446809248766066
  3776   1      36.418262088046156      17.843636099456898      28.607431811809782
  3777   1     -13.073112991143454      47.286248615555287      57.947319477708405
  3778   1      19.586187248547766      32.719218114916117      22.118823443420823
  3779   1      42.644612898434232      27.691468748331374      36.806321205922302
  3780   1      11.317687199517511     0.49533678348579063      44.702710118459038
  3781   1      13.693591224786788     -6.2468552037057279      16.378695880527783
  3782   1      28.420380840926846     -12.414196204820902      26.653668716843807
  3783   1      47.464420166161581      11.163516054539587      34.791636752515679
  3784   1      35.747832738024925      18.909880362355246     -14.582177683660763
  3785   1      43.571716826340058      36.509365318689319      49.850879830078775
  3786   1      35.353851495989119      7.0950213848705852     -2.9175304666550983
  3787   1      30.282275863068474      30.686772850634227      29.098357025481924
  3788   1       23.65948369910636      55.227871594111292      28.772757170872097
  3789   1     -14.588129691813291     -6.9219588218506178      29.075606187342309
  3790   1      19.663691763939173      18.317849993592908      68.635339699354233
  3791   1      27.061151717556502      18.830099368429345       18.68003820595959
  3792   1       49.32015901393909      25.068728508061255      24.287111351330793
  3793   1      38.461137165800984      45.406208640075569      12.104064357615838
  3794   1      -17.40469548671544      10.096314362885826      15.938468804520765
  3795   1      58.051751113129626      2.6590457932524543      25.551080514646316
  3796   1     -2.7321140535352741      22.649064319704838      36.032109767558573
  3797   1      1.7426400692093014      41.778330220383324      17.514995870118316
  3798   1     -3.7233989485765449      10.080838766002099      23.229831041893508
  3799   1       37.60759628533593      15.598790793899841      37.108813147814793
  3800   1       11.90075476328899      42.151590012441524      38.570684068454007
  3801   1      9.6068490724576971      25.494279255746374      20.476874337429873
  3802   1      45.390695002439607      21.638463127134901      28.657725880460891
  3803   1      8.1202402458419751     -21.749326150658824      10.795104588365644
  3804   1       32.29442655683922      35.532154376180529      56.207297017928418
  3805   1      17.109678671152967    -0.22501548987808787      19.636610977315058
  3806   1      56.378094246403727      10.952344832096244      30.617639113446863
  3807   1      21.874164742563881      27.317171471109429      36.683493486147384
  3808   1      5.1393944203532023      28.621933763071468      45.331993957014582
  3809   1     -16.607647622055683      51.021457514638769      47.681657063546339
  3810   1      22.760738686790152      50.333406750423514      41.450837395576272
  3811   1      23.896652987615425       39.82174555658122      16.150341694176788
  3812   1     -10.798289175197024      7.9134442045375142      32.137415766515801
  3813   1      35.667034009996875      11.154693810384716      16.339500753076624
  3814   1      26.859172331105288      20.415126719029125      31.087558693793262
  3815   1      14.526931442806907     -5.2957186390586468      35.795916147532154
  3816   1      28.878380065617467      30.848570959254531     -2.6806249715497543
  3817   1       36.19530002518529     -2.2771549954232442      54.620362576153759
  3818   1      21.956415079462339      30.884570337814022       12.59478004705865
  3819   1      36.198615566753084      4.2661867264217861      9.4488617246945026
  3820   1      34.169730694167747      47.099565444903689      39.405617362914093
  3821   1      3.0839258112442778      47.707077561486045      32.059850484237018
  3822   1      26.225823809840108      11.709575416140714      6.4187700628847626
  3823   1      53.585723424841085      20.294261143478892       23.48137610044196
  3824   1      41.366528756647703     0.85674937009028251      22.744403890411991
  3825   1       14.35775608382961      3.8839926738461474      19.011322106754321
  3826   1     -1.7782242649471367      18.124210129943698      1.2775042585570784
  3827   1      4.3922897376512635      49.408644887021339      6.5576624556820757
  3828   1      17.182561558881389      16.559530244670469       5.310271110633721
  3829   1      15.618229181810914       23.60634182521714      47.518127725394898
  3830   1      38.647587432685178      49.040177620168762      8.2361881241754968
  3831   1     -6.4469920395736331      32.983955325151236     -2.9858209033162506
  3832   1      14.364180433644785      42.416434602278144      29.266926114898315
  3833   1     -3.9035386822186138      25.788832109194558      14.417690762296681
  3834   1      15.644195017727824      17.300959220684813      24.434468748433545
  3835   1      19.963261983484639      17.885681902509578      24.375430126181993
  3836   1      46.458258184901801      34.021476816267089      22.185665704313134
  3837   1      42.660823971538747      35.787309661629429      16.074422855687992
  3838   1      4.0747707532805286      31.688756800537984      47.151558862944505
  3839   1      20.046297612170125      29.545307596879322      15.674241928956764
  3840   1       5.798505232951416      19.380445483876265       29.09939906047693
  3841   1       3.034944808639354      48.411148085423029      -4.700724320658674
  3842   1      32.767985842021737      30.751784328637029      44.513515385438396
  3843   1       7.209778080072379      16.480475816617169      5.0270075710818753
  3844   1      6.8279355610306647      2.7663687271820758      7.7469218699506737
  3845   1      48.639635549719657      49.625050026438323      46.521620014604423
  3846   1      59.748635542380036      13.652553251138926      28.242537174016036
  3847   1      8.0354998127064317     -2.6390220578778685      23.394056501488851
  3848   1      18.678146466387496      27.510147234661034     -11.507632378156472
  3849   1      29.486398450124032      10.747734740824068      22.697982627061258
  3850   1      16.416062543734451      -14.68399153527049      9.1940929501837036
  3851   1      53.341314425109019      24.031896692249166      10.568639428361463
  3852   1     -3.5410145584576171     -7.1536111456581244      57.371125037846468
  3853   1      19.197772702632005      16.284974012752023      60.369548745957779
  3854   1      4.3463158175037018      9.1385259764918434     -9.5345465790860899
  3855   1      41.782398079698567      3.1789864197596365      32.674291367625706
  3856   1      3.9897881787018616      15.881472304350536      48.019020025171358
  3857   1      52.009653022273106      40.789012540839771      14.563731289738968
  3858   1      17.415576377261353       28.92050906434892      4.9209940703541326
  3859   1      26.123501213789808      6.6464772567213464      25.511228464615492
  3860   1      27.831288877839768      19.464623857151228       26.60761781410827
  3861   1      30.044212148446626      52.413746474508955      36.572035430382499
  3862   1      20.759596952254142      7.3659402094674942       28.26826900167702
  3863   1      31.428343047649566      32.326064618772605      26.538634651897723
  3864   1      1.1514353265882038      22.438714938759148      41.364445654979214
  3865   1      1.4288086863847269      39.974312138448667     -2.3809857443756108
  3866   1       25.51827706751731      41.165679409992549       11.87622390712318
  3867   1      17.818964185037775      1.8810265359660063      6.0997877011573776
  3868   1      34.557568123697877      29.458125737787871      30.341011523336594
  3869   1      9.2947345792514611      42.795648614693498      13.548017177112676
  3870   1       50.43606935320723       39.85635314513398      28.614454694309277
  3871   1      21.197014100631673     -4.4677020129736613      15.943690883630667
  3872   1      15.674033340250087      38.849281705085005      56.906923581287472
  3873   1      26.966494997437525      20.516941705921713      10.256089992111779
  3874   1      40.527480362281715      30.998930800034316      38.556645839880986
  3875   1     -20.845172619837271      54.505719271442061     -9.6671378294569763
  3876   1      37.410339611150249      10.161171018339584      26.761105895596025
  3877   1     -2.9495517854269604      35.026420183300154      18.385475387603723
  3878   1      30.065925156834531      22.134877355634643       47.86149143434082
  3879   1      38.196094751230461      12.440598543255822      37.186302447282934
  3880   1      13.093537298283611       16.21378433042819      29.691634646855313
  3881   1       18.27163860797576      45.008364256560178      35.910194610551493
  3882   1      11.669130015193497       15.97927231867653       57.91661480220607
  3883   1      42.884074720769057      13.743457284274887      17.487947403987665
  3884   1       13.48091654249075      11.873809825260633      8.0091013661805892
  3885   1      10.934958350880351      37.853810375645587      32.753033311114997
  3886   1     -19.282184046035699      33.563547910107005      34.136527409788052
  3887   1      37.015839492808908      44.786071692845368      27.124456227961904
  3888   1      6.1807047549657597      28.141356790681069      24.603793156411957
  3889   1      38.231428697925459      14.255208521728266      29.682651376111917
  3890   1     -2.6929927607406539      51.140517783871303     -7.1713791769479265
  3891   1      14.169439630756136      33.795689476126633      39.784929056747998
  3892   1      38.705300040554746      3.7701053454591755      7.3396455127814741
  3893   1      21.146178341393142      16.213309432963747      45.241389535979138
  3894   1      20.701542900035982      33.448969573300708     -1.8536915246980361
  3895   1     -20.264610823672591      37.129902503931113      32.274481696709287
  3896   1      22.750613837304758      21.798416202018252      22.741704057704581
  3897   1     -8.2790974471103294      40.374827541749106      25.865301129693385
  3898   1      20.224139786640542      21.158248590645378      25.111054957335064
  3899   1      30.015351518597477     -18.933436660665929      20.462858845799193
  3900   1      41.899355411699339      16.312381713434785     -17.126443767849025
  3901   1      43.968006828339469      23.384113955591392      16.916278518507962
  3902   1      32.910591484427442      24.626152786536704      38.255723519206661
  3903   1      6.2784450665979783      18.800728470483048     -4.8119664577914074
  3904   1      20.896605188457773      4.5035250631383246      39.655536246017753
  3905   1     -23.782176462512194      28.555180936600944      23.512136514367452
  3906   1      29.752312173512827       53.65541832307597      30.717221501238075
  3907   1      4.7296949789510911     -4.0718537273179773      38.626249609046504
  3908   1      -5.989479719092186      60.990492505592712      -9.807554791144522
  3909   1      8.8738486015013347     -4.3832687030886683      32.945393276577413
  3910   1      38.976489134324041      18.574991605232814      40.165666509563039
  3911   1      7.6755276228901108      40.012072326872222      26.012384402040926
  3912   1      17.302225838245285      13.840125517350232      12.565617078614599
  3913   1      46.757500261684143      39.302300580218485      38.773819000851617
  3914   1       2.776214139376878      43.190858957965517     -2.7366676740813056
  3915   1        41.2136476907787      59.128596938503748      8.8695641277639528
  3916   1      45.184372923722499      16.048788148671452      17.976138696695749
  3917   1      31.552941967326721     -1.4111722572367944      8.9319444785627304
  3918   1      19.530389895927488      33.895435240031595      42.083402102625726
  3919   1      7.0535592839485108     -9.5044288839770132      35.336156402340663
  3920   1      13.908948889368819      28.024373358347997      6.7602436296020416
  3921   1      29.572587108902177       19.29303953082438        20.9946595137678
  3922   1       26.25691653549141      26.452430434574559      35.349506750729937
  3923   1      33.112894423397414      28.197543468429021      42.262198370923798
  3924   1      37.171042968219147      12.587910609439737      5.9566278712307632
  3925   1      7.4417024627382524       16.96394800981037      8.4908443553877557
  3926   1      4.9605865217036511     -3.2845979350223335      7.2346828351824568
  3927   1      37.506011395101211      51.127566751857778      13.612403056223636
  3928   1      11.126029304690306       38.69126954603469      14.288847787290029
  3929   1      20.427551302377136        43.2665903833716      12.695565899089114
  3930   1      6.7504784498834338      30.874571163317295      49.121038627296102
  3931   1      20.092274198140352      17.686891629577527      56.602110093070245
  3932   1      50.596560056760424      28.211455221235362      63.358687782532058
  3933   1      5.0377378692289536      27.053937204810754      13.965173799098995
  3934   1      16.210342088504422      53.663260195605631      7.5309268532370073
  3935   1      36.749938977921637      26.199668359358789      41.550298006284102
  3936   1      44.407648865443299      18.341059622022481       21.12677913635186
  3937   1      57.570242577187159      7.4368325115178546      16.067100013332958
  3938   1      52.742465217050658      16.586513412949984      29.066274129666212
  3939   1     -7.3478074547139336      25.034465516271034      13.729300935482216
  3940   1      45.889160490146566      6.0574793646727052     -6.7652775133530145
  3941   1      11.231199022446164      5.0060324369796589      38.566308041521658
  3942   1      12.785334071591118      45.621989912383725     -15.228122337809218
  3943   1      34.602945266090707      57.754337331281434      33.626449385024578
  3944   1      20.661250594535989      13.427115067258333      12.738413739586063
  3945   1       7.345873738413836      24.090639554937468       39.45007274232227
  3946   1      14.407264052355725      47.957357101347966      14.086858295476761
  3947   1      10.136118280983974      29.391111440131862      58.075241688494245
  3948   1      13.382691853629098      6.8803024552089056     -12.962490893195421
  3949   1      31.162923968137193      30.007150731068151       40.13479253109525
  3950   1     -22.633568214970847       10.29039292790492      32.287121493082878
  3951   1      15.423699739412598      2.5972337375726777      40.946692414730428
  3952   1      12.097102338112082      20.823615560511424     -5.8959141040972254
  3953   1      11.217786411645548      31.542323637237754      17.186719579032076
  3954   1       28.06196813876636     -14.043222164566536      2.8123602501392977
  3955   1      40.155496470020353      23.261965913583388       16.97181714523747
  3956   1      55.738511588519486      3.9522411972010234      23.050977570193371
  3957   1      33.314632850674265      40.573887982114535      42.327258607930425
  3958   1      38.883260420529062      8.3075206202396661      7.8179761305310391
  3959   1      49.233438324364769     -10.217517044521422      15.581672516750903
  3960   1     0.61344837707013011      15.889906397525429       2.225503796914265
  3961   1      17.771728908965944     -1.0388556994166589      23.117583440131163
  3962   1     -11.596046465921781      6.2142785302342771     -5.7162616443192045
  3963   1      30.124213823168915       17.76539577721427      24.134520911677658
  3964   1      34.038310557930537     0.76388790785552507      14.686854493483994
  3965   1      19.901707912693162      6.0112140748709875      34.092957263072172
  3966   1      27.169850713227909      43.505560774392947       37.09936616148822
  3967   1      27.623467592122143      4.5763435207285612      16.006222835019305
  3968   1     -9.1381839122444042       31.79319492234459     -5.6380607360145207
  3969   1      40.367995092930855      29.216516410376492      20.299813516681834
  3970   1      33.047220095699657      17.004822390393691      35.756593681396566
  3971   1      35.445516146242106     -3.4702450266841089       12.51603763298111
  3972   1      39.995263432340536      41.932459937608058      53.259432381838863
  3973   1      37.610289173617531       11.23020472281936      -17.46531778205356
  3974   1      27.978619785939788      26.222859513479463      42.666133254375545
  3975   1      13.501403181464926        38.1500435527078      34.937926264561966
  3976   1      7.3652940787175005      29.868797318027848      28.219162984979974
  3977   1      32.470913738445915      32.226894514347869      34.324273210847728
  3978   1      27.869449436686956      14.166292696005822      49.630520288683158
  3979   1     -7.7147001855066168      49.332905452917949      36.356406732703924
  3980   1     -3.8337237095076158       43.78550671321667      42.900983148638481
  3981   1     -6.9037993056266975      44.162893306255967     -18.748197827257911
  3982   1      28.849999194922912      4.7199205223842373      24.798831676318613
  3983   1     -10.088063455712517      49.211269391969857      31.294272169364461
  3984   1      17.744772753855237      25.658701108281146      26.576476198642482
  3985   1     0.78904938496056354      50.408058712371805      5.4997118248662291
  3986   1      42.826915807293481      53.129547200146604      6.9853857430896404
  3987   1      10.040651421059996      5.6919713601065469      6.7348552149922982
  3988   1      20.560402635823859      28.940539045389464      2.3167299604542571
  3989   1      6.1932338660702326      21.961228219951078      44.027869266326277
  3990   1      40.200811808985662     -2.5498095636844162      27.921818544316942
  3991   1      8.4042329580184898      1.5896299870139969      39.982444805418659
  3992   1      27.133702311549801      6.6157225515504781      31.292751683702392
  3993   1      6.9834722563985938      66.804763887371763      1.8365946277496878
  3994   1      3.8018088750014352       34.31103041155842      25.060328600331623
  3995   1     -11.815729829907221      4.7772757701845814      32.055971579641962
  3996   1      11.841939898694337      21.151389972640647      53.331675128061661
  3997   1     -5.4634129219067056      36.382132054729659      46.349532457965836
  3998   1     -10.358590896441198      45.323405771116335      56.772727974610639
  3999   1      41.346210577735611      30.561023779365506      8.1211113146722838
  4000   1      5.4662456604931329      16.052771601134925      35.334853835967635
  4001   1      25.579940903415952      11.348125995062512     -7.7319946735089413
  4002   1      46.248933172485017      9.6931937933387164      43.765485674077254
  4003   1      31.553495814074594      8.7158940815493704     -1.0462493691691197
  4004   1      30.790770644249925      8.7442926228814635      32.582294809263828
