(written by ASE)

4004 atoms
4 atom types

0.0      48.780000000000001  xlo xhi
0.0      48.780000000000001  ylo yhi
0.0      48.780000000000001  zlo zhi

Atoms # atomic

     1   2      7.4486612195871151     -3.1231172109161287      32.339037871705536
     2   2      6.6820770068889219      33.246968129418299      6.7276094869724652
     3   2      21.922053591566339       8.901542946562639      6.1276771333732372
     4   2      38.109619419036143      29.792657526910368      33.851553379854387
     5   2      11.569976816453952      3.8189883167312257        23.9609243478005
     6   2      42.251877174583917      37.840993020440884      42.641664320741953
     7   2      20.725968721174489        30.3061521482926      11.066520077994909
     8   2      39.967800538790094      37.668088646392334      34.712940754094419
     9   2       19.06568064698212       23.12936274078454      40.359441635021852
    10   2      8.6031251835137663      2.7679834124469194      43.612893891189927
    11   2      45.363903939072642      37.993809871166413      27.781963440037391
    12   2     0.88122363647077784      17.167953728693824      32.309766549570334
    13   2      20.794971470482182      32.425567913708043      6.8753370913273892
    14   2      21.558069772246927      20.663380427121009      20.474081916001172
    15   2       1.565580287156374      11.733621989607624      24.695251139450228
    16   2      33.172260880333027      15.405308264247694      32.057281199108374
    17   2      36.834309198898829      35.894092484421741      32.105951518493143
    18   2      5.2172320624708366      26.746279193767315      4.6390684576396302
    19   2      39.975999606711198      26.347269773783179      37.518129054677338
    20   2       20.05062255457306      23.151827762692264       17.00812664210396
    21   2       26.02645592484658      45.365037937578755      8.7455864576012203
    22   2      16.400649398233625      10.899172132988708      32.805101182284545
    23   2      48.664822622246113      39.018871569454845      25.632659079554927
    24   2      30.525464529156871      33.127295659755404      33.232595029071753
    25   2      10.763742476660106      34.155992696736377      12.946722976049443
    26   2      36.119746370632505      27.159840709330339      32.257441703255971
    27   2      35.833113992651526      26.392154629894694      3.3455660792635928
    28   2      17.025299227051203      34.486780135140883      15.613596195869889
    29   2      16.829655669609075      38.689574570829123     0.35645258684802422
    30   2      6.8356819598823693      36.556631076951945      7.8774174962752745
    31   2      11.315845967397712      14.567837448223949      9.9578945335502258
    32   2      30.833839680917823      36.250166385952234      5.6152421357465299
    33   2     -1.8126357351264815      16.847096822741463       6.178312689236912
    34   2       40.14135493201664      23.692722769328768      11.311496954547081
    35   2      22.159153430236298      45.830788387754644      30.428029199561799
    36   2      17.438307013747618      12.324037170197261      19.169803679183435
    37   2      27.769705961192571    -0.72183458912999676      20.539732655912335
    38   2      45.724653767375194      35.194649172329569      17.233318699851051
    39   2      10.042248620927188      27.477693428729225       34.13500049501517
    40   2      6.0444300216905953      47.748398354187671     0.19717302453575583
    41   2      20.748738236732777       43.20678765063176       32.94879823177979
    42   2      18.337339178865136      17.086215865628805    -0.48053485002972579
    43   2      21.993673445792876      14.897952965343292      32.622168994654544
    44   2      23.351773935819999      19.250657242906591      17.906068514073432
    45   2      41.785842734211514      38.303165777400238      13.262886205180738
    46   2     -0.8504675414322912        11.7449153539146       42.98911297658131
    47   2      38.151017037739265       23.93226656735391      33.193201835380897
    48   2      25.015503466760808      11.625894877982722      4.7546059647625087
    49   2      29.116834567476847      22.444956088028487      44.443314207450662
    50   2      6.6747588801141182      24.920357290150122        26.0305227323434
    51   2      25.735657445595098      29.137742439843123      28.443405698880586
    52   2      11.915183987135254      24.017388483342128      44.115039894344818
    53   2      47.145201989267292      21.283288813167118      7.2349196671516776
    54   2      18.898528062802509      34.122986701082688      2.1438415643073632
    55   2      37.414230364505855      32.671015263636193      26.484585321975068
    56   2      11.045828399210512      26.358528903026901      8.8418052120795121
    57   2      3.2479270138764913      1.2899303816070151       36.16102788803574
    58   2      44.163409105297177      23.681375945364078      5.3838425205629505
    59   2      46.499058247602456      27.457564547156043      4.4010921589621788
    60   2      46.209149189262988      39.972017766461043      1.0549960947692718
    61   2    -0.22582730286631697      7.8361469695107582      31.882759409430317
    62   2      26.397041886385146        26.0777750724342      39.160073607648897
    63   2      24.088353892974681      9.8640653024634144      9.9810072714636302
    64   2      30.391208146282747      46.409529828428077      27.536329732649499
    65   2      1.2993022384541368      4.3200519003034126      28.100197038061157
    66   2      42.587137032807277      1.3177847731114021      19.909550569336037
    67   2      37.947604091880528      2.5708518986320485      21.382010197655436
    68   2      34.475499631349209      46.954756308982873      25.856189178851299
    69   2       6.431528917174024  0.00050198716969047377      44.410349009052773
    70   2      29.393156668559648      19.118051838171858      42.006088493472099
    71   2      40.571453128928638      41.897912477023191      41.728945653813255
    72   2      25.179386852851653      26.183217611490821      20.544818909316486
    73   2      19.090934322451432      49.009100830215743      11.893443738362382
    74   2      30.044777970387027      22.322455933527188      40.919799563663581
    75   2      32.881543731731831      12.549916147587572      21.322942434518467
    76   2      28.977342761764376      27.423645140200417      12.308855107193242
    77   2      25.384918760719774      23.082514777349189       22.08490460915505
    78   2      28.768500947945043      44.299705461426868      35.456182862164923
    79   2      11.585578869569069      44.841698283266446      33.711349739922497
    80   2      42.193719810035724      14.876235063703298      16.923488869906453
    81   2      6.7485873780621377      13.323242835265205      32.140629754326255
    82   2      38.769157817743391      33.437188407148568       34.17371529300857
    83   2       29.37767818824917      17.637298222087619      32.355685635170822
    84   2      43.679125404944784      28.347760668272439       20.87953263309748
    85   2     -1.3988669106977676      26.097454513668179      25.746149781076692
    86   2      34.966013487250642      5.2310725271113157      30.193809366847365
    87   2      35.201636955447661      40.864763513048395      27.252869822578823
    88   2      39.536169613051435       45.15560557132104      38.872290078743674
    89   2      39.258107789125013      30.492102412600609       1.719299491929323
    90   2       28.91688375106591       18.01477078198862      3.6586507761458993
    91   2      34.391037463913108      42.009270842994816      13.437727378641862
    92   2      28.963927112048054      27.517318761901127      1.3208775047385535
    93   2      14.417944094086783      39.348516776060805      30.376757887808203
    94   2      14.523672303496925      9.5250881504152716      38.407192915894449
    95   2      24.950855896142677      37.190408681285874      38.311990252701257
    96   2       4.068881134907997      33.348466040336312       17.15689887933328
    97   2      35.663324295804578       20.04114495807093      8.8560153202682663
    98   2       11.95926173776717       4.401691083886627      10.318469900885072
    99   2      26.591601233099269      27.155447868121335      23.764667008087621
   100   2      39.705116305806044      29.437092882508189      8.9007619414656318
   101   2       35.34473991401304      15.004396579418222      27.731575205672112
   102   2      38.307211305012679      22.059286488533999      18.006137430208707
   103   2      40.920329688782289      7.7854334259523998      4.8833281067489356
   104   2      3.9825233676261087      5.7250834095680379      29.649163979218443
   105   2      14.247333371400915       25.32308905812851      31.336077625441586
   106   2      30.539109865684313      8.8475791076138535      20.767071981016862
   107   2      45.145518955388589      31.231146354910113      18.009684166590461
   108   2      21.808290786756821      2.7495749655847104      27.452091176898808
   109   2      23.425901243386004      29.559802492438607      7.5827846838746069
   110   2      39.869669114925166      22.769857267387465      38.029344056679456
   111   2      15.228701752925973      19.033429333175043      3.2389025872345028
   112   2      32.288157508709496      16.026259905099867      24.543655732719959
   113   2      42.105371748865657      23.720737117460352      45.750463340160977
   114   2      38.758673864875405      26.189813391158076       21.17382983829858
   115   2      10.766060087557699      37.320050837881858      32.480753736373089
   116   2      43.366147313638479      38.732718769611537      3.2325538008671346
   117   2     -4.0605658562371323      8.8617353361585423      29.543681158790065
   118   2      8.4027939167706123      17.197160079159204      30.726943350937677
   119   2        40.6906011459862      31.919834605794779      6.1949394116415286
   120   2      46.555293290602087      41.522826175480049      23.925718326506061
   121   2      30.627612131214487      20.336911084847582      16.248447745507459
   122   2      46.314583329957266      47.773685713055372       42.32488061382503
   123   2      35.038678746054998       28.22773115474908      37.252777265695975
   124   2      9.4736618931899326      9.9570286664932457      34.133645805860397
   125   2      8.0910504494428661      8.6011289399037061      23.773866177275607
   126   2     -2.5413859905716492      18.416479209537094      10.196670944948453
   127   2       1.595463575268655    -0.12080351708043192      23.368949564224994
   128   2      21.083274077098377      15.540616002006844      1.5549784777794409
   129   2      18.073014362782565     0.72145262753278205      17.927622383169332
   130   2      1.4713927317465483      24.150943911740207      1.7891939863494799
   131   2      45.779398813558323      37.958516072839529      24.245467047796176
   132   2      13.088852304636044      1.9861870395541585      17.412004111271468
   133   2      26.432379135332017      30.763009882573527      20.202018996113843
   134   2      26.088913285785843      43.963153695934885       41.43826843904484
   135   2      46.779973640373235      5.5720777843000366      38.990040723525482
   136   2      28.991824297802758      25.790952558762228       -2.65850929000108
   137   2      4.9771860917336141      16.507512375623953      29.850543804198889
   138   2       33.84603082115072      21.696324641719354      15.329817432629531
   139   2      39.200316356807718       28.39859212449678      25.873617507652249
   140   2      32.898614057555669      37.631321960284893      11.912333943545937
   141   2      39.721659189702272      36.308739679210227      5.4519506089505052
   142   2      41.287934041910631      12.011435841888924      13.998434300213722
   143   2     -2.5304000019292343      14.724370473114206      35.169144985154638
   144   2      41.912152070711976      34.842832871233568      9.6055474514363013
   145   2      45.798001305059294      9.4381763247108701      26.107856955674972
   146   2      25.296629558055496      42.594449860116846      21.568032089216107
   147   2      11.147034963665963        18.6439622740901      24.692703122909148
   148   2      45.163636157705248      40.907061006017699      31.106610996994263
   149   2      5.9146449884052315      30.474614224072837       4.641255905874516
   150   2      27.459854290541028      37.765737771559976      29.481503054306526
   151   2      44.676702459011629      2.9351413762942578      45.022172955582306
   152   2      33.311820552763457      13.501671589256539      11.693907741946036
   153   2       4.023628280588567      1.7754284120638308      13.658566143736039
   154   2      36.504223125440049      32.972023848790215      38.194307258163605
   155   2      22.549811430517597      5.8806267959454583      47.251758321722605
   156   2      2.3309832927711995      5.1826578030338748      15.336884073348362
   157   2      35.151422855207088      32.116581736078139      16.054680775292365
   158   2      15.285854168375378      17.267985453023094      33.074652188323348
   159   2       4.767043143810195       7.669341393718204      23.995742117539645
   160   2      21.890138453640219       33.69204036288258      10.416889990375333
   161   2      41.451284965455578      23.413659456528421       18.93602134553246
   162   2        34.0742541944904      4.9722073335999664      20.345058414902429
   163   2      13.228428300492055      10.727471065616498      34.539393757714386
   164   2      11.157747691504074       3.921725699400306      -2.256189476668887
   165   2      43.865076692781614      9.8565300736208457      16.929157105899304
   166   2      37.317952933582596     -1.6596736663403564      22.726151647609502
   167   2      13.552502198999893      40.650697148946179      33.978612411915741
   168   2      38.323688036445482      13.021868080825401       43.53067664755531
   169   2      24.304558272357816     -0.3827551339251386      7.2739989038013224
   170   2      35.223094619581225     0.32422819938300035      21.534622655964142
   171   2       4.131613066123526      16.786918788845959      43.497837335211592
   172   2      22.209050189041314      8.3030739754741649      31.067391289366398
   173   2      38.001620627997227      1.2500483264591724      42.988026029583331
   174   2      18.885449082680609      28.223931177026852        42.7768304626576
   175   2       28.89829071469557      27.212731840188678      43.067038435872341
   176   2      31.193922668026115      30.543411723057787      47.042530530968008
   177   2      29.260414381901825     -1.6327890796656306       8.828456958019812
   178   2      5.8380635024318375      18.202765292064381      27.012382898348697
   179   2       27.28387191296806      24.292032392905856      42.182109248146119
   180   2      44.853478782203958      1.1409081901915135       6.111544629145035
   181   2      2.8986657788413077      39.066072405087759      27.436969580133827
   182   2       11.27619695515785      24.444395811391985      29.551773493767183
   183   2      19.175580209387132       31.08421806454762      37.680723197282816
   184   2       34.66738711307508       18.50348749062487      13.135477946217724
   185   2      10.710085709732216      9.2261484586912612      37.867134356324122
   186   2      31.597955073881025      4.4712717157319304      31.026961887225355
   187   2      41.306364277003489      19.661200726149925      18.430032491950719
   188   2      11.545728677308315      16.101557329410497     -1.7389036107866185
   189   2      42.800255718984829      32.364701308354284      2.5062925544723891
   190   2      1.2589387024267715      19.249044699338466      39.611102108109563
   191   2      14.681943494299254      25.992465533117308      35.126569006125855
   192   2      6.0530452478515757      3.4979535950739642      46.144580164209081
   193   2      5.4400416878774029      4.0305119259421769      16.238283666654642
   194   2      9.8122687638719146      31.345915997274883        5.92902049974745
   195   2      45.634153501919592      41.343212223667351      36.275086179644141
   196   2      33.781047563920751      49.448695929748645      29.586688673309556
   197   2      8.7087294726680931      14.208736495320947      18.922455519507448
   198   2      4.1840692172922349      4.3659283499467723      38.057866908308412
   199   2      3.0652003902674418      5.6628382858432795      20.542227009010258
   200   2      5.6935794677420191      18.281897992052031      13.198324838745505
   201   2      9.3122716451633067      16.318203986496023      21.429770754157069
   202   2      29.363482606775694      1.1950754069797738      4.5334776738440761
   203   2      39.138862290554236      46.444188099694472      41.853400673672382
   204   2      43.850793692251443      2.6194202036389611      38.809611715361342
   205   2      29.839863479558474       5.930451996670703      5.6431085816607318
   206   2      32.680089522833519      10.597739354158149       17.53242066877311
   207   2      2.5600516697802442      5.9371697034952327     -1.5337835592137405
   208   2      3.8050204675887755      26.118087410843199      25.374272239436362
   209   2      7.2293551679079382      43.684819336999517       36.20289517198762
   210   2      16.513629636144554      42.330089231885133      31.867084562279508
   211   2      40.149238253180428      29.906276143690523      30.369748679142223
   212   2      12.581895833152238      48.716860175144923      27.194630113517867
   213   2      26.653194406001404      4.6290642310110215      1.3638862794435009
   214   2      24.637730513105641      24.312462474837819      36.471582518736163
   215   2      4.6533276945053794      42.672647712851941      28.591327552553331
   216   2      17.491761095136688      35.599505823727362      20.604767236378727
   217   2       31.27050366312973      42.454990236704425      7.4456933145547355
   218   2     0.40420784357117984      41.015708340548926      8.3494263172130498
   219   2      29.776829169458793      35.400737658177277      13.039638526428099
   220   2      9.4296144995701017      23.616353797875451      7.2075287504042223
   221   2      18.756229250545029     -7.4619093392375886      46.806719066777575
   222   2      26.808034448097995      21.828402258443184      39.548796243133722
   223   2      30.428745841319081      23.085315316571201      48.363071798538037
   224   2      22.732720696979722      45.643949645151579      10.205112286942176
   225   2      28.316180595708968      24.009199656611578      18.320525668423294
   226   2      29.682277512875963      32.462324185440451      16.593975243045072
   227   2      18.994004066831248      26.915034239057924      18.603129000771631
   228   2      41.642353332348478       29.72079678155697      33.513658840022728
   229   2      44.903743104348706      43.142471343537643      19.637333071899832
   230   2      36.779169061368655      29.564926494428811      28.606641232086616
   231   2      18.225120047051288      19.811116682551237      42.976793801291741
   232   2      23.894021594042268      36.349630921401065      49.866419549415802
   233   2      15.460559887423676     -1.4716798595609093       19.46100284770084
   234   2      46.777600768121751      31.584529534329448      41.431430148222496
   235   2      8.6250214977086284      27.273517810939246      3.4817937014702194
   236   2      35.717295945903302      11.140818247725528       23.89373827562369
   237   2      35.118756682925202      31.329001776417805      34.516059480237224
   238   2      10.454845113025691      48.550537076707556      44.573622686393193
   239   2      32.488204417197025      28.765673720520063      2.6219340620791081
   240   2      44.216347478681342      11.311055167749181       44.34017154845921
   241   2      41.649841962549026      16.192879042155749      43.575398021627372
   242   2      11.488900726441697      9.3705951955402966      15.632751193427795
   243   2      20.101122139975974      43.959221424960127      25.808283540765217
   244   2      44.316924784980294       31.16248002211838      7.7239030050510422
   245   2      25.534176498494524      39.742455502880169      49.380348952881981
   246   2      25.738665169302571      7.1142434615260832      8.1287808217730806
   247   2      48.296380171346101    -0.13890066983032756      15.082311309970439
   248   2     0.74697645163474857      17.100860291312063       8.678294356612879
   249   2      8.9799713631862321      45.437718211696875     -1.8266013442417917
   250   2      25.589767431481942      6.9926311809975887      31.481708209288037
   251   2      8.5280306575534617        2.22836803796686      24.474266449458646
   252   2      23.012823267712722      10.593041919825851      42.866435079913444
   253   2      6.4873895122981331      14.414128096845458       40.86184704976197
   254   2      22.613307950400831      34.977902667113874      22.742675268871739
   255   2      20.452904915233859      12.924112466891376      23.704074159553763
   256   2      15.441147516439315      19.530183163534915      10.569673009622091
   257   2      21.884081610841502      38.193657131938203      21.503097866096791
   258   2      36.042372454056746       39.52058228466035      21.479383316114827
   259   2       28.61111154341458      31.168514784411439   -0.065748854461990677
   260   2      25.973406782813118      2.6970802747893678      44.531001088267956
   261   2      22.777932184189936      4.6445593565102632      2.0084878942497291
   262   2      3.6802009774042399      41.112609620346774      32.199252168779189
   263   2      1.8993510300769412      30.781103780721601      3.3127836785790423
   264   2       44.63950484211594        24.8290025098283      42.323725470123939
   265   2      28.921866191750404      32.463532400341876      44.733053432961761
   266   2      8.3365057848471693      34.304644048658822       10.63014105042166
   267   2      17.080127321171329      35.758165217831717     -1.8447689296860517
   268   2      18.364890747095501      19.209412272990917      33.127803423855397
   269   2      16.126565439514451      44.263789816459791      24.761601167008184
   270   2      1.1559023116489915      42.571017653335431      15.032409317665058
   271   2       26.47892779370898       21.04398159926097      18.351429854028176
   272   2      5.9871306866356537      2.8920159423111222      3.6822321724727538
   273   2      42.324049519085953      -1.372378145052245       40.08183614862368
   274   2      40.096781796628399      14.079858098990391      38.366542414555916
   275   2    -0.17099631862777859      17.939040702897714      35.563219149984896
   276   2      23.024785285623675      24.304369926859685       18.25943378831677
   277   2      26.757534818300662    -0.44741151491235276      34.751085374471117
   278   2      44.747361013048447      12.649323308329047      18.158299802877139
   279   2       34.05730161066456      37.657185056574832      31.579968781031567
   280   2      42.238352785808253      40.776149826708291     0.97376519782390891
   281   2      7.3387945394380063      34.906446417966123      1.9392006729926206
   282   2      25.564610356810796      7.1948924068629863      4.6202681846559663
   283   2      22.495284342149226      4.6068177440326901      5.7720919405673525
   284   2      4.7903368479686144      7.6515588635161729      12.176722981439008
   285   2      15.327790684898961      2.2945034681984158      10.467909187273685
   286   2      13.032719807567684      4.6900576026262435      1.4457264719114682
   287   2      33.575277580130503       12.17481721737162      8.2466885825111618
   288   2      8.8864697385185973       38.64925172956201      35.437065026818466
   289   2      27.300092810381802      13.137660324227069      42.156608724342945
   290   2      35.686429235970088      3.0163923237171222     0.80404233311617734
   291   2      37.933987248585048      37.901755942223133      25.715988827041148
   292   2      18.185436356667395      9.1051892013815028      1.6361083889055377
   293   2    -0.72072036016328511      23.364522509365521      41.568434152305926
   294   2      1.7304361017691874      8.0864380613461044      13.847252345704675
   295   2     0.49702886955832587      28.449283760729347      36.475210494978811
   296   2      40.700123484479157      4.1977909796525745      43.504224514954494
   297   2      19.256216089387834      42.095645905622376      2.9089962597053955
   298   2      27.208608312731357      35.354757894452909     0.56952297667893803
   299   2      28.212883616408533    -0.52076313553383202      31.177470392684643
   300   2      20.149659124300477       11.92198869313069      3.7687397442395785
   301   2      18.251451783348497    -0.37947101729942662      26.381317428718795
   302   2      26.853408089603548      46.791855261791277      5.1141689129127128
   303   2      9.5271803662601915        12.8045413770447    -0.88764878903907785
   304   2     0.34813225282689247      8.0942125817226724      40.403362251360015
   305   2      17.072377997456492      24.975762380422516      43.566284306189992
   306   2       32.89676918638115      12.109878977866099      34.486019743735383
   307   2      47.173063076715692      42.135076895448989      27.520036091439795
   308   2      3.1454184100701252       26.09933735662624      35.588391847657284
   309   2      7.0342251245951282      8.7708397335041699      40.469193128484278
   310   2       44.12592107417283      6.6353787525470453      36.492533245196931
   311   2      24.917005055698151      12.435006654006763      46.728600145514982
   312   2      2.3482935071025413      44.327710419697915      21.171299739768756
   313   2      7.5599662203533935      16.403587654816839     -1.9294809579961405
   314   2      36.434385118084151      24.719510153832879      15.238870286983438
   315   2       21.03065490696688      26.488950836947005      14.520439012736215
   316   2      46.532902045346404       27.68290621679953      7.8630712342240363
   317   2      25.178622653278143      8.9503920804320956      27.645896046145133
   318   2      23.624241437828129      30.456317313238699      13.625058673836111
   319   2       46.73188943491725      48.073247180834748      19.240078428387239
   320   2      10.928675422854461      14.083084701159642      15.025123039900517
   321   2      48.066005794543472      44.167094759546231      30.837901038129946
   322   2      43.148140886019007      43.026738325724935      45.881180862540312
   323   2      4.2108319072056446      10.839773783148251      39.875749915648505
   324   2      16.801540116467589      31.205962609378179      32.967583393038026
   325   2      37.593686186819106      32.435746475610195      30.923644953582009
   326   2      40.932537555727343      20.591933647773541      43.355957891971777
   327   2      35.063990295800799      34.558660477132626      42.074581970656546
   328   2      29.832748685873113      14.768736110548199      33.745793794193375
   329   2      40.484900821016559      18.722272742650166      39.492896089308864
   330   2      30.811711391729613      16.984418064769041      13.957986243028381
   331   2      41.601252986434943      46.758700152185042      17.843912328850138
   332   2      5.6747849646483903      39.102662334888151    0.034272870418734495
   333   2      24.208855316965135        2.31042490629858      31.560710823066668
   334   2      23.174384039591416      41.159454055288698      18.948568043189859
   335   2      22.744083562017767      10.483323277889843       36.88803292321883
   336   2      9.9857889545890899      12.507908761851041      4.3371106785226328
   337   2      29.053573061406702      45.834603003095062      18.262054907635452
   338   2      16.289658274284371      27.368155482663273      15.938025828292769
   339   2      10.304772188898822      10.281104619245953      41.533342784089015
   340   2      25.644589628778458      42.039934630505734      45.101630379616751
   341   2      16.671393652929144      22.519580152671718      5.8266914203395208
   342   2      20.235534135045135       16.53487527492576      15.415385551557685
   343   2      9.2564475639971526      30.304115424335258      19.281475660850177
   344   2      34.441295320011804        19.9220302831677   0.0048035407787718302
   345   2      19.454929035362966       47.35020335003081      36.469747535519851
   346   2      6.7657499803114751      30.474072458740036     0.71748856880123346
   347   2      3.4937171462534784      35.029621883094421    -0.10476153330140026
   348   2      40.922499925948344      45.636875147782284      13.580605657521875
   349   2      35.499477690823966       30.54524222761566     0.41340181897491413
   350   2      22.908186944409433     -4.2583230107432648      39.645529471733354
   351   2      30.342104591106516      37.501752120573023      8.8871901138359704
   352   2      10.317804816425692      3.0444857197335518      27.078784119112267
   353   2      11.554241941217976      25.435841970837629      37.503846322634317
   354   2      43.422144292286582      16.909045441194095      29.957029729615957
   355   2      32.712087138459545      8.5725242150239875      33.054777992574579
   356   2      5.2866541344310845      40.249590972882451      9.1440665760885622
   357   2      40.261793791635313      26.420489673798006      33.470655945130481
   358   2       1.562016318336819      30.672329711625004      42.356727231448744
   359   2     0.81987946189164496      14.584485760126864      21.117895088823431
   360   2      30.485301810363708      30.358173564007259      9.1501399457224739
   361   2      27.741177297045432      9.9667409445439841      7.6113671820508602
   362   2       7.850490534158741      6.5668482462059128      43.969130992564416
   363   2      28.932959324580043      17.080428539925485      24.323648274591648
   364   2      25.172677268811679      46.316055198324904      36.868700121812601
   365   2      48.470991964724014      1.6544410352899193      43.617523367179452
   366   2      37.745530152047095       33.48956052235026      7.7635281775452984
   367   2      46.596020597404404      19.066672359257133      33.096047629785204
   368   2      46.233999634105786      13.421884052980564      27.848654051665967
   369   2      50.588407540867109      20.499181456760653     0.50782184104072658
   370   2      6.8780652811694019      20.787409136407607      22.402472867370118
   371   2    -0.62254789387232834      32.776768186931385      18.405040031618057
   372   2      15.064780849619083      44.421369423246709      34.739101190125176
   373   2      17.052474755377311      27.500200269567522      39.700862204886853
   374   2       43.50283972692214      30.838512041887348       11.06340153760476
   375   2      37.473962846914183      27.965242182997962      0.5394657980876405
   376   2      8.6735756135098558      41.522696275545655      38.738731183534973
   377   2       27.27936897704609      39.604623664251349      7.7217267403516265
   378   2      12.618006555562108      24.433510752305317      23.045087663777668
   379   2      27.652417727396756      38.073895802502832      4.1125615551653132
   380   2      29.582413200668128      38.481634317363039      11.769133735179093
   381   2      21.908299110002726    -0.70847619750145174       14.87097479418428
   382   2      37.983847225223933      14.077360710361402       21.24379161652605
   383   2      34.889951713211985      2.3896052874043003       32.49175937051394
   384   2      11.646918451297347      7.4601037642156065      34.808821667417284
   385   2      43.928279021131289      46.936365859796766      20.946701347802538
   386   2      23.284542916181685      43.241812510906584     0.24405737796107238
   387   2      7.5051226273310299      20.458274020057853      7.5494196534660203
   388   2      5.2248077583724513       32.33856933947699       21.17306838210056
   389   2      27.371723174534786      20.306772947409218      14.733655421914628
   390   2      4.4227053706276953      43.784304155253032      48.795593801830186
   391   2      21.298735233522866       2.955174713636763      17.127472933790862
   392   2      4.0827665287882748       5.286103863465085      43.633939756082235
   393   2      4.8929790739639483        10.2876359737303      13.872215784222336
   394   2      15.404456111578957     -1.3857744869193751      15.930087157713482
   395   2       39.70658499669436    0.023616812831736427      22.078343119050025
   396   2      20.999679842291442      26.971192054816502       40.06257643350024
   397   2      13.285673846516911      27.129682745111324       12.55208430399594
   398   2      29.518883199231094     -1.5606623773683361       14.06870932563932
   399   2      46.643702582392173      5.6282809709854744      33.473124764724275
   400   2      24.749110173808042      17.859483340414723      20.767887013613919
   401   2      46.050042716625946      2.8783089644667115      41.698528630846873
   402   2      8.4042963977130754      16.484177020903548      11.631240688925232
   403   2      7.4618960208629348     -1.7375988229117165      6.9260468027137891
   404   2      16.088135959785106      23.523909243992637      51.106546262298345
   405   2      4.8714975525036168      40.812621693898315      12.925671528595659
   406   2      23.573190020724944      7.3068341466419788       37.19328101972004
   407   2      20.457913281378559      31.622406687029034      15.130295151011293
   408   2      7.0639707029380494      5.7975869998072191      34.172707507977378
   409   2      40.732076438109587      4.8502189801697089        39.5383175955387
   410   2     -1.8626479860770335      36.623273707871277      42.265353068810924
   411   2      20.341470219046844      10.239100292540947      20.450355299716627
   412   2      3.6321189381432033      28.028734192235387      1.8312205468802474
   413   2      39.304808615267859      4.5331670979315701      18.104211190711023
   414   2      7.0351877617757967      45.178100892351708      40.214306972743813
   415   2      2.5609405281657671      10.372586315862865      21.492700804548495
   416   2      28.492858612500946       24.36745219259755      36.624252607183095
   417   2      42.161413345409017      32.781090862700928      19.466402598189358
   418   2      7.5322010809657316      31.897205132312646      29.293337218961913
   419   2      37.923363493782496      3.9292677855294609      5.7579538765621221
   420   2      7.0928658194038725      4.8518920123060347      26.825384573708092
   421   2     -3.0932958502768275      32.550992764581238      21.915067544826961
   422   2    -0.97765253794845186      44.687130754255143      17.962814665361453
   423   2      36.268190359826825      28.854343556991882      7.9163414091820368
   424   2      7.0764406426557382       42.47720212047772      16.632942109356733
   425   2      42.262803366800064      1.2005609106493766      42.093767580223151
   426   2      9.4088229052267724      21.213146065085265      30.257408242644455
   427   2       24.11585152911298      36.725805533753494      28.530293399427322
   428   2      4.8733790960023038       23.07423296937796      13.899623501973982
   429   2      38.147525925112639      32.085060379180334       41.97106838623445
   430   2      28.772557932319042      44.978950842885837      22.727656021836765
   431   2      18.562756757792091     -1.6698578073973973      23.390485565730724
   432   2      25.260253563677377      14.434161085033358      34.312188414443646
   433   2      35.500589564656089      35.472316926052891      35.058009970877507
   434   2      28.255170588404386      21.247973265148001      7.1634650450176078
   435   2      23.225390722057462      48.949056503965807       35.62160298404627
   436   2      23.661428845834067      22.660337911717889       14.61656904420119
   437   2      20.786188660196583      9.8143758433500903      39.517239404522087
   438   2       6.879606806374194      12.208092327678427      44.149137933633121
   439   2      25.331807690763508      46.151216907242969      33.007744970935306
   440   2      17.720929373278832       15.04676331792561      2.9571801567209302
   441   2      30.127393507947936       17.56356704993858      38.722207687884435
   442   2      20.533542199862719      20.168335329397454      40.230522446468825
   443   2      27.699400800723886       20.52873707137983      47.066050221761571
   444   2      13.816569257204016      35.162469362835694      17.470440729925468
   445   2      36.753783017278181      7.1939436521816384      7.2619609991165932
   446   2      22.524723809154203      46.181539242634734      34.874094680650529
   447   2     -2.2836056258323407      5.6695959626367358      29.144874320019944
   448   2      5.4251766794659178      42.012754506399233      39.269853972307139
   449   2      23.186918318489475      45.964956361374107      25.780551009012722
   450   2      16.813909251659297      33.686790044497322      5.2290208801472406
   451   2     0.68564359295629751      11.153288156331904      11.471167768255127
   452   2      20.462843430233157      25.164154991396011      21.654288353730358
   453   2      9.5355418200928348      40.281685053390447      7.6844081480633735
   454   2       27.75981363314812      33.799851926072279      37.771964152402568
   455   2      1.5358164054629631      27.114865179816196      4.3466628876525437
   456   2      3.0517053298622514      33.291970332135548      6.8230376532342882
   457   2      35.533975359540378      36.029475235973955      23.973735905931356
   458   2      44.762948957763946      39.877992403479254      40.012516777532142
   459   2       25.43725263875255      32.612980146435746      17.358602195514017
   460   2      39.882192870718939      22.007630841442396      3.6890689747481771
   461   2      28.846999166482469      42.379286943680412       10.19243785524456
   462   2      27.845863447940488      3.4891889436388506        30.4295299301989
   463   2      38.846243815774919       29.95080903038296       37.49105302403165
   464   2      8.3417227080912859      11.715625858374121      16.187519285964935
   465   2      46.575359716253779      20.179368850751054      41.342801657231838
   466   2      26.118876520826515      35.338431259861458      25.276269519165101
   467   2        20.9860478561497      40.155934349259731     0.42414132597745613
   468   2      5.4705939479153818     -1.6471101586717336      29.447657425567513
   469   2      24.078831097731801     -1.1373965279079137      3.4107271489298574
   470   2      27.676175414891343      33.463337252558269      28.937310101995443
   471   2     -4.7537843620290454      8.9152338121935184      21.524022689994109
   472   2      44.901629175669029       8.561212437128777      4.3733058973824832
   473   2      34.706890250665055      30.587437563304658      12.065700568689751
   474   2      9.0774450830902467    0.075421325322727648       28.47166561656022
   475   2      13.061878437569646      42.284609084692498      31.155033516228084
   476   2       29.40039767495216       34.11650388544021      40.839204176161488
   477   2      38.267502019172639      26.913060436128038      11.957698141326318
   478   2      1.5141946075346726      41.651422058690834      29.109778504895761
   479   2      22.001698037584386      8.7105338378072226      24.823732821170211
   480   2      37.666811594372589      29.741519994179452      4.5482368428423792
   481   2      32.796546027576156      18.541521691678106      41.928926874104661
   482   2      6.6620666892831828      18.766505789280146      19.881905811647265
   483   2      9.9127815346139609      35.042063330280904       4.818325739721578
   484   2      23.493884694827255      29.836636670333792      25.945566933850568
   485   2      31.703903981462346       24.43748063517112      4.0914544958592556
   486   2      7.5805019789751835      13.617847451784364      27.696855796314566
   487   2      5.9949006512219372      28.698853626766113      42.147249106827502
   488   2      33.507310311984597      39.117622909299129      38.879151775529827
   489   2      5.6970132429195379      41.329532109037473      21.011488785447977
   490   2      32.188960779231486        39.4189245579459      24.269777797933571
   491   2      13.682130051535168        30.9350439828014      35.368464595288053
   492   2       11.80304657860064      32.637691470540688      21.055998626929362
   493   2      18.960564153174129       45.29330899423352      11.762990032181536
   494   2      1.1160434097848129      7.6619099456581194      24.096889194559008
   495   2      18.616736233880111      19.691348677350231      2.3270113164391537
   496   2      24.979739717486918       32.62312256576736      2.7850103789406093
   497   2      31.029186625068121       11.13524347987155      10.054330174061409
   498   2      7.2346378599284815      37.399630723339939       40.01649154746255
   499   2      14.300459244477251      9.1870385764434115      22.576102181526593
   500   2      37.588639252160078      26.570455374460856      35.064650080557968
   501   2      3.0688617016358628      12.841412165085496      42.982255118729618
   502   2      36.179388957805422      15.574768988880708      23.616069660142113
   503   2      34.375394204882056      28.875691763379649      24.953466083137311
   504   2      21.991828357998379      28.106460116829695      29.606536008651439
   505   2      38.898748491615578      27.022884054491534      30.923786425055777
   506   2      35.960889482962251      36.649240080313511      28.196444702509563
   507   2      13.600665281440667      26.922637526265358      19.075881664844605
   508   2      44.420048205871758      19.734118416134006      22.336770860037692
   509   2      35.694415835311752      19.955973640054555       44.14377622362251
   510   2      15.369707132300851      20.725429307303301      35.475059046604834
   511   2      36.371606600247134      42.311933969030484      40.087791358574414
   512   2      47.743820185538823      17.711810496090326     -2.0867672257287389
   513   2      39.131410380008909      8.1037441730162136      43.171845613671501
   514   2      43.286377697394727      6.0925473118905531      41.519285858372186
   515   2      2.8440423117659095      7.6788563270845103      17.531529076708988
   516   2      9.6030628234149784      14.896277972130417      44.290003132894398
   517   2      16.714969193465024     -4.4021711704351612      16.730720929302581
   518   2      24.401889360387784      40.579984810236574      30.742539121443357
   519   2      29.140806868451389      8.1405895344940635      50.150264372598436
   520   2      31.335741378682595      37.301880257162729      -1.963844910032738
   521   2      22.282300146415022       23.88273076629174       3.421646517790494
   522   2      37.739585556275983      21.744530910320677      13.461803041389478
   523   2     -1.6131026577911955      10.802006536921352      22.997807762663641
   524   2     -4.2742347754355396      23.362611660092899      21.215942977275439
   525   2       19.22898177967117      12.358564826327582      47.996169947654408
   526   2      12.777024971925991      6.9877004126438722       39.99148007702594
   527   2      26.126999453834738      34.381591317046983      21.403418905624122
   528   2      9.1368946003515035      19.807139940282514      33.163611551716571
   529   2       21.89330284324684      13.928887456353989      6.3441083604933839
   530   2      7.4944389651565517      9.1230568938920449       27.79955181509408
   531   2      41.631888809819358      20.351136932864655      14.876132192951475
   532   2      7.5459533271260346      43.262435188378035      1.4217893842745299
   533   2      16.436500134341536      26.782416224487044      21.315908775185115
   534   2      2.1130519202848874      20.076667288135386      34.564195419745225
   535   2      33.565857296566186      6.4875937985724708      5.2162289203438936
   536   2      23.635442711813401      32.811845517607352      38.215650628842177
   537   2      27.442226857406141      17.240398196326428      35.258816192289558
   538   2      42.954248870347243      43.255434699850788      16.058864513642298
   539   2      3.9098465398619222      1.9515422032917276     -0.2727784910560494
   540   2     -0.1576209437713546      22.216610262660431      13.543634471136937
   541   2      9.5670423512681513      37.311791270978055      12.171323591252882
   542   2      10.054134222146212      20.512004245587168      46.117602481965477
   543   2      19.317041115530806      31.818038783741454      40.968851265395216
   544   2       24.62642868710801      28.182860213945396      42.843391347383502
   545   2      43.065192363817594      27.706853018328463      6.8478073960798183
   546   2      26.711063913074305       10.05650744882977      39.762237777126366
   547   2      34.889191230739051      32.630275864696031      45.600614442245494
   548   2      33.207546261354935      10.261101252497506      13.161890761252257
   549   2      25.357409061659705      47.287065265222026       16.42649736279397
   550   2       20.80060043694408      29.380175534293926      22.112381805588576
   551   2      4.4875470066131271      15.148957014911579      25.170949654323636
   552   2      32.491286499783406      21.987205326934472      45.138680639365148
   553   2      35.070632808078841      18.979895417943432       26.64624598595676
   554   2      22.987820797476481      40.137291020075246      46.388417373710666
   555   2      24.032413563355174      45.933560434381668      13.821570937894908
   556   2      29.353935087480064      20.444028103673226      36.739267044346114
   557   2      38.162821905680893      3.1677980281622622      26.287537334111757
   558   2      24.272716802511763        24.0169373754139      6.9205751170184104
   559   2      20.705761655910994      22.693159652210383      43.034980366491254
   560   2       31.72456815478894      36.875261857395067       36.90210771907595
   561   2      8.1820742141612826      11.439953478345902      12.705463813165379
   562   2      24.729590766520101      40.543987884143874      40.626212235114643
   563   2      26.196275443676402      14.198775453245187      31.009469533680726
   564   2      38.052377319407697      17.548794935013319        42.9504264195565
   565   2      38.249409098999749      38.835638577861658      16.641753520120592
   566   2      13.077972672607201        33.4335893605911       3.931526406528735
   567   2      35.017604666226234      2.3929427072591243      6.7465902301789686
   568   2      -1.636792159063964      33.315879106908554      33.623297316989721
   569   2      38.001805329678227      20.772354346012115      40.957107409239164
   570   2      10.203993810488374      42.041021250662013      34.266483924691428
   571   2      41.888743598232239      5.2725340634320652      20.938961993136072
   572   2      1.6455834606932305      29.780952593700118      6.7983217687838202
   573   4      34.483872799165951      28.556412050721207      17.146234062236321
   574   4      25.464722507472018      34.972862544923593      9.1322269625804289
   575   4      14.636967811732788      26.603490233682134      47.332820958853389
   576   4      8.9882125489204814      5.9573146147081015      39.915973863535839
   577   4      15.014142017901307      19.953829729262768      17.927736594275711
   578   4       17.99564041160318      43.079478081008716      42.151401799969463
   579   4      6.8408547536362772      38.744013298725477      30.593862566335915
   580   4      32.297330077794904      5.5239324393036142      23.928561826510343
   581   4      38.802988317139118      25.002200804869663       42.48136756516098
   582   4      7.9437502762442334      34.682823359040029      19.824353476794165
   583   4      4.2632808669906535      24.063049361849249      46.039900723132767
   584   4      36.799543646049081      6.5892782755133359     -1.7979022845251735
   585   4       37.91862303102581      19.138565940486632      29.688532093447321
   586   4      42.861734152393446      5.3387281462783971      11.146693191240198
   587   4       24.43523349292041      34.515211852223977      44.846885917031166
   588   4      28.970721014432584      32.537150579528522      23.489029643790488
   589   4      26.752627769177849      27.173723582619861      32.775730930355984
   590   4       35.43448894636628      48.803433302891932      11.496674232527557
   591   4      31.998728692998149      30.263921333517338      30.346198232084678
   592   4      39.870038964815947       16.26707797277686      23.740370776300015
   593   4      8.2806575722551141      32.782194108570579      32.805521802310608
   594   4      21.004589889184935     0.69063157283476573      45.012759889122158
   595   4      5.4388486631470707      30.736360113295099      14.297284825945388
   596   4      47.381798610906053      11.341719665632809       15.56807708349573
   597   4      3.2423380467072969      7.0367046458688156      35.424774107225552
   598   4      17.566171034353079      19.425642439016137      16.461570987995529
   599   4      32.842128862002376      26.414758316178784      10.105739893497887
   600   4      13.764194650156542      10.523444170469073      9.7407854051234821
   601   4      40.238309299966105      1.5589249351504693      2.2467109476561111
   602   4    -0.39793570952034796      22.654751193261106      26.765875573463504
   603   4      22.437170010839335      40.590366346005489      12.030860238251217
   604   4      6.4175984230670196      36.981081698783001      32.748813193248282
   605   4      27.603694473617129      31.113338099459057      12.666158601942731
   606   4    -0.11370875589983492      7.7607265955861848      6.2650141638259429
   607   4       39.04533858316573      8.6007895038437621      30.146954019924745
   608   4      39.183167400713813      17.418609478808307       31.64827160030535
   609   4       30.81442580495445      2.8964084683300029      15.181639785123464
   610   4      13.368089546607054      3.7005306608340165      5.3948529308613473
   611   4      4.8058735690257066      37.076709271041949      19.904766689317054
   612   4      15.555178361528535      23.054896550406227      47.164475008398803
   613   4      18.426441387301193      42.796040924163691      39.270363800810799
   614   4      37.614185345264616      7.5236375593764837       20.91038337059852
   615   4        39.0779881489172      43.142341092747827      23.903330678524931
   616   4      28.388667878133585      39.913055449510573      46.981073118462028
   617   4      46.662486842036692      43.449531458584246      39.512219543593126
   618   4      10.559860139380158      33.567110252755043       39.01448318680805
   619   4     0.44577148192461452      36.657266024007534      29.844899913824442
   620   4      11.340079029190751      11.523129501690432      26.029835018420059
   621   4      12.785592879084223      11.561927603126689      -2.138616255193178
   622   4       7.566992500054921      6.3346443013951177      30.025038872581963
   623   4      15.106255861366574      24.285997658193018      26.920730406213885
   624   4      3.0075658970269599      44.238675736075891      31.379634202551792
   625   4      45.518642164676251      14.998541085901625      43.534453550362365
   626   4      15.840220295997744      34.998774926435679      1.7338861773066316
   627   4      26.765064774403371      12.211600669763776      11.330916901941901
   628   4      15.578130403994624      35.642416182289423      37.675049509278892
   629   4      31.910039853515826      11.248923528271673      45.291579032490269
   630   4      42.251566918123515     -1.9616371941360415      6.3787429092880457
   631   4      20.562732722031555      25.726300100094726      35.670543418829631
   632   4      27.518551743256836    -0.37950572814399575      25.164891611683395
   633   4      19.187596002824165       26.04495000078072      3.5174572499523826
   634   4      32.294474167723088      42.925504909389595      34.755107146903718
   635   4      14.657782958614925      15.337175840048422      25.052639262014804
   636   4      4.7235670453575915      16.735495599703892      34.334118782865787
   637   4      13.991086454761405      21.406593746684774      20.068012100730048
   638   4      20.724418843996816      33.518067528326235      25.486558711201077
   639   4      15.187710207072259      7.3639905418589624      19.998083777793866
   640   4      1.1556266064395204        41.5566988575887     0.31976454430559242
   641   4      0.7253900758714158      38.099172432093795      2.3556969670576939
   642   4      26.446557761100667      46.882452913234239      48.330740761515806
   643   4      34.068400718312049      8.3653344033648054      36.951670369580675
   644   4      3.2812944829505386      43.323229906663649      6.8280385710629057
   645   4      16.395790787236788      13.050749639334061      38.379347686182847
   646   4      31.976138368724651       45.12182401320711      15.992049704492334
   647   4      27.268233265142058      36.119088734758513      16.271585292364723
   648   4      48.314292726051207      1.1633339891536119      38.221724159855825
   649   4      8.2028325021382837      27.241888440226294      6.8711855630708936
   650   4      45.028577996224335       22.81707723311747      35.742657691218177
   651   4      21.929989836647451      10.667377511455001      27.720641322758762
   652   4      14.016193482114062       16.60947256085446      42.988621860689996
   653   4      12.853546666800673      31.359227735363753      28.449358816354724
   654   4       36.75540469215187      15.973008626599576       17.35930073475641
   655   4      3.8011716230061676      11.856234421752694      29.102709197210466
   656   4      25.410975160260321      16.216355842124543      2.9343926236012363
   657   4      9.7840096324456418       36.74294356021111      19.722934824856008
   658   4      34.350788668670646      10.984233434054278      2.3484456173546366
   659   4      35.525897165126707      20.696251812136076      23.600981217751595
   660   4      26.996430522617008      7.8725741444609092      18.121718038510881
   661   4      3.8481940023125873      31.735854570350856      38.889019772308508
   662   4      40.929911539536931       5.311005910320941        29.7104154942596
   663   4       33.28110046332062      24.032668982843983       8.451926472536309
   664   4      9.8490596793515408      22.254964293588642      26.302398332790702
   665   4      37.900041830551977      31.747763266280359     -1.1341201838595301
   666   4      10.071461372980993      30.936202540093134       32.24627723281683
   667   4      37.570388427946867      33.323440331117766      21.455317653344032
   668   4      14.984242520124242      31.098486055793568      20.039133034655812
   669   4      12.595347477659347      24.960349510244583      5.0707743217138992
   670   4       42.23566578050621      16.943288203428885    -0.17608159911765631
   671   4        11.7653577076389      30.242318622964138      10.149633033536608
   672   4      25.724276606825352      35.276623763008601      41.930605505886987
   673   4       6.912538932957986      20.737879073505979      39.340825430405459
   674   4      28.438796162220765      21.975101653932725       2.981488330125285
   675   4      16.735660950770594      15.520425720830188      39.762145717748119
   676   4      46.861921242246488      4.8658316772492416      12.814660406118483
   677   4      43.963219415494322       35.31657446168439      36.053344573259061
   678   4      35.326397377534569      34.385318730868491      11.745430270606281
   679   4      21.464871352023788      4.1764057693859549      43.245352505281176
   680   4      1.3194338677342627      42.434716092078389      18.470224092294437
   681   4      35.059470414986599      23.591395299931939     0.27780393117541285
   682   4      21.519701881760696      23.285897618485851      10.690205394803661
   683   4      42.765736107266804      48.405400140047632      25.602305757063061
   684   4      7.8814740989132268       6.395403104309719       20.38855869346277
   685   4      39.352153895233542      6.3432105087352362      24.094758232643066
   686   4      1.7036803900041746      13.456313136232236      39.616654428741398
   687   4      19.325800652758407      16.569768710610539      38.441759176192157
   688   4      43.712007656717724      49.304085510166473        12.9927528205304
   689   4      8.9396096030466783      19.015486017807309      38.220081174632625
   690   4      20.546325956985193      29.848260846440471    -0.63260353577172723
   691   4      45.690440589440406      22.291242477175743      46.210253653827507
   692   4      34.774810493026138      15.736150977639445      37.717509529127732
   693   4      39.249334490364035      21.563051759104201      30.297435839193824
   694   4      5.2104857161222462      8.4349686746647077      45.432244233215101
   695   4      10.628129974697325      34.748710429703586       42.37028658579483
   696   4      11.631789656065823      14.163821761878202      32.751130429515854
   697   4      20.824547200591997      32.853390286603286      33.412126917608077
   698   4      28.664781190344168      4.8964804983829673      23.655916128514296
   699   4     0.48976217382582238      4.0911019932923338      7.5773008787776037
   700   4      39.977810169243185      41.533610753279028      26.972030404154484
   701   4      17.870796150168331      1.9304951632220397      38.109435403893038
   702   4      20.604916680696274      8.0329152247638902       10.86471265820094
   703   4      23.435376990623627      28.285180177199567      17.834581737694606
   704   4      46.153286347079913      24.912561158732995      31.253508082775554
   705   4      17.973899179308855      36.885541344688789      37.707539496499699
   706   4      33.357153216060404      23.276918432910932      36.872469133649773
   707   4      18.754248199071341      4.2231505104634639      8.7020250524943989
   708   4      17.823207235347038       23.88019458502945      10.016322496307222
   709   4      37.808090117627998      7.7428155343915339      11.177923179540253
   710   4      4.5554322883648739      18.131546751475369      9.3513568383876109
   711   4      45.148385063798159       35.46121563059976    -0.37136938929635932
   712   4      6.5891091766899645     0.45222180861407202       16.23211249408671
   713   4      31.156755873092298      28.527473708435888      37.825452672333725
   714   4      38.031870246760718      27.435954126614654      43.633321927949922
   715   4      13.546702926239679      35.396988846093116      10.305682103418098
   716   4      34.629845452175012      43.628870442908102      33.426849581735851
   717   4       43.39121064928095      31.737279133975747      25.433058818173638
   718   4      10.562637477649512      37.064247812528464      45.645848078666134
   719   4       37.42838101233955      17.865128376641231      34.184283273151109
   720   4      25.082667385219981      27.688971898058806      3.5537629307499277
   721   4      27.439320122894376      33.615838397004026      6.5627368992254498
   722   4      26.091966864600241      25.917773269004513      14.758593328337851
   723   4      36.854151132625091      17.264527549799134       36.98731946046626
   724   4       11.24689846453945       17.46279248708705      37.183704036827606
   725   4      39.722664697056018      29.277833484951586      18.618272078783914
   726   4      20.580971894359745      2.5128763706248605       20.57139470076039
   727   4      38.754360864207861      1.6934841006541712      15.129775653370583
   728   4       43.31273132794751       6.827525126245062      14.506690661306477
   729   4      14.296867697297614       33.82508447333943      27.633567460224114
   730   4      46.850231715838795      14.179423715110314      15.561880215647314
   731   4      40.041255414807225      37.903073155181218       1.840356569746902
   732   4      33.952463014972899      46.117286546594414      9.1973411456226604
   733   4      20.875957580393973      36.766691991765995       5.985544305437112
   734   4       8.623187329165992      40.705997070929762      10.846403086835192
   735   4      14.377726139912328      44.185593196438795      21.441737482845653
   736   4      44.715782674933173      38.381356858642114      45.920555878843203
   737   4       35.43468319134967      17.827908199732924       18.72453780368933
   738   4      42.688176498310845      1.5660616692627176      1.0518142854640942
   739   4      11.297291847233767      42.649099761742171      41.049882796984825
   740   4      39.540114419533268      11.253713850641512      2.0908040082133481
   741   4      47.271699988385272      28.617459708050184      43.488148311408246
   742   4        38.8344261795935       42.43935673113225      34.065926155600764
   743   4      12.297124827075143     0.34957741347536719      34.395947505789671
   744   4       7.596666733702639      18.094293845884646       40.68319987780486
   745   4      41.294731378805899      7.3177028311611529      -1.214195205535213
   746   4      15.651098148978427      1.8497357717720293        41.0159163177929
   747   4      2.9900898436585823       21.28731379192649      4.2108767335570381
   748   4      42.084222882842582      16.373470817105314      20.691912326136681
   749   4      43.245975194440859      12.149659056556132      7.5715224056171975
   750   4      43.647530922247178       32.66390060452224      36.607818895176976
   751   4      23.551319782993001      20.564886286567589      46.429508083198073
   752   4      25.571394547893387      1.9562066357628944      4.3251252696572591
   753   4       26.69497404388072      27.526801198230292      7.8432725234930123
   754   4      17.921555975868174       7.337817796657025      42.846567923817915
   755   4      18.405685388722201      36.056804048436106      27.176166406544553
   756   4      0.8545457353578213      42.688742432322393      40.011772655570432
   757   4      30.418499755295159     0.88455641152906894      40.567325409324823
   758   4      23.918533918201231      21.653085896624624       25.97193488520324
   759   4      35.772943519022725       48.14541906897675    -0.04248806766314106
   760   4      40.798344742585812      19.375734081716843      30.281984669446263
   761   4      45.821847599054962       4.067021288154689       21.84885111491468
   762   4      3.5406778886217096      32.926854278516181      26.858307350709985
   763   4       44.88359998529161      25.510740394897415      18.021213734377167
   764   4      4.2166778396961044      29.453731615678169      36.016457624221488
   765   4      18.184552421912567      27.953875983549331       26.24825867511051
   766   4      32.891717461318848      37.126423765983063      19.763136060742418
   767   4      26.016057456680954      23.688350952476252        45.9460507531007
   768   4      9.9258298475234792      41.177344113696236      14.242404943170085
   769   4      26.913418609064212      18.493352155796526      9.9305517695628271
   770   4    0.094742347451854808      33.660910423030735      44.561528686477978
   771   4      7.1030673070983612      1.8444712300823292      36.102456950179622
   772   4      16.594688838697842      36.352650229555977      40.121373266829053
   773   4      17.294139686784547      41.856207878912812      7.6038592891898382
   774   4      5.0358897446162869      33.019573462805923      12.730065485845037
   775   4      40.322501993884174      20.968875831204709      25.460117747891793
   776   4      41.966715920994559      2.5293187093940195      32.297971532751468
   777   4      41.152881313066899      12.580179033864944      33.317668930330385
   778   4      46.951680031941166      11.103684658066562      35.344974427480672
   779   4      16.746264916117518      5.8432028009092649      22.711549784016682
   780   4      34.813161279982992      6.1022311610058431      38.648547006148853
   781   4      8.5402466308730176      21.379157762857307      14.545658488310197
   782   4      48.788578252662539      6.0410992171972815      2.0275034931639597
   783   4      25.529200884958893    -0.89053735155297786      28.286870362876726
   784   4      21.617269026402457      36.363716519261068      15.912766235978046
   785   4      33.598393262990847       8.714731697705739      27.151974921563671
   786   4      31.827119643400152      18.518991169819493      21.149713489501174
   787   4      40.741128515056708      46.340037272916305      31.092234322901028
   788   4      48.383666658075036        45.9588090643879       11.86773731190215
   789   4      39.210787377240315    -0.60883865934885195      25.802845515165306
   790   4      40.529368930110401      6.0177688391977142       9.580295021153125
   791   4      31.728654649393626      29.259485388742288      15.227143631016576
   792   4      31.898854953064355      10.369221887248075      25.713030835016557
   793   4      36.734279695170976       7.369472438960849      14.345851753154905
   794   4      41.346309981135178      14.268901537894077      24.927258605789607
   795   4      39.834424105752539      19.421803412300555      27.642021169496175
   796   4      31.451669851547134      24.150427338253245       29.31452645389318
   797   4       18.08489189052375      41.177757724691247      14.053607458244716
   798   4      9.8007445098229358      33.129456714797449      44.451628344902225
   799   4      39.163414771516535      42.302771779857359      46.164732106544058
   800   4      2.0137642320267188      4.3050717205579225      2.0309967728176859
   801   4       27.79322497387972      41.452688603479245      4.1433734724313034
   802   4      27.132014826954066      17.883287413045739      27.505465941251263
   803   4      34.677200802225194      49.069426410701205      3.0732972912993737
   804   4      24.324157462636531      19.050684594865658      28.518415239291464
   805   4      40.663161341219485      40.908893005771681      8.8214508351336267
   806   4      36.201833180132226      19.653724720872574      3.9329281948491412
   807   4      34.581546572409046       35.22552979609209      5.7626472820597208
   808   4      32.759062974527694      27.735489218609697      29.009538377217009
   809   4       44.00159486173775       27.86158997957088      39.830933994910708
   810   4       11.59017492172635      36.866500099239246      23.285460405495414
   811   4      6.1066035486245136       7.662462054265931      7.5635398184654541
   812   4      36.324192819362388      17.553378342767505       31.54549863409833
   813   4      33.925998981544048      36.352998330374206     0.71204151204846566
   814   4      12.073990178594876      36.616650773977625      25.933209907685846
   815   4      2.6718208894921598       34.79759056193209      39.830299935755214
   816   4      42.466264407765522      26.396068908975863   -0.094428200465189932
   817   4      47.092405869394419     0.43261111798650631      35.864949161223926
   818   4      33.078698866614594      39.291279383585255      3.8065770587025161
   819   4      12.935416259475923      43.146425264703623      7.5445526963425849
   820   4       47.40545431320534      27.309676535180671      30.678576618324417
   821   4      8.4747303880593581      35.499264498798183       43.83186788392625
   822   4      34.742329621327002      11.306566619316467      44.214091385111921
   823   4      14.651069550267071      45.564022954652167     0.43602048107643598
   824   4      2.8935999602343982      29.306635121694995       14.73233978668938
   825   4      27.948315616672776      29.340792035425824       45.69455088684262
   826   4      18.792178077531283      15.122628515709119      44.199165149202031
   827   4      47.632121199329312      15.286306719536972      11.497358164441007
   828   4      44.063504268905469      29.426591676502525      45.193265702064501
   829   4      39.366956214246166      9.4130066199707869      20.214174213928171
   830   4       25.11869804954711      16.839415964911769      42.629754381610304
   831   4      15.698986257684572      17.991783130706789      25.809970576883593
   832   4      13.508679974670073      35.129543290141036      6.6263265004620546
   833   4      21.203502017161835     0.90645885095791412      24.027703727863994
   834   4      21.128625894014856      20.433078544453089      47.535529726755286
   835   4       19.66844188672539      41.622190327081505      29.613218707171434
   836   4      43.263430104881031       16.29546105471087      37.667694064344914
   837   4      35.870725556967791      8.8651982869703119      38.865136894579194
   838   4      17.523775632576125      45.189167675451131      40.180088437225812
   839   4      41.224195199012151      10.243864383473872      32.044135799525051
   840   4      12.084743587485358      45.282392512906448      43.947724155727087
   841   4      42.825235334619514      29.197916614770524       47.83162789601424
   842   4      7.2200979332287334       20.51674564047071      42.108405096418608
   843   4       5.427151852023548      14.484319686368712      4.7651784003494608
   844   4      12.398856816429015       13.09179001571612      1.3953072279542693
   845   4     0.94932243958236728      10.962434790487139      4.3076537582963468
   846   4      2.7629099953437799      30.479489191148488      27.660609491517643
   847   4      2.6045789975175451      9.1737998491254267      29.010198924896653
   848   4      25.027329344417033      2.9021153927363033      14.427191465499735
   849   4      27.083553390340793      20.818434522597251      34.234419193135743
   850   4      20.766587936938496       26.59124198428983      25.622717360152091
   851   4      38.520301326229934      42.584416289528228      8.0414745364989582
   852   4      29.489188472947088      30.657398770838892      39.215645937566748
   853   4      45.736537747782805      33.721251707075119      38.279895175684793
   854   4      12.855996267947738      35.899633590842598      28.884989374888178
   855   4       30.09831882556335      2.6060709616677307      34.050500072648866
   856   4      14.516074312033725      8.9694936423222007      26.656639364827122
   857   4       40.92061152972758       44.20060872325525      34.248376713723239
   858   4      7.5883778779705002      31.787384748348956      38.894956546079378
   859   4      3.0059277719075967      13.498722714449787      16.820821266810999
   860   4      1.4067026312433923      13.230805412640999      29.883402319020121
   861   4      17.123807621261101      28.184750682320679      31.891522499150536
   862   4      14.165782254419376      11.650378442517722      27.219277950363601
   863   4      28.001875128785979      12.984421590256677      21.594256563519867
   864   4      40.746107183276948      49.541268939773111      13.231509786958616
   865   4      12.815708025905227      20.097405018099749      7.2962760689787531
   866   4      39.313305243077437      13.471511081381653     0.57337013776310908
   867   4      31.313436455768926      13.083320940936904      26.440193556783569
   868   4      3.6722025509129441      40.174291705572266      45.576786079028551
   869   4      17.629672356296261      28.138197250766133      35.521999809798267
   870   4      5.9887317770423181      21.044133595567406      36.274054174024876
   871   4      7.7648930882943263      23.633432159539733     0.66695958633791907
   872   4      47.723453200182192      25.293430103383095      15.516994207426134
   873   4   -0.011612897031154519      40.363001911619733      33.607455150496691
   874   4      7.9255884586088277      11.607251717143759      38.871499317556847
   875   4      23.285649624146998      45.409501016708347      6.6525448018691655
   876   4      39.692037687542253      43.270617615196869      18.113191710644813
   877   4      39.433454835527655         3.2123314159278      30.814736976765218
   878   4      33.409320099154471      33.880483773901908      3.6767850332837586
   879   4      20.808456586866281      20.036364393756852      5.5002929300298309
   880   4      4.7426931326345949      12.376887621226681      2.4768810272315709
   881   4      39.955964557601028       12.68075309787511      26.435350647812278
   882   4      41.840077742618945       23.15083128699457      25.828820157785557
   883   4      42.077584213432438      34.054840770342942      28.995972512545265
   884   4      15.403755861065411       7.537618694513152       3.757121749068093
   885   4       20.90349675281675      35.387362040549711      19.170096601342951
   886   4      9.7282712524787787      38.926738175747317      4.0835668350783445
   887   4      35.809441168392731      12.856219666961167      1.0180454746639995
   888   4      17.193309267230592      34.874581788951645      11.311538768383802
   889   4       35.78350037032871      23.437850878511352       23.71124678172049
   890   4      33.219858467920055      11.359255571879407      27.695445981669113
   891   4      19.231622886895696      32.482813039369894      19.100942741782948
   892   4      29.827324606246233      37.047949310835477      33.385013158288906
   893   4      11.756127033695812      17.413554869662281      31.700735716294943
   894   4      47.706115130545612      15.823326594316573      25.467485409527502
   895   4      19.068188922749698 -0.00027045891899671662      2.0882352707584966
   896   4      38.230442313562705         39.836570958284       8.228633546307913
   897   4      17.850359561558975       45.81732129870116      33.237645520611082
   898   4      14.713963126840218      4.3048986818808883      42.264618592983325
   899   4      14.650233024325097      15.748728697159365      7.4106432372053135
   900   4        48.3985699177003      36.872089718823382      21.229408430773912
   901   4      31.180755721899626      3.0437950758912304      21.281660683201466
   902   4      43.120031606382632      25.517589662286159      24.838205600540082
   903   4      33.730731036103485      3.3112493247950163      24.322149942151981
   904   4      25.659064012173612      6.5918495761182028      15.992024048579438
   905   4      36.717693350784508      7.7031053585349483      36.606948756726545
   906   4      21.274657650958812      15.139595270139985      11.093702235313652
   907   4      24.328745847802072      6.4563548422061441       44.35502591393837
   908   4      5.5078902361717299      27.875422533406709      28.361113005427125
   909   4      25.296139757757803      2.4869169521871215      38.985276754034075
   910   4      29.629638842428388      13.344688306655259      14.449145660670709
   911   4      2.2310201450555018      36.301003460075265      11.854164586207656
   912   4      40.021120702022287      35.644120584116287      30.425359146455442
   913   4      40.759184648913966       42.95787727713347      21.634668737676023
   914   4      32.858026441480519      31.754228080333249      23.014966307030861
   915   4      49.290092667519573      16.220699753475788      27.718010805007644
   916   4      48.726175632124239      38.181116209712734      17.998609878365908
   917   4      8.8493390775131395      6.9140077224981251      17.695256852833186
   918   4      3.0684012603714543      12.790329589494593      49.038994857001612
   919   4      31.585014860823907      50.320405103997132      1.4293301776811753
   920   4      16.607297159841714      15.793697347202606       27.34889180397893
   921   4      34.238412293777976      11.912342173661813       31.61594195207579
   922   4      1.1426742614330823      25.207970598765037      38.805603030352934
   923   4      13.838018683919364      20.946282668114172      47.399351701665793
   924   4      5.1766070053255993      48.198001750882398      22.269676971677253
   925   4      20.571691882958032      43.817462841127842      8.1952835956343382
   926   4      7.6141927223917003      28.385325128287217      37.176406822033201
   927   4      49.364774658754868       44.04964843661476      42.368696408853616
   928   4     -1.3355280509114038      3.8120218687797065      24.126490353131043
   929   4      21.527197399785699      44.578794994907774      22.620803660032117
   930   4      9.7683330390883132      1.1332875102342188      36.981135358097134
   931   4      32.032784839339087      17.847047293048249      6.3112259988142849
   932   4       42.93769281843273      34.523448346198812      38.594460096488241
   933   4      11.679664962789618      1.1788521262421159      21.007179272004588
   934   4      28.067067774910289      8.7833388348030521      35.886635918535404
   935   4      2.5136458510632087      38.816617380089653      10.663047273062187
   936   4      30.056871861326286      13.621697645744915      17.286449211873659
   937   4      13.384382992627843      6.3788829741518516      12.735298430202416
   938   4      2.5046526006353953      29.932444620212134      19.420314190112553
   939   4      2.1586001895545941      36.342122367733779      20.732515697210641
   940   4      49.340878461296477      28.968799819163671      26.891700847573855
   941   4      24.902918762925907      41.657682025056921      36.084091300010535
   942   4      32.610470746476416      30.754963784167533      38.870585784914866
   943   4      18.950441887299728      7.0934043755161502      17.586621830068367
   944   4      13.890770417043452       28.61579237732666      44.135377900022718
   945   4       17.57784465043304      15.993511666361115      24.825735955974892
   946   4      9.7431528660046602      2.2907959504497541       5.911239479987688
   947   4      22.131196738328129      34.491979140431035      3.5327758324887664
   948   4      25.314223717418866      3.4644093322682088      10.497991821480145
   949   4      41.578018883736718      37.414293324154599      18.081029910431539
   950   4      3.1734400435758356      0.6523655875267651      27.013071839757007
   951   4      16.016979437250153       5.902683850847013      17.704445278777637
   952   4      47.046351892768747      4.1844140450905201      47.656902821823579
   953   4    -0.95475093195704697      29.228189096604876      19.592690286811735
   954   4      32.429416685974005      17.060177115063322      2.7220321142142163
   955   4      40.671320344024295      41.742073900539516       36.32450551625098
   956   4      18.703496627906937      33.421361551213955      44.007981453970501
   957   4      16.004754314105867      32.553364385957501      39.280253739277548
   958   4      8.0245796084278069      25.057126799419812      47.106549186428353
   959   4        27.0572404799445       21.85342764995664      10.459900515417822
   960   4      42.268846310050343      11.695501462763104      10.255912815540189
   961   4      37.348774522008064       4.759495953886641      37.863086427222854
   962   4       16.33651265265685      18.360575396534866      29.905167238935558
   963   4      39.245024953729356      35.468827232118571      43.475442377020599
   964   4      2.5796066746398369      41.429667271483396      25.429322276968378
   965   4       32.40075934138482      15.663263680429681     -0.1518618629410047
   966   4     -0.4094579962835414      36.209078806387723      11.322820336912793
   967   4       28.43267371361215      42.555174950983428      29.408803681905887
   968   4     0.69241939479544135      20.399105848979556      19.179550103886235
   969   4      10.166829907215343      29.014434943237582      23.830203149007097
   970   4      22.395059860370139       22.42635168010969      39.226117114007394
   971   4      37.790904662541017      1.0418570098468132      12.578362622271658
   972   4      33.848303054820498      22.458360896565278      34.234840508146981
   973   4      17.437695787433615      23.115465850632425      33.570703348959903
   974   4      7.3882268212307203      5.2156785868376101      8.2597225011169133
   975   4      21.523672742972202       38.84243912432273      32.614326211310591
   976   4      16.101563520834866      37.661330738261512      35.779854650945154
   977   4      1.4730900800143716      24.288524651727052      7.4974011449723514
   978   4      11.159198976821258      23.304753040704728      32.992378634105762
   979   4      33.165352887818344       23.85835352178686        11.2909111765111
   980   4      32.335770265223651      14.148027278091451      2.0732017031019274
   981   4      37.617372330037298      24.291868267514886      25.663915894126223
   982   4    -0.48025581549365554      22.505644882496735      24.082863800394584
   983   4      29.318528169999912      11.350949894386597      33.515671294210819
   984   4      40.404180882441558      10.507726212384695      35.219219051283723
   985   4      45.182413298490083      18.359065397060803      37.207261481310866
   986   4     0.46088330363460794      4.3128098915378699      31.094393604489255
   987   4      7.1617587777483775      42.267183291384129      25.349293445075805
   988   4      4.3421189976457066      27.156854382949767      32.029590413811782
   989   4      35.008058564412657      23.474123455200811      38.932999808399124
   990   4      3.6723123437260856      31.019704329512489      24.957425073472699
   991   4      20.312437048676188     -2.5257886048980427      1.9623801270928325
   992   4      4.1526978810748494      22.292438601213945      24.847586580819822
   993   4     0.73873630578660388      4.7935450508352648      11.849813959425898
   994   4      38.303738092080494      42.860846770090959      14.547091266789943
   995   4      35.398043821635028      19.927675350291249      33.066687242973039
   996   4      11.807731101918176      30.632447018898116      25.956487841666107
   997   4      23.562779370686851      40.899955139652725      26.927476391806824
   998   4     0.09999669433927473      16.808944582719089        42.8417126664257
   999   4      8.1598854530387221      26.727186321814845      39.469065484772685
  1000   4      8.3930175592532859       21.30730587189721      2.3022806891018308
  1001   4      31.419093948676579      4.6936747584454324      9.2227626716781739
  1002   4      10.226532999882235       32.04538825423915      2.4240180388149737
  1003   4      32.030975324225921      33.772082357877785      21.160738906044141
  1004   4      46.978205809422178      46.744923632489751      4.7380072135459859
  1005   4      31.660280610633727      5.2596043994438171      2.4163155247431285
  1006   4      38.892581702910668      30.453454833665422      12.878783142418696
  1007   4      4.7851315121237361      17.969009491187069      23.269071306097445
  1008   4       3.096487294094624      14.413745270852296      2.5943528316493945
  1009   4      15.066655953566743      8.5828547756729421      30.297018219734387
  1010   4      6.4572388443677751      24.001488028910892      30.308000699733093
  1011   4      7.2435138640254664      37.669849711565142      21.063130459038426
  1012   4   -0.068264187641232058      10.387132561267803      6.7467206461117781
  1013   4    -0.22184554018785679      37.647474115907315      5.0028994434002412
  1014   4      27.640298207395077      14.344159401728422      38.449337306025576
  1015   4       26.18442290114486      9.4331695740970005     0.18563562002312925
  1016   4      6.4011110199081864      11.660894961993957      22.820821533680665
  1017   4      40.383618301729427      26.090512731977519      3.9818371579897462
  1018   4      17.807987360380228      5.8913963592986534      19.778740657169976
  1019   4      10.798013374086093      20.226260779657792      21.485897197471598
  1020   4      40.414904070792971      49.269947653841619      33.455328649130593
  1021   4       5.958773339500067      15.078483084731978      2.2878318638481088
  1022   4      44.553532387732716      24.855071038814732      33.664455327854931
  1023   4      12.981089188691403      3.5958593506548282      33.635191205840499
  1024   4      16.290778527659715      41.886375473182781      27.809192868489216
  1025   4      41.252165241419284      41.665590602369839      33.258513070585089
  1026   4      29.064636255187786      20.133860201249533      21.298776109923022
  1027   4      33.124458425054677      13.411276921073705      43.501764725616731
  1028   4      18.240451553195136      7.8286344437447539       35.74567440475834
  1029   4      33.682424502649411     0.14257897899675123      39.382538409817194
  1030   4       39.33634917851866      31.734677729324964      23.072567619637155
  1031   4      30.671158069462226      7.3340320828082834      11.252751495287853
  1032   4      11.687119110183145      19.148396301693666      16.493188334241893
  1033   4      24.921534838946712      21.565583001307676      4.0522392855076506
  1034   4      22.624664396129187      8.2796724217844151     0.91202505334850192
  1035   4       39.01046420116495      22.345715493149626      27.441413176930944
  1036   4        5.49066961795375      48.909580574035012      33.602707753993037
  1037   4      36.230558000712492      19.386311565314749      21.046732344828666
  1038   4      22.103708289976101      32.655596800485291      45.533097146329624
  1039   4      9.1021820846750927      18.754280202022684      1.8471380295758546
  1040   4      48.231040192783311      2.7628212274688977      21.619362714013544
  1041   4      33.019106492008682      46.800186741974095      42.655317564934592
  1042   4       24.03287985574536      15.611416799452691      12.024347874706777
  1043   4      39.607574178643347      0.7456829309146541       39.69588303002088
  1044   4      8.9594397010798232      10.163191173076275      7.4604151983987919
  1045   4      32.293901849594434      13.958983028801844      46.233035909043487
  1046   4      17.362617689352291       34.40323662463674      24.739841905964376
  1047   4      45.022628498239548      32.790732357570064      14.450658009439129
  1048   4      47.739876930791972      10.515584233293611      1.0717717228409038
  1049   4      8.7694349443522235      4.6852856406531238      1.6270274301323733
  1050   4      29.440607983710809      38.091368907877822      39.234692198010748
  1051   4      2.8536270061163447      22.937300271345503      19.239751828517896
  1052   4      9.6254270691109962      40.532529354783563      46.904494099804758
  1053   4      27.045933604250816      44.745892095916361      12.033667509289783
  1054   4      39.056875708482295       10.55318656312612      40.108130966720275
  1055   4      17.291073377223768      26.702208456500625      9.8791102756829208
  1056   4      25.713360568327573      5.9624349396712688       25.00955906597294
  1057   4       32.24803381208887      23.675009861396983      17.742042276753807
  1058   4       29.69712189998932      24.462393051389899      27.008175388714761
  1059   4      37.946552289287993      19.932301127530746      32.397435937179743
  1060   4      46.755601715188611      21.037852858101061      3.8659508833054326
  1061   4      7.3610731709047528      27.435151412963851      21.773602331243012
  1062   4      8.4862061024938136      26.744644709632873      19.290182568457627
  1063   4      38.546461777617139      13.627945103836192      3.1033928811877458
  1064   4      20.755350373371371      41.393785176615495      21.290659480011925
  1065   4      19.605690368588995      13.884251936996382      36.935015110845349
  1066   4      30.622285962200966      12.212231349744576      43.002249139248711
  1067   4      45.530469539994257      8.6256534380366254      41.959328075048916
  1068   4      9.3999845195954777      34.701300917569711      36.895047734936114
  1069   4      3.2465976347466281      35.754666078509743      33.177061908010039
  1070   4       42.35529602974033      5.2319845881907332      32.803667652934784
  1071   4      44.166708041716205      3.2655243502831981      12.453599156416002
  1072   4       41.73966641341061      18.901773337092479      1.8406420929603324
  1073   4      18.490101535076786      5.2059692459844085      27.220795706701665
  1074   4      1.0368513188762254      31.434739331186744      25.493296443653779
  1075   4      11.763660719967373      45.701432317770802      6.9964418442764069
  1076   4      4.1783426330911935      43.023257925283779      43.851880516289057
  1077   4      23.613543690234184      50.280872968580141      20.077862806641523
  1078   4      14.621610813376288      46.462140780645925      31.785631830872841
  1079   4     0.05652208305123891      13.065780470278542       17.29611922797573
  1080   4      33.911245682771778      41.852744896699384      2.7277763347321633
  1081   4     0.43387702063161426      28.019197484346329      13.468885738763591
  1082   4      9.1848444374940694      4.0444459239828792      36.772424071620527
  1083   4      26.964203146669412      39.310893990342905       17.79211601090886
  1084   4      11.657965586706803      14.385230308198791      25.451012572803414
  1085   4      22.562993205946675      11.266730123008738      16.776927243319655
  1086   4      31.001085405094884      31.088940557588547      36.607912077541286
  1087   4      5.0689914420659088       22.61859480580339      10.056236663509837
  1088   4      8.2859350346031047      29.015674717824304      16.321199045261686
  1089   4      7.0151065385001932      16.495259431190195      7.5521449145366413
  1090   4      40.823018919124991      14.037050954154092      30.958077650582563
  1091   4      42.642700766901079      37.188191858589541      21.747879425782266
  1092   4      23.430125218208225      28.527072325295407      36.566413093773306
  1093   4      38.771822296458311      7.2462840776452575    0.025306374364482701
  1094   4      28.739034528138653      16.649166526723899    -0.42202676063536065
  1095   4       20.88269443236474      21.970503459625895      23.667188680594393
  1096   4      18.920485441929902      8.0556936725772914      46.753651851694862
  1097   4      4.5759964206287176       19.46960477815044      46.591507805842802
  1098   4      42.823907932820724       39.43038999287387      7.4631975475035306
  1099   4      23.807105940770434      9.5189505633606259      33.894171319433802
  1100   4      36.936762091473945      49.073186339941081      16.966079360628903
  1101   4      20.334285281439236    0.072288225694242175      33.462860471124216
  1102   4      35.379570651947262      7.0303549978314894      16.706484917417669
  1103   4      27.795700836531342    0.086186288256785482      41.205610214565496
  1104   4      13.350945138390601      23.503741297032217      40.419306533951215
  1105   4      14.691283024617087      41.497341964167816      18.371912834678085
  1106   4      30.441920584130244      16.341958628803056      27.908115435509281
  1107   4      12.685697330800732      21.687405209986149      26.044608936343661
  1108   4      30.832035201176371      14.989059936094266      43.848940539920086
  1109   4      34.853046132657582      36.775322046377958      16.984660697417073
  1110   4       33.14189092436785      47.039375558115026     0.85463714664023382
  1111   4      22.574678621569909      26.806000684048328     0.84789431652164071
  1112   4      38.480239970554216      14.960171486956149      14.052135289212078
  1113   4      27.999055974061612      2.7688892794102822      40.741568237248813
  1114   4   -0.069276065075327922      12.072009958692851      37.493126064897304
  1115   4      12.244311160619523      12.758800390079118      18.478732129688375
  1116   4      32.908772389993061      22.840222053120247      31.488973737825273
  1117   4      11.737625703936828       33.18323622918404      27.012063048314612
  1118   4     0.75210068452938217      4.6672689600395678      41.630111285802847
  1119   4      3.9604318979257109      30.953972305340134      10.698006799748379
  1120   4      31.645686691594133      33.613441452902286     0.79609278787213378
  1121   4     0.49022415000454916      36.688232842708643      33.209027388912297
  1122   4      9.9907831236135252       18.13691871792809      6.0936510355656672
  1123   4      5.6146456810976249      14.746902160826444      15.240197108311305
  1124   4      37.679143971570056      21.767087888975201      24.922868225395234
  1125   4       42.38122028971118      18.033448869365373      10.589056599635772
  1126   4      30.015523684265961      5.1586068191143628      44.398016694510119
  1127   4      32.130074629197516      40.588306172141799       10.29392887318625
  1128   4       13.05499326355157      47.808899549547085     0.26051141718950299
  1129   4      41.602263667874134      21.501774143687502      28.213340724463126
  1130   4      38.089076038216106      43.610750729727116      5.3507077309380158
  1131   4      48.969912194315015      28.148381673509398      1.2424213217720488
  1132   4      31.471446751063247      40.110343973346758      28.158842317177605
  1133   4      5.7791092786660689      46.537980709051702      18.844955385279405
  1134   4      12.273682261322929      41.492774610889896      3.2104051145815964
  1135   4      24.304487827096942      33.744129917934757      32.112214211846606
  1136   4      15.081288520756337      21.567087537137979      39.277816495776953
  1137   4      32.263214610787614      44.378994009026215      43.523182652872158
  1138   4      13.019537408247515      38.933943214369705      24.334225548225923
  1139   4      23.591406688934732      18.942861506222545      44.015823539070048
  1140   4       3.005015311909387      37.894478783877759      38.459251738408213
  1141   4      33.721611553278507      27.609211969842299      45.278094171580356
  1142   4      12.171888590010848       43.36999021530734      18.903627290658946
  1143   4      31.274149781232786        34.5836900201068      43.878626348860813
  1144   4      46.352221858079716      27.084436327880507      33.153217886202718
  1145   3      19.532129641015199      2.4088829353249914      11.550038815292337
  1146   3      3.5092073718643215      8.1038516009424324      30.039673532186914
  1147   3       41.73877535935749      18.634960489104571       16.41723997921391
  1148   3      19.984280049979144      44.346930817031172      9.7655502951022317
  1149   3      16.467881844762214      9.4039589077400869      30.943370791038198
  1150   3      10.716862692383044     0.74221538825438915      35.433508238004414
  1151   3      29.101816051916881      32.403853012050035      39.113938199465743
  1152   3      12.283709743842815      19.339640593405473      14.862413875141501
  1153   3      17.088212562484138      34.443555391583821     0.17803075334931262
  1154   3      47.285293824842398      30.607283986100938      18.628741532506627
  1155   3       25.89132688939986      46.366618143337242      3.1234059399708989
  1156   3      38.545702728156392      6.9235316775105398      22.558311968668793
  1157   3      43.023791953198803      11.322377106291464      46.270538014181682
  1158   3      32.180150676121322      3.8275816678768568      22.871177289913181
  1159   3      6.7595918269380055      21.996831831860888      37.632633727827013
  1160   3      43.709421690494949      6.6653329634611165      20.952631896374388
  1161   3      32.019406317234363      13.835853991093291      25.016528751706165
  1162   3      9.2806120760180661      25.934120646106376      7.4610690132910999
  1163   3      46.124336055935473      38.164108036759899      40.828886355254056
  1164   3      13.028079947907573      4.0005781453031837      3.6858758484647254
  1165   3       7.491240881572887      3.7055276250333025      35.898575401976416
  1166   3      6.8611126174270236      5.6023580362488063      31.817621764809619
  1167   3      22.364400764994453      9.7828126737058554      15.911765535958995
  1168   3      25.221959115071758      24.415361400439629      14.703840964983216
  1169   3       18.17360862037545      4.2329106666072933      14.151758158216287
  1170   3      16.992350285327866      44.230926845559502      33.389292322202238
  1171   3      9.6311855297088904      7.3215831364815633      38.997619975680728
  1172   3      11.636435704046649      21.185003066005532      6.6443103993329142
  1173   3      20.359430945277971      32.835166345937466      44.924251415704006
  1174   3   -0.017959741200515612      5.7415524926219863      40.423610090765621
  1175   3      12.339300888620716      15.928685711205032      32.872254787399285
  1176   3      30.951899494926046       8.796711990917121      10.355494750651145
  1177   3      23.182668168512087      46.352129746014299      15.954290800472117
  1178   3      31.823952815392776      39.637957158903298      26.532376331678513
  1179   3      11.897595212620091      19.615395137014492       22.71900462784911
  1180   3      32.156837608499508      48.588633123270426     0.57105615204839777
  1181   3      21.526115568405416      18.524572515505202      24.605779203941445
  1182   3      18.594184741666677      47.169833492322319      10.595502687631896
  1183   3      48.111174633061253      16.713864515055448      10.571528880992878
  1184   3      31.954074355315683       25.99825220244664      29.217781921951463
  1185   3      4.1581393023198894       16.58686974911485       27.58889220716356
  1186   3      11.252096593386669      40.248316373416536      4.0785603607737393
  1187   3      23.084140525890277      47.040012127802321       36.93545289246422
  1188   3      17.691278910161412      32.071140604766647       39.22206744845127
  1189   3      38.938852230652095      1.1307112753712554      26.022385221675059
  1190   3      23.819579212921333      26.714230238289144      18.553955613613951
  1191   3      43.593000868188248      19.820642992437595      24.550044104668917
  1192   3      32.116007001044181      3.8180844934377931      20.022189322384687
  1193   3      44.997466896273693      24.671019607797479      35.683666730231593
  1194   3      9.0035440048401529      41.605126785225906      9.3831820185006727
  1195   3      30.710294870600141      16.767836710851945      2.9204279179924044
  1196   3      4.6228722128513207      23.954439891709672      25.361761575537585
  1197   3    -0.33534584145294682      3.2642832431172804      41.899571709200742
  1198   3      38.393620609848803      15.481010916813066      23.076750588081964
  1199   3      22.287965997269978      5.3235222032693574      44.290715965524143
  1200   3      19.358861009252852      27.137010285523033      35.497474498085332
  1201   3     -0.6697762546752255      32.249544850086572      31.649670660151173
  1202   3      14.833516390580355       15.12482242154317      43.291673342802532
  1203   3      28.431594673662275      45.840222718030397      20.584017044585881
  1204   3      24.372218978438905      8.7663917204317521      49.149837013923957
  1205   3      17.567216770705176      28.796998239685482      33.712667283379169
  1206   3      7.8373202232524148       43.82882626998272      14.995149631493996
  1207   3      17.318245759969784      34.887406208166546      23.056793072947709
  1208   3      11.729889476863812      35.576022743338839      10.486017953295287
  1209   3      35.308797645369637      36.190117707578644      30.325034243643394
  1210   3      22.457932914878221      21.677848560302621      24.849876032336422
  1211   3      14.084275063104339      25.024170094033384      12.687414198959269
  1212   3      20.613092108530957      22.207242679667271      39.026946108839475
  1213   3      23.287213170419307      15.483660699613964      46.624106453303234
  1214   3      2.7479103835632932      6.0528307916528883      27.641520592789973
  1215   3      30.366228013591336     0.94377955641988132      2.5363396101803635
  1216   3      27.668064122090303      20.191694850047327      9.5645579076180436
  1217   3      6.1972654142254378      47.314573847784921      33.561307037222079
  1218   3       7.451081901410971       9.075480383224539      7.6479065308890437
  1219   3     0.86659593869962104      5.1289148248246788     0.58013133816762552
  1220   3      34.919092863244693      1.2090101497980943      38.863492423053593
  1221   3      16.450895968234782      42.331612650548671      42.373989238773511
  1222   3      12.512571065785327      4.9727936524942971    -0.75233725150447239
  1223   3      12.938034176161576      42.202536752613689      17.687234247539443
  1224   3      41.406462086796438      43.120467476149777      17.770422501866939
  1225   3      29.782057414714338      16.998907655045471      34.604292454543327
  1226   3       6.653440330468257      11.818842306826102      14.502580586329296
  1227   3      13.041649035716238      2.0575193131887604      34.817761966013975
  1228   3      42.242976014783764      37.347066163792533      19.892478464483965
  1229   3      -1.298939238532224      23.779554946991251       14.58498801237322
  1230   3      13.368195226677511      19.166544457001475      17.472543508530034
  1231   3       23.51798134317081      46.762443245281673      5.5005832796745819
  1232   3      30.608281352548889      14.674775236706555      45.721068308509608
  1233   3      8.4708116974896122      14.218788729907097      21.267790472569384
  1234   3      19.035041434678927      14.798322838031527      14.653700461967958
  1235   3      7.9552710859868565      18.410214736814506      12.752713449302455
  1236   3      8.4177379745345302      1.0373918787113909      45.151709206146244
  1237   3      7.9131327075551408      34.541939470937592      8.3149742405180191
  1238   3      9.6234362776999518      16.629407817701374      45.864596781061238
  1239   3      37.677226780458064      12.242638939110162      1.5160224825228539
  1240   3      12.438282317437944      12.384795142937088      48.445721964743512
  1241   3      14.642128300305247      34.074129232169398      5.7296811981551565
  1242   3      26.036383369556873      2.9894370442647169       40.65058694676263
  1243   3    0.012866362608879805      38.517071812820696      33.871617918751518
  1244   3      22.841336714675514      39.932684181032556      32.279007229119905
  1245   3      13.569831997256378      34.721718381220157      8.5507626728884087
  1246   3      12.306322136867349      13.683422567292652      17.003588908287906
  1247   3      7.9401420786639489      27.980344782633601      17.940727920966655
  1248   3      25.571939191026519      9.3738389580172488       8.281800614096289
  1249   3      3.3448055244942263      42.085235677057767         45.279982088371
  1250   3      32.019929514715407      39.872037277997478      17.898941859139185
  1251   3      2.8915538353410772      12.607733375851261      40.621137140748132
  1252   3      38.872923035886231      34.675360467483763      31.366405909590746
  1253   3      1.3396173766931811      7.2355965564227063      15.902739664508299
  1254   3      12.440633271528821      26.059172459698605      17.050111657486333
  1255   3      12.997965547383901      15.249821587949599      8.3513976751709489
  1256   3      24.210333941452134       22.94043202732491      4.9026874864071068
  1257   3      14.917900365726551      45.699411211548593      17.673483125103598
  1258   3      22.307681617114639      25.170910356783633       1.410445344627909
  1259   3      22.159549658613269      26.853637170462246      36.223839280411752
  1260   3      5.4833610727113653      7.1091782112207795      44.305037624115286
  1261   3       42.53853003656458      21.702056342775823      44.603272883019805
  1262   3      28.910937687887106      24.815411143638311      43.858733604354342
  1263   3      3.7917925598884574       19.88320176112444    -0.70425925387989596
  1264   3      33.517773174825749      5.7120248890178438      40.075198822938681
  1265   3      16.467623734663167       46.67361765380889      32.159497015810338
  1266   3      31.781346192376127       1.431087314519043      5.3687406037292282
  1267   3      0.5842144160680498      29.357347980903345   -0.056104961217218155
  1268   3      40.258970756210886      47.995909763282135      32.167713553211883
  1269   3      46.379363418455405      40.947092611288006      10.191407526386167
  1270   3       1.437425782768734       5.751871183672721       13.14041103512718
  1271   3      23.326536680841716      8.6233946857664545      35.362773659410315
  1272   3      14.050568127295181      22.743356225488863      26.922626768343758
  1273   3      21.858215153361289      35.467423555999844      20.646383783598896
  1274   3       27.60404548004713      32.921234268192592      22.474177695370514
  1275   3      5.5181384218594642     0.87605592272591715      35.409949910650191
  1276   3      7.3858551058868116      26.644126740120353      5.3837020398462325
  1277   3      26.530695897436988      25.377081498261603      37.024315877794784
  1278   3      13.950727999826844      37.128746337882347      29.496532836867146
  1279   3      2.5321230817015588      8.9572889190691729      40.221589927774588
  1280   3      46.625358168253726       14.19059291736645      10.461027045930798
  1281   3      42.622073950490766      14.290803787443352      4.8970158370767489
  1282   3      20.990709433227718      33.065433322021875       2.682015137701057
  1283   3      30.480177362683811      44.793911302768812      16.842726206323846
  1284   3     -1.0859972966429181      8.3089588462284087      20.413008549286317
  1285   3      23.814983698383589      34.582359061003167      9.5278936707270692
  1286   3      35.033285797199596      30.203575508882526      17.357288765151498
  1287   3      14.528320450128581      23.944930627470185      15.046046835765301
  1288   3      8.7490595958735184    -0.98533674424199125      12.613064578551757
  1289   3      12.335274716438157      47.006482110843407      44.827871392538889
  1290   3      40.992584604531693       16.66732068127067      22.297548273366989
  1291   3      5.3373484760833216      16.721552037417826      35.956249990498975
  1292   3      43.438598071502909      6.0205750019747013      34.273358370317219
  1293   3      7.5076131111905484      8.1000553194459535      29.753560898320835
  1294   3      19.334122997228594      21.366238642480724      41.862066943507841
  1295   3      39.015842013130744     -0.9565089200084721      24.057274485629193
  1296   3      39.366310889437365      9.5720180148281742      31.700238474574743
  1297   3      2.0062137260284998      15.795727716433699      19.464538640517155
  1298   3      28.208251551209209      20.721860045337497      19.903670330628564
  1299   3      38.929201774272421      28.728801750055826       13.12322296335164
  1300   3      8.5162268432227286       33.32849795775634      38.238411116335847
  1301   3      27.472885632298805      47.078258122739101      32.960911561897788
  1302   3      9.4900320417416673      30.090760564953907      16.983739787337012
  1303   3      35.508143505448572      17.768696434538327      9.3134498089995823
  1304   3      39.258365526978807      33.830869986636273      42.874075411778463
  1305   3      19.962242295683584     0.31532140982724527      14.160795272720513
  1306   3      19.849997423981613      48.645928935910312      24.552618784832934
  1307   3      20.758335079681792      20.606960724965674      22.582902252698698
  1308   3      33.554771300260064      47.519880396345641      2.6575394468714517
  1309   3      10.598209883094759      1.5697854393761688       46.35515892891943
  1310   3       39.63093835973298       7.075926358859177      10.823641578308594
  1311   3      25.414291362035279       33.14853282442968      25.810309748554907
  1312   3      10.726602602371258      1.9135091240875528      24.926403673839793
  1313   3     -0.6897778685136764       26.86047855803406      14.330683280158764
  1314   3      15.434176180282531      45.414529156206505      20.826640191156393
  1315   3      21.513869264646768      17.997006252781002      25.726297433170227
  1316   3      11.930418420472236      34.756325154332927      5.8452788608800592
  1317   3     -2.0500664623887124      17.634196255065564      36.795722435876016
  1318   3      10.890740645758191      20.758378581958006      25.752205452508651
  1319   3      11.371074950362825      9.6601813428222751      35.546035453514328
  1320   3      20.591112129903191      12.564947850996836      37.707784960159323
  1321   3      1.7012766854463715      40.713007747847691       33.33423759445111
  1322   3      34.161613599163104      3.0941073893917328      29.317227667289426
  1323   3      19.956263281304867      28.367165609450709      25.660847835001171
  1324   3      21.242590041582876        33.3815103274666      23.833729878861284
  1325   3      41.143027277974603    -0.95472869078469935       26.22310433348882
  1326   3      35.085472500990676      21.950795059213842     0.87489242883908602
  1327   3      4.0256612481051954      4.7041609027291251      45.921903611584177
  1328   3      27.068793705498532       44.04054607629989      10.403567768477526
  1329   3      23.861604645342258      46.186562761424007      8.1953916604509534
  1330   3      32.061202320286085      13.189799374066382      9.7542149129785045
  1331   3      32.525927679555053      40.647824935921001      2.4173996448956592
  1332   3      37.395415254867558      40.519724197999928      41.072977454730108
  1333   3      37.491849314576484     0.39751622745709631      21.638914008666571
  1334   3      31.567496165488649      3.4426792827730459      2.0602876676977564
  1335   3       32.67015841470873      17.934084608168856      4.6261402187005416
  1336   3  -0.0089003654179787058      10.527511661728235      2.6614497172499836
  1337   3      3.9837393293510925      8.1828131919072913      14.267791225081252
  1338   3       43.11018817429057      7.3284972811026066      4.6004457985695204
  1339   3      27.681478077861115      40.289206426388652      48.523823245662662
  1340   3      15.404789143835291      6.8971294260216318      21.925773292847861
  1341   3      44.203932323618275      26.390563495141546       40.74670561363267
  1342   3      37.748921250915949      8.2156682006177402      47.502897369069373
  1343   3      8.9244700052830392      32.050087415842967      31.093275151415721
  1344   3      24.291051670822565       42.80186480918865      40.561524295500845
  1345   3      12.488107191719065      38.527028375963148      26.089596350372695
  1346   3       46.78606165646972      35.301914695826554       47.89101718796973
  1347   3      28.946781977842811      27.908640685990385      45.284414061545704
  1348   3      24.054699503629838       8.353108120604098      32.539988092897367
  1349   3       36.21585264864509      20.523764062764776      25.422776359274238
  1350   3       28.65638887214056      20.277989287841944      3.2989385198735621
  1351   3      27.165933086758493        13.4899331488256      10.202346707204136
  1352   3      20.913770502378924       42.87880510134886      22.838775737616817
  1353   3      29.421326090781207      14.909756200612964      13.700139691132822
  1354   3      4.2382617775312967      16.198903007533023      22.831327194968875
  1355   3      23.653046993199428      20.453872648415008      27.483640824635135
  1356   3      45.288612558070838      39.041755969945278      29.786618307519742
  1357   3      39.093866640013012      20.189007546509114      19.260131584865039
  1358   3      23.818677260044289      40.843330371100741      44.383329610878107
  1359   3      11.156944463536087      31.922876117281074      3.9439201043342713
  1360   3       23.98184717922506      7.0948008625330212      45.947727818656794
  1361   3       22.46489795626297      25.410618726813588      36.298932759415166
  1362   3      22.935542308348541      9.6020314644500449      26.719814799980998
  1363   3      25.005279090261123      42.443828527953222      19.329098074110934
  1364   3      30.891187816441729      17.512583481013007      40.939713237061355
  1365   3      46.278888907874254      1.2132448257850315      43.331245564614335
  1366   3       32.73007912437533      35.031236608645983      5.0670892973680086
  1367   3      38.546357293486523      40.767767864249748      45.660530383253743
  1368   3      44.756661854713698      22.797375096186947      33.913218427612733
  1369   3     0.87399164016886743      37.478783561044303       19.62761996307616
  1370   3      19.700659877679985      1.4916332454715462       16.46725194672463
  1371   3      19.177676520705507      34.749520184912704      25.698291032122381
  1372   3      39.532319976928378      43.568620751034778      6.4929549519062615
  1373   3      27.872172812203534      19.530228077151971      35.149816485424893
  1374   3      1.0565174900953145      32.636344770096109      43.506463603483454
  1375   3      30.803611591269195      32.429248989583797     -0.1768726971350443
  1376   3      36.251839126470749      38.797823057681697      27.052406383984952
  1377   3      4.6297072850094851      18.346659869150759      11.155267862354757
  1378   3      3.7142423445663413      30.854518065158413      37.220459337588217
  1379   3      9.0377036294327233      19.588253288627733      5.9701358470300585
  1380   3      5.6955266021318751      17.664194615661714      24.804145310529968
  1381   3      38.053406540861594      26.107866829999349      32.817547657810231
  1382   3      5.3593711756583442      21.903900158500122      23.625895577865517
  1383   3      21.414545413890568      11.725484765218221      38.309781137256415
  1384   3      47.407328940751107      15.900749109917138      43.325872505344634
  1385   3      6.3967253750581321      33.396192513931318      11.697532509364402
  1386   3      10.478759564686632      35.521577857246768      11.054768079655673
  1387   3       3.569552456501806       30.94953268461704       20.37474636834953
  1388   3      33.168028411263371      36.998035457639546      17.890474158624993
  1389   3      45.386225570129149      14.176233592973226      16.511626710768319
  1390   3      35.263450017645837      34.833958307733241      37.256769085514442
  1391   3      48.624643021752782      5.6294155619466117      32.230300102220625
  1392   3      6.1097871233301664      10.177611388549277      23.708335177479739
  1393   3      20.434441431152337      30.229500247041077      6.1117645391218787
  1394   3      15.406209789814405      10.024270521345027      34.619387339491986
  1395   3      29.815803714066138      36.292590865020706      10.868489625325973
  1396   3      3.6991915790173384       14.49263734370521      15.326595766346955
  1397   3      22.844808490753209      18.843537375822194      20.146058875854212
  1398   3      18.142574927480819      29.514971430932111      36.474237881692545
  1399   3      28.399902811199357      7.2131583027249233      35.233272520426901
  1400   3      17.211398624860674      4.6994557670953485      21.351191480830323
  1401   3      19.753067438194559      23.444167147214646      10.263026105001298
  1402   3      0.2034716833097584      42.620044001433456      17.062556978308198
  1403   3       5.685160491002323      28.705395540640588      36.922466917951446
  1404   3      5.7605498343208152      32.162715078555088      38.600826341659726
  1405   3      8.5943859085977081       28.32436258587737      22.911945617567667
  1406   3      15.862053484948271      17.597326578259565      27.743021699562213
  1407   3      9.1367838798261563      46.594887269395088      44.992973356326473
  1408   3      15.595092029730344        34.9595733744219      10.471521866927404
  1409   3      16.707697546731286      34.022629637955795      2.9561436870879012
  1410   3      24.156770285560377      23.253438984230634       26.65442208546251
  1411   3      22.809670237805953      20.895546840855108      40.019107520933616
  1412   3      9.9103721337204611      30.154953927726609      25.245109386225206
  1413   3      28.974641547721124      30.728999380182593      46.327424103824924
  1414   3      5.1376223772423959      30.886822477871391      12.332823384744158
  1415   3      3.9148726618863221      32.045308992494554      2.9284187169582765
  1416   3      40.853302780757616      28.159353339683765      31.898352604491947
  1417   3      22.053756334593672      42.588614426962003       8.607423846294763
  1418   3      12.077913348640102      24.953556535020727      16.612757448847795
  1419   3      33.405073692445598      1.4358975238869902      2.3233883043968477
  1420   3      39.828621515281661       20.94828991042997      39.569610686013348
  1421   3      34.952777604177463      33.237772897216175      40.003027323389489
  1422   3      42.743116676989111      6.4209199711572644      12.743912588370899
  1423   3      32.566109065240418      28.586284012034302      16.775850717093142
  1424   3      44.078127772782928      40.486938619252143      37.699854293966212
  1425   3    -0.25864937538095251       31.26038689846267      33.965402814007724
  1426   3      39.910789098797871      24.755619833569998      39.163990947928021
  1427   3       13.83017683682742      43.445603065490033      10.845955992828335
  1428   3      49.150328529778371      25.076909916931683      16.521853287688934
  1429   3      3.4961826095437325      32.601517443774505      11.545440105109465
  1430   3      24.704214001420425      47.325266815162216       34.87125563136226
  1431   3       7.507436148483837      37.834738711824286      33.809490749755135
  1432   3      28.062218071556014      10.004336714220029      49.038075701949708
  1433   3       41.38659751575188      39.065991056434655      2.1586285665701719
  1434   3      12.152581600582121      47.146799550092901      43.368516125547735
  1435   3      38.255603922780239      21.841560902749631      31.958081377261792
  1436   3      32.908500622495843      35.359911766890974      20.601720211705675
  1437   3      46.847619964560209      41.271913984020678      9.0831952183425209
  1438   3      29.138648039047546      10.113150320553043       34.95749001798918
  1439   3       45.23603275889468      21.870059372756177      22.734107315453731
  1440   3      46.198682412266145      3.2504047672189276      39.333359576325051
  1441   3      20.495040347243165      17.493778517595189     0.42965443166194262
  1442   3      8.3081241454302823    -0.30941177370751488      16.198620049689122
  1443   3      18.915959668234493      7.8132085501104251       44.19418367078373
  1444   3      24.282312029128875    -0.58676792420889956      14.509660684506468
  1445   3      39.145956876419525      41.524994225324328      28.481523274816972
  1446   3      32.507859801154424      1.8228829916011484      6.3134000219279338
  1447   3      16.743672270176315      20.939944523648478      11.585470464269022
  1448   3      49.633660627325568      37.413837054726734      10.600615992495257
  1449   3      12.487130330540849      35.532990278271498       24.28300314004057
  1450   3      43.495991827697061     0.70822082796020069      40.161707398684634
  1451   3      5.3499930178862725      17.646304585535205      7.2908697476097926
  1452   3     -1.2011434188881058      39.264405066652905      23.575671412607608
  1453   3      38.683085553696351      32.222095744129462      24.610338580025477
  1454   3      33.636643075108701      12.534810881185392      45.445142599820279
  1455   3      20.460527317091945      35.528537888878887      16.995685766590828
  1456   3      41.710777786873997      17.769910451458003      19.732258587096947
  1457   3      16.001105631300195      34.545834604654772      39.513654309116887
  1458   3      10.510882745591664      35.357500372930474      44.553640694227767
  1459   3      22.506005547108469      29.983293606826425       23.63487657635924
  1460   3       6.058944589134712      44.040505270243671      38.263434501760543
  1461   3      17.765963443481233      13.182872577593107      37.129471054688871
  1462   3      9.5619217328755077      41.355864677676756      12.352097350679312
  1463   3       37.92391599338422      30.150366053315484    -0.28228426147154362
  1464   3       36.30698658051881      41.001494464565269      30.025621273303766
  1465   3      31.659789851459152      5.6514558462309772      4.1596586162890521
  1466   3      50.015158675293641      14.688023703799093      28.771993459094414
  1467   3      2.2919314074304946      42.749093893872583      48.559969911789189
  1468   3      37.824893914749502      1.0825247721659905      40.450895556318301
  1469   3      45.165573783176278      9.0459519350094855      43.894054301845863
  1470   3     -1.1179258516533481      24.245292479931628       26.95106741521629
  1471   3    -0.28478943070808621      3.1844241210463387      6.3366022379422944
  1472   3      13.936684461680416      43.007960464468141      19.856432882286231
  1473   3      21.343107319895093      40.257576760584513      20.035879729551748
  1474   3      25.272312844022427      18.199665589270861      27.083843236628347
  1475   3      1.4645608213510366      28.579436370807848      2.4530677219397967
  1476   3      37.045530418888937      40.140474935826795      30.516328611568778
  1477   3      39.785169710439746      36.945018906536113      3.3222097603520853
  1478   3      12.467994826902645      6.5558454533601722      11.249764977023158
  1479   3      8.0409282096639103      36.028426935336249      3.8653759676407118
  1480   3      14.705702269473397      40.929685254390641      32.076599575631285
  1481   3      4.7449982693889599      8.7309458948566316      41.114263773639088
  1482   3      30.726250589079676      12.411587971512356       33.78944281747134
  1483   3       34.61981214374886      40.662386867354158      3.9541613728555478
  1484   3       18.45270643306009     0.51934936155298361      37.282459541731548
  1485   3       4.316852920145295      48.475041638380475      27.910998436326938
  1486   3      17.013695856441309      3.9796922981661447      13.808441790739433
  1487   3      34.361804402445536      35.833542504250474      11.687338117652471
  1488   3      41.879999218189631      23.167125383800741      8.1530200218624138
  1489   3      18.721396865274794      10.319709568799384      18.795849095022042
  1490   3      22.113043705700846      2.5404808196270672      19.367623532774942
  1491   3      42.973933718682723       22.51354618046344      27.191334748286245
  1492   3     0.95213559991215158      43.935959323714464      19.371113952978494
  1493   3      45.275190376190245      31.923947797843951      33.428703919526761
  1494   3      22.154899888272844      35.922660572508491      4.8427423640621816
  1495   3      13.819510198924991      45.590633002983346      33.107300625158899
  1496   3       2.395083023580979      21.108109005719033      19.649762583829954
  1497   3      16.133628026687138      42.088354335813548      29.545102369217375
  1498   3      37.092654137844342      31.850972760081813      28.637521997426315
  1499   3      22.572204940968195      43.971123124886283      8.5764022272045519
  1500   3       4.069590472274446      39.579645856928245      11.079502529480918
  1501   3      32.772240133070667      37.327148243921521    -0.17411673192311844
  1502   3      36.459760785427228      19.956774383060541      12.602995813662385
  1503   3      40.984081502717814      45.645966472624082      40.574106979963553
  1504   3      25.198184705970839      11.511651347580116      10.846605783655159
  1505   3      45.784632438893382      14.269420009321939      41.968666076663091
  1506   3      43.876821394791527      8.2496983164655813      41.500757891598688
  1507   3      42.549150073142556      22.603650864757231      7.2745246294587211
  1508   3      16.684411314913831      18.401102750738776      31.637695661685949
  1509   3      25.550554473859457      6.9894353649805927      26.397060235713166
  1510   3      18.835454902679572      8.1487704936664294      48.491555218824878
  1511   3      24.951953380065817      4.6823123037674481      44.655326972821449
  1512   3      11.278235170718922      42.972637854981649      32.422802032205745
  1513   3      44.227914287119944      5.1419361587910322      33.381405569977794
  1514   3       8.789537983589117      16.840419778490684      6.6673030243441147
  1515   3      38.727954702973548      9.7053862194557308      41.607587076181979
  1516   3      6.4492963042898337      18.299644701411449      29.366288744591913
  1517   3      7.2334604747066464      22.716069584738825      7.3407415363462762
  1518   3      28.290277546890319      29.532622467616395      12.893356983996807
  1519   3      8.7727118632195857      4.5633980173607291      38.513173426975172
  1520   3      27.145837295965404      34.726871767776316      41.074205289330415
  1521   3    -0.69678632517890238      29.958729992801157       42.63910520526008
  1522   3      37.033497968303656      42.672601603728594      6.5119684936675686
  1523   3      33.491101415454608      2.9911151178788096      30.469758599745383
  1524   3      21.303782759315897      36.803768629163734      23.215928502217352
  1525   3      9.9499627865592668      38.768517494842577      46.268222305467042
  1526   3      6.4240900722889851      35.935903004710433       19.89038390242656
  1527   3      9.1967201364662614      11.665205416630748      43.308949659172178
  1528   3      39.710140207855169      15.545461245778819      31.077879356604083
  1529   3      24.791222419404132      46.604559000959426      27.347057549061823
  1530   3     -1.0177598483117338      8.4369454253271261      21.647922609435756
  1531   3      10.160003730600987      17.800128905120918      32.349836075978708
  1532   3       11.27902369526849      24.185920404476871      5.9026307866125878
  1533   3      5.6238953908670064     -1.2858348526236989      20.673388959275783
  1534   3       16.01087398138537       42.45412542574087      17.754023412583695
  1535   3      8.8515993509021875      13.971197411354192      16.464322092601755
  1536   3      21.021133638301965      41.161433214340455      47.063277353310497
  1537   3      32.122015406485659      22.082912426169344      16.997428510249733
  1538   3      27.215262822785384      22.361164445556543      45.754761919806214
  1539   3    -0.89982102922218765      11.023975199901775      9.9133725330778812
  1540   3      46.034449205373157      3.4783077697456264      11.900750785031839
  1541   3      27.553506164589589      14.310186988160529       40.18591879206501
  1542   3      39.867249048001355      43.508058832146652      20.133676697932799
  1543   3      14.973743299753098      8.3499952265045891      28.338561103028734
  1544   3      47.943270983042019      21.617007795906812      4.9989893777641532
  1545   3      38.745460438383446       5.439436166027714      38.693581112053351
  1546   3      33.197075486200326      35.154070014112143      2.0598927088511885
  1547   3      2.1400847562596828       4.667216788736785      30.466316752714157
  1548   3      28.780181977480673      17.162368837116428      28.290178459211862
  1549   3      31.487516171201982      38.907666005157502      10.362703808155988
  1550   3      30.853293757075466      41.567156072114798      9.4595872846146989
  1551   3      8.4313190266029459      28.134666406686208      35.618956025217415
  1552   3      22.432194002203662      6.5216174250169416     0.70778706069151764
  1553   3      7.8070865624952024      30.253041749826497      37.881409154187807
  1554   3      34.563955841398098      12.315072650643952      13.528544472573897
  1555   3      39.398113195737373      27.413456308676313      3.2066557088638619
  1556   3      1.9582151035776048      22.303775976414911      3.2358352861471924
  1557   3      26.323622551033068      34.687655373031319      16.549395684322274
  1558   3      14.433571050254995      27.544952970073403     -2.9791014435172838
  1559   3       29.50308326605137      13.855353974353417      43.079424407282843
  1560   3      29.695017517580421      34.102890943089513      43.193766448808944
  1561   3      36.231622892291156      3.9659800561213521      31.575144293357642
  1562   3      30.079554567660921      22.648820727187914       36.79476131161033
  1563   3       23.92168978813179      27.391596389898467      2.1584150630646284
  1564   3      10.381978898699547      21.849595744255232      32.275914091797922
  1565   3      6.3202064430653069      5.6723472327909148      28.912718289817445
  1566   3      4.1379854167318282      29.142928236017902      28.067183255408374
  1567   3      40.568061823907676    -0.10644042911394197      40.941425402846313
  1568   3      47.917458443904806      43.646763332519086      41.096078243872192
  1569   3      45.997925080906434      12.484320931349012      34.825204775113065
  1570   3      3.7326263858399105      27.879035516766628      42.737857869184595
  1571   3       45.33686872203041      45.829055780891117      41.665397983874783
  1572   3      40.368017791801748      22.790225960829183      29.036104652792247
  1573   3      6.4135490785775158      15.167755646911454      6.3911470509550128
  1574   3      44.631010209615567      37.093185487194162      47.139401371622647
  1575   3      25.781726996422044     0.24562073796285028      4.6960137862202442
  1576   3      8.0025447302216133      19.567447564124688      31.012927796327205
  1577   3      24.202954479978789      39.326581182658735      38.742909047425961
  1578   3        44.2462700984469      40.422733878397153      2.0033409518598755
  1579   3      2.8404827341864434      17.909914677508592      9.0230915492366979
  1580   3      2.4464032420742687      22.775376201773788    0.077987161977541519
  1581   3      6.2306373523888627      47.961503909496713      17.846736731326111
  1582   3      40.981369256996857      9.4407292692224694      33.807837430776715
  1583   3       14.18743140604861      5.6355161600886197      41.255323339850904
  1584   3      23.420596140396796      29.434439828971357      28.421812102043152
  1585   3      26.628450093083543    -0.15652844848404684      26.751998476770467
  1586   3      25.754160662790351      25.245671941427929      22.700654890936942
  1587   3      46.174207060263875      32.514414946312961       39.51353639019424
  1588   3      48.129461229647063      39.129856445601831      1.9618293603953814
  1589   3      2.9869526660283441      7.1749661519755614      41.822970951663919
  1590   3      12.224114116759685      21.067509829568106      20.306096309345939
  1591   3      2.7715139248607179      28.392982378064016      35.987234333235982
  1592   3      6.7680737217433879      39.343991029152178      21.376875715358597
  1593   3      33.448556891904708      11.053177661510666      15.428027172951467
  1594   3      30.547765028664493      18.475830244753116      36.631178982616916
  1595   3      30.511414674029545      22.187197391802652     -2.5381496249539617
  1596   3      25.035673676608397       27.97920024860268      8.1329834133191596
  1597   3      36.101360326529424     0.18172665639623842      13.251054538362286
  1598   3    -0.36757383621559714      43.141304321698641      38.646074425087058
  1599   3      3.1221711676807575      42.689331619632156      30.407938404188464
  1600   3      12.731518522336478      15.881327045003545      7.0417994276316316
  1601   3      23.697556018914469      34.522082690100795      2.6837464761855592
  1602   3      33.865384829719893      12.973301755991571      1.7613055979329642
  1603   3      44.535978597166881      48.820771476564268      19.662168895886275
  1604   3      11.883974034591914      1.6303894346349361      19.330953419281798
  1605   3      30.794650494636468      45.618430977255194      25.393224497822988
  1606   3      42.361004537729741      5.6166845755816484        30.9084407083534
  1607   3      4.9310422889837362      39.829784694105726       46.73148718313422
  1608   3      19.341599549167551      34.392315494853776      19.659180384270684
  1609   3      18.990160136012801     -1.1847726182370113      33.232195103351806
  1610   3      33.890311682326093      10.542061689950609      32.693683513773067
  1611   3      1.3018940474099221      44.218589940712775      31.872425115363065
  1612   3      30.977906530793398      20.199699038766042      20.863332335736061
  1613   3      30.524438054250137      16.314596695037245    -0.27987313122061735
  1614   3      25.653637472402849      18.885427905179085      18.853403067396666
  1615   3      18.753474159631832      32.774745363359358      17.361800440052967
  1616   3       47.16041825346398      2.4071428964147454      38.881312118664795
  1617   3      18.648821823808554      32.868620585674364      16.018376289557661
  1618   3      4.8377913356339661      32.456902798975221      5.3555411954983327
  1619   3      30.343648728279888      5.5283018351750446      24.153222446667716
  1620   3      10.601910708413046     -1.1300508122801232      27.229665234798563
  1621   3      49.444897388310466      39.587881035438969      28.003493369811373
  1622   3      21.397701309846624      45.209579743635544      24.286817478033875
  1623   3      6.5500514008629374      18.228316036014057      6.6520089011711541
  1624   3       48.66361375983324      43.149983136211709      28.884112012381749
  1625   3      8.8966478636507329      10.311600809989438       39.62278192414005
  1626   3      30.568178439090712      16.603498536827068      26.151813118089965
  1627   3      26.552826536872612      22.236395428468775      3.3605781247681232
  1628   3      16.914366277722777      29.763499656605436       31.15459307199534
  1629   3      48.378297753901059      35.369231063889352      33.952749602934723
  1630   3      23.999323104202677      41.232752341576962      28.581130343793923
  1631   3      11.099002321038483      2.4083099486895678       11.11050441524988
  1632   3      37.888792664578389    -0.20207820428211148      39.690829007951422
  1633   3      20.013491422235163      20.236449422010505      31.898371082524683
  1634   3      7.9310505467295878       23.09298439671894      30.464783454583653
  1635   3      36.975972022131977      7.2465335593416489       9.730207263945184
  1636   3      7.5223707365548922       30.97265002088978      6.3579276573579886
  1637   3      3.3466578994840086      3.5285207785297676      36.153175750183593
  1638   3      46.184182821599549      25.649282267344731      16.739672926083486
  1639   3      32.009468415271257      36.709405847033416       7.468599352666117
  1640   3      42.031688397923141      25.524207375449656     -1.5538601075819611
  1641   3       39.05745425904658      43.105562059600054      16.241087114009019
  1642   3      37.368083398314148      17.296647533421794      18.544319946273024
  1643   3      47.569891662879158      15.394471473926659      27.442135641887713
  1644   3      19.676666922360724      23.356079221424121      22.862619174109071
  1645   3      1.1749282972300739      12.148185748862193      43.874898968205187
  1646   3       2.182395842811796       39.68684140480206      25.244724102524231
  1647   3    -0.54058566907777916      4.3625811254044509      29.550074463654429
  1648   3      36.152349716189171      32.108786121041931      47.466335324064538
  1649   3      43.778766491516315      16.921638003205747      10.315396362837095
  1650   3       19.30961592304174       1.946465360318764       19.52534353878303
  1651   3      9.9025383690974209      34.232035993200633       40.68612995173735
  1652   3      17.701458308424225      21.399826421691106      33.778399859604924
  1653   3      4.0657874970287331      4.0259399760832988      14.324374677195131
  1654   3      23.015616535704332      33.285837846839016      44.059581242129248
  1655   3       14.80454034123346      20.885741332346687      37.681550677747659
  1656   3      43.811567265948113      33.419244246160439      4.3281351321431663
  1657   3      40.545340638390591       12.11247664660511      31.362610493915231
  1658   3      45.876683000230166      10.860285977297801      16.330602985036041
  1659   3      6.1918556184104006      13.063589440653587      14.802400998885915
  1660   3      40.831816760214856      45.288851923258306      32.606984224467368
  1661   3      22.449086402989362      33.437730972683646      32.607576275959019
  1662   3      22.767411145699864      8.9587094089625143       38.59342378603435
  1663   3      12.075886055641881      24.099958739717824      31.653457514266545
  1664   3      18.743004028797248      41.874127833357413      31.064916942544095
  1665   3      24.413214373699265      14.956118320984807       46.55900848972783
  1666   3      5.8427698075039034      18.766134467515407       22.02166037347936
  1667   3     0.74833171863406311       29.94630556095154      20.171704582057178
  1668   3      10.163261395883771      8.0120744724696902      33.150344183310111
  1669   3      43.257221726897193    -0.55599807217293618      6.1546278924361735
  1670   3      39.914587201338875      2.1531820079401536        32.4818083210682
  1671   3      31.849760741415515      5.8878029422118807      10.610650717073785
  1672   3      28.642857558826201       40.07518601134602      3.4973174917169327
  1673   3       36.41637668189491      34.248708384209955      22.380851833818834
  1674   3      35.440650386532582      1.0563510420824342     -0.4483925098472426
  1675   3      37.602675093091364      2.5060922131104215      13.870243839537579
  1676   3      21.026723111887151      48.194448654868772      34.984086612962507
  1677   3      14.440961857731146      12.109325666746251      33.024196213124434
  1678   3      7.3129706396164122      43.505385159596067      38.617914437905924
  1679   3      32.821430688605155      28.822359040450927      38.709925034801401
  1680   3     0.72127851279437893      9.1612214325708194      5.1286971876861855
  1681   3      26.893470271779321      25.030477585848264      46.661546430014965
  1682   3      12.525728101843114      40.485394782097323      29.922443161309932
  1683   3      2.0546265532200181      36.282471273909827      38.746542918722305
  1684   3     0.31269644657322948      19.145321921892549      33.448781531694841
  1685   3      7.0498437285333919      6.5345826053857943      39.665676102313554
  1686   3      30.919651073647913      15.901740311706758      31.858432124069406
  1687   3      25.127471932089229      35.232478488513841    -0.52668480986692912
  1688   3      38.538607855454643      28.318240495362602      2.6598480247525487
  1689   3      31.040921065724497      38.441678469251293      38.574265112318244
  1690   3      21.514501498324346      1.9936376907783686      25.371281750391166
  1691   3      18.978506607895412      33.731952796619012      42.307672745001938
  1692   3      20.485969213297121      25.109641439617036      4.2202430872118288
  1693   3       36.02849249963532    -0.25405963582470836       1.885466957163866
  1694   3      45.829092401933281      41.959681817639776      39.862422243745513
  1695   3      33.866094451543461       13.30883629470379      32.676191954804196
  1696   3      20.357257794207275      7.0529775402778547      31.531053134029214
  1697   3       19.53111123914746       29.99867493313749     0.74319315706608158
  1698   3      25.218363755826488      16.632165974401662      35.101748217777967
  1699   3      2.6015409585086386      28.424509736135775      42.579581232585468
  1700   3      3.5004199914961061      13.187646480828127      24.365285055885366
  1701   3      40.482103656154585       47.81094456640205       13.26663586636616
  1702   3      17.796289799032348      37.939220564340332      47.153485429884697
  1703   3      16.277786243708452      8.4705473868711092      2.5841355535057504
  1704   3      33.890938999822581      37.006812147635252      37.594891668142232
  1705   3       9.774965577219854      12.777493702812857      42.991439575838548
  1706   3      39.970102118680678      6.9802551087525604      29.931144127244199
  1707   3      24.187887319355241      14.451000770838752      32.286987707160804
  1708   3      5.4311739558003733      26.786483783507574      26.952148613302175
  1709   3      11.488061564774458      23.168963056565527      25.737391104213028
  1710   3      3.1818243192734319      33.501508455844494      38.500545097753218
  1711   3      35.182402955983434      36.986090647460102      33.388448074969013
  1712   3      2.9630328374273542      41.595785983429657      27.192858706798621
  1713   3      45.494870565195022      4.0786327879420252     -1.9112628590223972
  1714   3      21.068415402130373      10.446025434531373      41.677652326439528
  1715   3      45.931197141802002      29.181843020896231      44.709119052610731
  1716   3      17.098987588548496      36.040195629260516      25.758896718254036
  1717   1      27.874785659155734      22.257738819196831     0.66162611663077531
  1718   1      35.996620232609764      8.6623439824804933      22.116660219394451
  1719   1        26.0874071743286      5.6307600197880712      10.956264123955034
  1720   1      34.266926094718698      28.837934760780136      14.562434100996295
  1721   1      47.120148092428529      36.726556453380397      26.141700422811471
  1722   1      25.003734663996994      36.098152087316628      23.010107255509595
  1723   1      11.587910726607365      15.462855425213869      38.247694063144287
  1724   1      30.605892271983919     0.46817564552424928       34.80551440461074
  1725   1      27.369963681717497      8.4077853751191007      29.756910892179206
  1726   1    -0.77132699494113477      12.332025449512095      29.835919440103343
  1727   1      18.542677361694263      26.063696713643626      24.588089811933795
  1728   1      18.882632770091902      23.647168829454319      31.870178037327296
  1729   1      17.664818354389627       5.435903357267156      7.1035947518320022
  1730   1      46.231589775065856      1.8638709436171024      22.945238757461091
  1731   1      8.9745864147887868      43.257536691726031      41.323674319815694
  1732   1      10.286946361548589     -2.5758156330285469      26.525465606646723
  1733   1      29.865352653736359      15.841791354301785      17.783042344476172
  1734   1      48.641173338577389      4.0232055786545189       3.354407763904216
  1735   1      35.450329514949914      18.184231345105513      42.228183777139854
  1736   1      44.899399480872887      2.9589970074095731      7.8385134182240526
  1737   1      37.562841320866973      14.233121482174823      12.112734843848381
  1738   1      28.270198578112954       17.32145647437585      8.5421481914775548
  1739   1      5.6382479835908548     0.69649498360361994      46.997812184114316
  1740   1      12.521009731561811      9.6959351748716216      40.204647277371649
  1741   1      47.578453531284161      18.839213876897027      7.9752568322708619
  1742   1      22.014333609380955      24.353699946849179      15.658176721388161
  1743   1        15.1679604811169      28.665582192804543      35.595877415884942
  1744   1      32.330665369285278      43.726516784241063      20.620225716325805
  1745   1      3.2904553418909512      28.978744531674717      17.216029139720018
  1746   1       11.02340056664638      18.548791094453073      8.2867632419594113
  1747   1      37.375594072576149      33.633134434624012      19.184071801076538
  1748   1     -1.8014757046826835      20.992057212905639      27.505011036401509
  1749   1      31.281776656506441      13.388034778872353     -0.2827760805377561
  1750   1      4.5884123127080834      32.507069035478388     0.98320015089850299
  1751   1      46.058572189517506      32.094368293615318      36.493256782655294
  1752   1      47.178099997110053      24.783872753007067      33.511112404754144
  1753   1      18.781628640153698      17.001412361686818       26.72918702596618
  1754   1      47.103596974001114      23.481351875647881     -1.2308470498832786
  1755   1       21.63591749433569      45.173090421014223      27.821039470149714
  1756   1      22.774823411699895      41.691703018825031      35.071609349825913
  1757   1      6.9614680039005616      37.170364104387708      28.898081636179242
  1758   1        43.2498097141155      25.565910520647243      19.968123444253763
  1759   1      6.9080958081170527      35.611611435621789      42.104523340532076
  1760   1      27.259760142602506      36.342806512210934      13.944457698458688
  1761   1      41.696521818123834      44.140053651797501      36.498545635031903
  1762   1       38.09379714488437      24.593400641780402      13.141368651385683
  1763   1      5.0588869701617964      5.4114770278590711      7.4407356302437373
  1764   1      25.201555775606092      27.244980928253856      35.652041453176409
  1765   1      20.338794488484805      5.6648713672584439        32.3211469056059
  1766   1      46.534070555595477      5.6619125522939315      36.268022355281126
  1767   1      36.872344130512474      16.830518064127258      8.8530716439804689
  1768   1      36.865656148508464      31.314489948629646      2.5833266571086777
  1769   1      24.573621208622253      16.022160811715427     0.77215848813007326
  1770   1      42.545293875610568       21.02334998036735      24.321042757918956
  1771   1      3.2277446041140605      31.757372307432007      14.919150450160396
  1772   1      26.098209911504316      8.7771938028747432      37.284126955826103
  1773   1      11.176269466636539      15.317923898965354      30.405550241366274
  1774   1       34.24230817257655      20.356163184686597      46.190120944880562
  1775   1      18.607968027624011      25.349585055385131      1.3741813551480633
  1776   1      43.397159499216528       5.834784949049844      3.8924324185059094
  1777   1      20.734727273832728      47.465610748332821      27.999801517529356
  1778   1     0.49248225689558173      34.506887463625226      20.440331120965592
  1779   1      14.372437996338109      36.166857131935487      26.687451131021568
  1780   1      9.5160867410957426      45.490512408711574      43.835791846380964
  1781   1      21.698314165058786       17.64736194658683      20.472715168391098
  1782   1      6.3654808971349528      7.8111728820781634      21.587523105768682
  1783   1      20.813916266902382      22.213050771059784     0.14113910607327027
  1784   1       11.94435817548605      13.426932029798325      34.908395386486092
  1785   1      27.660358632956061      38.148855822882155      37.700625861950975
  1786   1      24.809748655409155      28.076729674860982      31.816583067844952
  1787   1      11.500086426568924      29.508566221482713      12.407573541995719
  1788   1      23.351501974097925       30.85081687069696      29.374024584862546
  1789   1      36.049329170914916      27.807575694012076       5.517007063550647
  1790   1      26.452790852489585      9.3882418552288414      33.969496063518257
  1791   1      6.3693006377308228      21.629734047384403     0.97091597509115357
  1792   1      25.038282427762724      24.856590540104868        24.2004884450376
  1793   1      26.025190541616105      40.200902007994415      5.3118226226993901
  1794   1      46.301129012541509      32.428276566148803      12.574942527952695
  1795   1      22.081478103389699      31.357245385451286      9.0343506649980441
  1796   1      15.570138547191775      16.892607995982178      5.5357624192746462
  1797   1      40.973440898276685      13.279669786313976      2.4731841693759367
  1798   1      40.199300900790107      47.539952506549007      7.0357509884794318
  1799   1      1.2476959916575874      3.4046229323931647      20.224925304050945
  1800   1      3.3034843301066221      3.7806084637818791       3.948741753313505
  1801   1      12.969333084606756      7.6280363282993768      37.349539878484009
  1802   1      34.762261947742864      16.555471182943496      25.632390298234998
  1803   1      29.169159252194397      20.103395995207904      39.384569830113676
  1804   1      19.576254202264423      29.057940024807042      13.815372037212779
  1805   1      44.440953459024477      17.043059208659901      42.877722607163804
  1806   1      13.214335834945881      3.3888609616301006      7.9052751643946788
  1807   1      46.598995067483891      2.9912397456061508      19.735246007330275
  1808   1      37.816883474749844      6.0529839532061507      25.826848646488113
  1809   1      13.077304539835291       14.12779853451366      23.463435909881955
  1810   1      19.551985466823314      41.381875720401261      8.3178674666909238
  1811   1      14.108663630672034      30.121956008895701      26.728797738730286
  1812   1      10.909644364331925      18.372594346918255      20.014669275918411
  1813   1      2.0172251984348768      31.030690479887838      9.3290206255817516
  1814   1      15.520034868118033       32.21453476192282      41.489000278690476
  1815   1      14.490858465111376      24.173266241791346      6.3472791278967753
  1816   1      23.345226277993504      13.937933472960344      10.361945796706701
  1817   1      44.714693824127671     0.53969780815595125        43.8391405199025
  1818   1      35.718361139597484      13.434203126295014      7.2444746626226992
  1819   1     0.17275178658966789       25.63288166866462       8.837894793749701
  1820   1      21.531266230298112      46.510970095456173      12.538722983965865
  1821   1      23.102270955334109      38.550314173892794       48.59763057313495
  1822   1      40.397598427461212      40.285586362904759      11.038078098781238
  1823   1      43.878492090915493      4.2926615757094746      14.711606944776682
  1824   1      32.865108824878227      18.422012444511232      18.923441147409633
  1825   1      45.139677791346884      25.927322449978689      6.3530668416666716
  1826   1      48.354852771303207      2.8846105953088266       46.18457752985033
  1827   1      17.219623670622678      22.120359609332773      8.5423788715863012
  1828   1      36.202052446352916      15.011979689030959      15.105386638503576
  1829   1      43.709867209536185     -1.4795251625248818      11.852288393808941
  1830   1      22.047216058433143      37.968691718559583      34.673151726889856
  1831   1      14.231393227520867      44.566892365353709      43.809119948191899
  1832   1     0.11820479271586733      24.400371456029269      5.6908600030917862
  1833   1      39.911892975272103      3.4362838769528263      3.5105756533479613
  1834   1      21.412987744285466      15.461331879831613      37.633929403046572
  1835   1       34.11881039898428      31.943094301904445      40.505978006443073
  1836   1      23.450719102188994      31.002763952461954      22.808904638034669
  1837   1      5.3443712745413077      35.553256320342363      34.576078586249565
  1838   1      13.001067660544583      7.3682431869483231      25.833064688793648
  1839   1      4.5153128991959663      20.754302190693135      26.594453526197601
  1840   1      27.877021676899364      31.838913660417802      18.271780635024854
  1841   1      45.222781386327448      43.859234545434752      27.988737142243707
  1842   1      11.725622008783699       37.08505093203933       18.30966195263272
  1843   1      18.985893197303845       29.64321793948848      46.456333504565109
  1844   1      30.651115397741382      26.840442513326376      3.5731776071417727
  1845   1      25.633152367801401      37.503196282219633      41.110700862297449
  1846   1      7.8867789132478032      16.688741975552592      19.190740084745915
  1847   1      14.362332476020946      30.966987991560661      15.143736086970691
  1848   1      17.096469205888376      22.473576506006005      11.894479660053021
  1849   1      7.3391483329895468     -1.9771497618567815      10.005563870156884
  1850   1      28.991594842978557      38.309522427003699      24.241651029002835
  1851   1      30.166686714705321      44.025423282516343      25.014166098485369
  1852   1      30.764709270013054      40.007727488062187      47.169996586713275
  1853   1      42.689736766247385      47.483346675049354      30.639400459216514
  1854   1      26.160877986430574      32.611756631199626      8.4435635359970451
  1855   1     0.29979936609346514      42.513230302948493      51.003304194360794
  1856   1      19.730025854274654      2.9141969834210344      44.445186211646977
  1857   1      41.281006962187007      17.557136698107445      28.425877080794674
  1858   1      44.847538023911227      31.528174937478248       27.14330924511005
  1859   1      45.323402207962992      43.664126580165586      30.495603778104307
  1860   1      23.105609890701324      7.6802952653561887      42.723499161414864
  1861   1      43.320932169980097       14.09160299363521      44.035422891698381
  1862   1      31.865474652541874      32.247766891160765      44.331676986230484
  1863   1      43.298056024182017      26.764378151745642      16.874343071542402
  1864   1      5.1647508203400356      1.0622849057072528      31.479252983872364
  1865   1      16.814958615741634      36.865493378193506      33.757668274845287
  1866   1      19.522204210374543      17.395499745219936       44.05017484896306
  1867   1      14.710601586634713      24.542508084655982     0.21637492989851898
  1868   1      11.080674456893057      47.226522721274812      8.5073575282147669
  1869   1      27.732964969384234      46.863148275236959       28.83018250905879
  1870   1      33.884980239895178      24.617217183843159      2.1879933991122216
  1871   1      43.980692898020635       27.29490019888437       33.69613165984331
  1872   1      16.205225425314197       8.823906661140736      42.891293144404543
  1873   1      33.926490974753783      18.104464099280708      32.220168264377826
  1874   1      14.183481104332197      36.084899978687943      3.0807047945273998
  1875   1      20.884105993101727      28.807269673047053       6.882508549509935
  1876   1      34.659671553385081      9.9191751025116819      42.402903739311256
  1877   1      34.510635572692173      46.553818561906638       11.70460872175464
  1878   1      2.8927011363851549      43.155225963554514      23.753138679089258
  1879   1      26.980745812610124      43.130725254436491      23.578930770316234
  1880   1      26.995118833004017      46.116717078006154        14.3713861512649
  1881   1      45.428731167858039       11.01671652447688      41.650786041305018
  1882   1      21.080487233405645       35.83182509966489      1.8201583256949958
  1883   1      41.157935224803609      9.2334173760306886      21.649966149403756
  1884   1      48.845366798749048      28.057391444426855      45.046266200897684
  1885   1      25.623133504627276      13.908110688335553        3.08349064693483
  1886   1      20.741862944743385      27.330617937193882      47.963251714060362
  1887   1      4.8495614812047707      22.680420945312434      31.327070173307042
  1888   1      27.729118696645997      21.542977505626268      42.290529887933715
  1889   1      12.954781399436781        26.9982697374734      6.1749776067597386
  1890   1      18.683455948007737      42.580257904823966      12.238586268558159
  1891   1     -1.0903915202645436      21.396434400147388      20.169062196813826
  1892   1       6.866169853839267      36.698907816830022      23.134440916481452
  1893   1      30.331569980409963      30.432926514964183      31.999496074329421
  1894   1      20.927822554173343      9.6747445368409721      12.405829371027911
  1895   1      10.947049791618486      35.958682304002501       38.37247137522359
  1896   1      25.563453710151503      29.281508769190793      17.867004657064491
  1897   1      11.241126055434082      36.242221128769586     -1.1217950889217148
  1898   1     -1.3455258712342584      37.000967699588024      31.488495773864372
  1899   1      28.810367226217707      31.880699968968472      10.752582349307925
  1900   1       10.56458498704218      27.798055861132593      19.591362467735035
  1901   1      40.178355663723352      18.934485956316177      3.6449003939549374
  1902   1       43.13405874569154      34.950279371720633      21.399293869730268
  1903   1      22.791935488564629      2.1709691782068261      43.721944234888028
  1904   1      31.472516248210066      20.873047711906171      42.778087208441306
  1905   1       0.845440490621437      27.577769943758732      39.101184450040051
  1906   1      21.508005539631636      29.492951586430493      37.519850004281771
  1907   1      26.523671479596924      47.886635974733061      46.264252755801103
  1908   1      30.261446769969293      40.014605511355818       22.31581802273169
  1909   1      8.2727380383540012      41.168386065402267      36.134461166999458
  1910   1      28.352601216499171       40.27277368081905      19.273199816735676
  1911   1      24.711160138934982      17.249589282062058      23.446312693004622
  1912   1      32.478733989320531      32.085114247757694      34.859897099048503
  1913   1       21.66348954615815      42.655977364888969      30.243038091494526
  1914   1      22.566778363713798       25.34024845738751      30.462645491481542
  1915   1      15.945685683171028      45.898273066932234     -1.3856267820567045
  1916   1      1.8640691165441676       31.86848234848949      17.983849425379081
  1917   1      26.037297626526438      9.8109177586943943      46.652919348909293
  1918   1      40.627416219509946      37.404496373701193      15.814172519974131
  1919   1      16.241689227101112      26.690674317477999      27.026901179325851
  1920   1      9.3584820917023865      11.501133078960931      27.448453098641089
  1921   1      24.016054989464198      4.6910238073276229      16.064269611996348
  1922   1      37.415465520121764     -1.2159763772127248      43.484735884272403
  1923   1      30.406007694822403      24.662453771887602      43.047111768717201
  1924   1      35.938120851211927      43.735592496012345      27.959329528277642
  1925   1      35.748407741118648      32.873322175791472      28.850865959775803
  1926   1      41.673859734806783      2.6096057988212484      29.814535584147322
  1927   1      12.847270371300377      33.453866092638258      39.587472131752975
  1928   1        20.1897840339605      10.724211639379169      26.010254895870812
  1929   1      17.660134567292747      29.516901912918314      14.744663777602776
  1930   1     0.85342318789153304      22.510735158716226      17.782805052939931
  1931   1      44.444773679872476      14.310955977267874      37.442367383521955
  1932   1      40.982113565252703      28.099081712627672      20.314762676886595
  1933   1      18.386238430474535      7.5088244033961127      21.530725383201531
  1934   1      27.658997873640011      7.8796220691436281      15.630058860017316
  1935   1      8.5018860675040013      11.069874782977806      22.022080530820144
  1936   1      7.4613054521622315      22.632936683342969       40.87883800664229
  1937   1      5.9540708759614827      28.623610677486287      30.881199334716943
  1938   1      22.661445807672056      29.370778536840394      19.728844659819451
  1939   1      1.5409531513592691      15.814504097740183      44.434674641097608
  1940   1      20.795059223855549      40.437041582236745      13.818088148307607
  1941   1      1.8503864452662335      22.718776786190261      27.358573842150435
  1942   1     -1.9466005141160279      33.768607798870711      43.160621129434347
  1943   1      16.701310117063137      26.447260175162569      30.312682149444328
  1944   1       13.47846378736852       34.16803386816418      12.317850591586438
  1945   1    -0.23147574581406058      5.5286445719860113      25.392275720830874
  1946   1      26.046575956028455      17.208786486713191      29.616532345628009
  1947   1      24.833215776708411      20.494133929378872      34.018347077865045
  1948   1      21.831636076798446     0.52010079062404324      8.5419266259551101
  1949   1      22.927880785870421      42.551956732141356      41.552254680406755
  1950   1       43.22737403673225      41.090304555285286      9.2335615096690447
  1951   1      45.322759013241964      43.883481380187789      25.759957594937084
  1952   1      36.642290301185362      18.068943242809478      5.5035068779004135
  1953   1      30.343261315921357      34.545451389092811       46.13791785522907
  1954   1      39.190719382767696      9.9431335261329679       17.99697835440103
  1955   1      38.937376085822784       33.31036733108963     0.21655332617398276
  1956   1      32.401342464716684      9.8561825107729728      6.8653199926001269
  1957   1       28.69276212298778      41.556340138559591      22.916663151909805
  1958   1      35.245509917311878      18.604950565227941       35.20646893761635
  1959   1      2.3505240034527937      38.263274985475604      13.248353408904126
  1960   1      36.318544815304854      27.184368621348678      16.543981297322262
  1961   1      40.602352123105582      18.182966648412208      42.067018351024196
  1962   1      18.450169453237155       5.967226113949879      24.361060068576613
  1963   1      46.928600060510263       29.06944433965705      1.9309560107332122
  1964   1      5.3195251962581569       11.19697782776127      20.742783489921415
  1965   1       -2.50170906541815      37.379822670334406       5.018642673737534
  1966   1      34.663306358005094      43.604114152998307      35.763625362463905
  1967   1      38.504071377795988     0.44692490052493644      34.713132571999147
  1968   1      4.6587990006079405      39.341199079161342      29.711122025512253
  1969   1      24.018196845203377      26.468578673818048    -0.91433281445785186
  1970   1      28.164632954597757      22.915048709247174      26.377252008136043
  1971   1        46.1054869358939      40.462202323342318      33.766544349291607
  1972   1      24.323869571015234      6.9992128539977418      23.487688731709163
  1973   1      41.819902060880914      13.312691696131827       5.929572269757176
  1974   1      12.898544079332726      10.825155851932644      44.430195862663126
  1975   1      26.505014257637242      1.1218365495140847      29.907721186401066
  1976   1      9.3238619624531527      24.311636353338983       27.49915934268126
  1977   1      38.295451593498449      42.697416957917547    -0.46868821076917938
  1978   1      36.815723376892237      35.989550075953261      6.3859193999748474
  1979   1      37.486735832198235      30.958633354295998      11.010920836853352
  1980   1      27.406899343460363      17.133320743277082      42.082181283782525
  1981   1      37.263400457598841      19.393292720217083      11.302772145879548
  1982   1      30.985935482915078       33.40375609034745      19.112585503215584
  1983   1      1.1653894808347041     -1.0066849321816096      8.3124732766055285
  1984   1       40.06062483546016      28.417020420384755      35.342359501083969
  1985   1      34.781085807826912     -1.3627705112281276      41.025616720660288
  1986   1      37.416801434153953      20.063208434107292      2.0282711591810627
  1987   1      47.487249724439216      7.0543060083222286      4.1620607902850351
  1988   1      7.1378559024970798      29.678256702799992      7.3407590900294553
  1989   1      29.550650230356023     0.12753314920405873       26.15857986278986
  1990   1      15.525060622772866      23.011165910201118      32.194159633287022
  1991   1      32.767848914860863      1.2425197860837782      24.680931378336346
  1992   1      14.298057455379217      48.618876267717624      9.7969080771358446
  1993   1        23.7751614950466       3.879374902244999      12.504195807795547
  1994   1      6.5435538321586648      19.561875475051156      30.344326445641865
  1995   1     0.66085322532309065      22.284049854185291       8.403135734685133
  1996   1       45.53625203244269      42.960825622264608       16.93025608185199
  1997   1      47.508442959856843      11.803108074465083      5.1237009169839514
  1998   1      41.650313892923307      9.1647009323278663      36.704702046350263
  1999   1      37.568358251195555      31.613094066866861      35.793998778554304
  2000   1      28.203141928423701      25.247419481447476      13.947205016649436
  2001   1      41.611486446718487       5.903319088819627      23.688919054043101
  2002   1      38.727342807711338       16.69103804654031      38.301493863719699
  2003   1      7.8360141392754441      14.356394824001686      3.8449183633114998
  2004   1      19.789006819584085      37.437630399709832       19.33792916306982
  2005   1    -0.43162876234440845      38.631589031805639      28.772376323261948
  2006   1      10.120302147730348      43.191661480712717      31.211911415666272
  2007   1      20.749231356791121      15.495210283522155      8.8666141934019933
  2008   1      29.368234901322467      7.9224410634837232       18.45293266272661
  2009   1      26.430684110580081      10.151259444059374       25.61308097099209
  2010   1      45.927704250266558      22.283811111192815      24.159983391586529
  2011   1      38.535206279251213       19.32218555227697      20.502077750297762
  2012   1      38.923934197487135      25.694812933561924      24.361631618500066
  2013   1       5.204636368506022       43.45022471184798      41.730541588036594
  2014   1      10.017672158134644    -0.47439108931946572      20.979388846875835
  2015   1      28.823292775345962      47.971669142566235      23.111415130877397
  2016   1       11.92832535161039      31.011455644504586       7.906450598989136
  2017   1       37.55647658198118     -1.7915519055979612      26.931957293126661
  2018   1      5.3471831034321546      42.325314137263312      6.5943731556911844
  2019   1      25.439030601275437      35.695342608746707      46.751919168083155
  2020   1      9.4486271392150805      4.9720987990574601      19.125143484065688
  2021   1      37.093013549919192      44.325252841254546      23.738001692152455
  2022   1      30.665671124264414      29.535508227384994     0.81538592229224527
  2023   1      19.954300713712719      35.025532924414513      28.607400604008518
  2024   1      25.479677042820249      11.637671423683177     0.61177483681708289
  2025   1      32.002904753677207      29.785585785699777      7.0217678484106782
  2026   1      2.1127188462423092      31.708124005947031      23.234407784608088
  2027   1      37.520331767637259      1.7698236426961449      7.2033695689579069
  2028   1       24.52436686102229      7.8638559264075525      14.469231551970612
  2029   1       10.57536078743342       37.81674796986961      2.3111830811300274
  2030   1      8.0687547366845855      4.6644039016167973      41.897034564469067
  2031   1      17.980372217525815      29.528444982841876      27.891913574309417
  2032   1      13.823703284219315      24.509181368988351      46.020657263993854
  2033   1     -1.7928987347952197      37.728665951541586      12.326350761676679
  2034   1      29.233468613473239      6.0887718511093105       9.584294865236485
  2035   1      39.021882160582635      24.217023687261495      19.551932198832887
  2036   1      19.544487495703962      5.2839849877961944      42.270933184238757
  2037   1      38.834330451318252      29.422834504181552      42.733478114957727
  2038   1      28.249574990297628      10.500945410421661      10.529201057679856
  2039   1      10.006740958948541      11.765268460803956      18.568091133908421
  2040   1      12.341043405031309      18.404281548251454      5.3660729365424489
  2041   1    0.072178886851931259      27.605788530145713      18.320586896214117
  2042   1      22.365737153413235      45.343574610090414      16.940421045143101
  2043   1      33.238669361744208       6.728390887034994      28.400286525740679
  2044   1      30.943548393775568       33.28774505458366      3.1096283401985634
  2045   1      32.382851487577589       12.04315658008634      30.096565231843186
  2046   1      32.546429700318114      16.293481019526475      21.659808473845239
  2047   1      31.704895647572513      14.207271417201177       15.54881764101677
  2048   1      8.5772799770985397       4.602050029390699      45.643552811460339
  2049   1      42.549149375431575       45.82173943249817      15.613857063038758
  2050   1      17.058834269440116      25.880181483677003      33.720908105934569
  2051   1      14.060002122549349      17.493874365625057      24.029740998404606
  2052   1      24.373955320382073      4.1557688033738422       25.52840053494711
  2053   1      3.1592515623009092      15.069189788462346      5.1414798296026589
  2054   1      4.0918276921732888       12.78490694440481      22.908232564113579
  2055   1      15.162421361485544      22.978078234748246      21.285266418875089
  2056   1      32.723049433835591      43.802734765898734      45.691445134573549
  2057   1      26.914425822742405     -1.0552320147307439      7.7498107617228023
  2058   1      18.156378910918431      40.197417511491395      28.275670751965944
  2059   1       31.40936943066836      3.3892314584971248     -4.6332072149587171
  2060   1      2.9277633325240795      46.373412606510378      30.345084413779464
  2061   1      10.698576717165871      21.944988079084403      14.026228509480976
  2062   1      49.026850807452675       42.11866351975852      25.370715114168863
  2063   1      47.047102028842247      2.4399985051895827      49.201267241373486
  2064   1      29.742364738849318      25.531181608894947    -0.12556413959107399
  2065   1      26.509253396146192     -3.1574053075732933      1.8200462117058525
  2066   1    -0.16465806130366287     -2.5230599828792242      42.694247353980558
  2067   1      19.931743622249197     0.73162169313208925      28.200776101621461
  2068   1      40.254558598926096      12.466724588103254      11.180818482943559
  2069   1      28.853936153382438      40.135727657918522      40.124351306407689
  2070   1      20.286759152815673      3.2198981054888267      10.398142932458281
  2071   1      5.4540657619330153       17.20990182555618      40.332008907580487
  2072   1      21.405941015389566      22.041303847464015      6.5183277698242881
  2073   1      27.702199972478223      7.1719943428043935      23.937692650028669
  2074   1      23.569849837859678       42.92847668784372      25.724915770337407
  2075   1      20.220977622269338      6.3617861541392111      12.384689110937904
  2076   1       38.49014417346519      31.669661944214166      39.416389903150083
  2077   1      42.809499481581106      14.258415673839126      29.675604199160812
  2078   1      31.860511596751891      17.953696056691779      28.824645598707445
  2079   1      17.643753213915002      32.835472785890985   -0.018927090355761116
  2080   1      27.167127554386933      44.811627945589429      20.066379430001007
  2081   1      38.982016781512492      45.508959058498959      18.077685517656157
  2082   1      37.446995061991693      2.7316151113420069       17.16184087534695
  2083   1       8.278291264734273      21.588830800416062      43.986612420832223
  2084   1      16.056599601133023      9.2963144826946387      35.928282396045311
  2085   1      43.745635885352542      37.001822242199879      17.164719610623397
  2086   1      14.505538206972863      39.727774749798684      16.906529809854749
  2087   1      13.402090688583627      29.551459045410979      42.082307653082822
  2088   1      10.806447839035854      36.986440210517593      28.100163674821424
  2089   1      5.7127264838866934      11.290603169801793      30.329053024157695
  2090   1      22.364169207935081      34.933571956881138      46.405987121640955
  2091   1      31.641003133868921      22.944954199575172      27.163843476730381
  2092   1      32.318185193897655      4.3035121099129565      26.107970710197996
  2093   1      38.568675314495444      41.648519905638445      22.112518631602338
  2094   1      6.0303189389876284      2.0946072806875109      38.206990999170813
  2095   1      21.905364522565367      32.963361122023883      35.452760438556602
  2096   1      33.291331775621565      20.967485930773748      36.246296759297429
  2097   1      14.944121988878059      19.287142925193127      20.440975318699049
  2098   1      7.2619021213067905      38.702405138758394       11.04241913045435
  2099   1      33.688199658541762      31.197616536762091      31.614131757463845
  2100   1      13.386258795744338      10.720672156710737       24.85551475883058
  2101   1      31.991836085809211      32.926162404647293      37.899021454088604
  2102   1       10.36327530190202      35.995598250812293      35.139779361776675
  2103   1      40.141076622792419      39.441160537419428      36.810979763987639
  2104   1      2.1976263064135644      29.954517344363211      12.502204776147709
  2105   1      8.3656452446638596      8.8306588279589402      16.367864552996281
  2106   1      34.222294071947964      33.111544729135424       13.51144511762803
  2107   1      13.123637715113285      -1.647407156977662      14.555747298521508
  2108   1      29.390592759438523      32.388656467473282       6.817020091755805
  2109   1       16.47382198123859      31.695695092110942      7.0885943876561832
  2110   1     -2.3764381200475246      13.061815653916607      44.784194415332969
  2111   1      21.821500519255409      43.609718455785639      5.6983474179491731
  2112   1      4.7111049361529522      19.417583087330588      34.594592705197016
  2113   1      34.847329197909673      25.845068744815848      8.7068018436716272
  2114   1      38.879729793915985      22.966492262833736       8.896212358640371
  2115   1      5.4827725824103162      12.091516243166541       4.945842496439373
  2116   1      33.554783601941701        40.8930390173063      8.3749157275535193
  2117   1      47.500651295405547    -0.93559693473320193      10.958850309862834
  2118   1    0.034566556114912411      2.2482832329778666      36.045113363993941
  2119   1      28.172997585745392      38.295555370934451        32.3652745195403
  2120   1      31.015222671727635      17.725154550331236      35.328900070258364
  2121   1       43.60870464905414      15.083899236858056      19.315851445494324
  2122   1      34.748652073665284   -0.055028496662180432      31.843606108167528
  2123   1       4.560287253675261      29.753848598580724      40.068501071168612
  2124   1      44.240655769158231      8.0586868024509002       44.91204621808928
  2125   1      28.532707485397619       18.79444288622971       49.28858860156798
  2126   1      15.998416580943548       23.38945226615791      35.543335825470081
  2127   1      29.459021940185508      41.394425839254964      27.378913753670986
  2128   1      41.363065471441942      7.3811325228760882      7.9869779434655959
  2129   1     -3.6183686655312415      7.2176741173113204      27.479908309765424
  2130   1      31.464337752383063      6.4554331881715283      45.558892669879789
  2131   1      34.317987605856366      41.606385169461625      38.629446872118827
  2132   1      7.1876539662807533      2.1230385010839226      17.826550115242721
  2133   1      24.474145794808855      35.405472218205936      33.639166903540719
  2134   1       14.77713862304077      30.767490712830295      38.412382361268037
  2135   1      1.5735660300979553    -0.81814859672193951      26.023281052119675
  2136   1      42.852780433878252      44.062112420288628      21.453770759184906
  2137   1       13.14324243202911      47.780001438939053      36.062638252494736
  2138   1      37.661508814214358     -1.0161516072174841      11.028758921456863
  2139   1      41.989669974215047      12.329063651118496      35.643935852232701
  2140   1      40.817470926212089      42.863782109638841      44.436010609276089
  2141   1       15.42406124413699     0.64755778707988165      17.715844070109402
  2142   1       2.849933108769533      8.2799879481846901      45.803575679304771
  2143   1      1.0981349623399441      32.060030862468615       5.585105171970711
  2144   1      8.3815134572467276      38.494645996644579      18.909320869882784
  2145   1      19.296947227290154     -3.5989189259317009     0.23438459588132557
  2146   1      20.065918557647354      6.4611018183996443      35.907372963983278
  2147   1      14.724961080905112       16.99407374304965      11.797318359677973
  2148   1      11.967660353128558      40.875667095483998       23.76696546298032
  2149   1      37.816566656615201      18.006802709515661      27.414840158468635
  2150   1      16.284632870294963   -0.048181933611088835      23.628799623750368
  2151   1      4.5680171787439443      28.903855416853872      24.705693668953444
  2152   1      16.549750407657477      5.5438470557318009      3.6048589069591297
  2153   1      10.464393326188027       3.848874922043096       34.54856697800615
  2154   1      39.325670907244941      12.813479933906164      40.859961486858765
  2155   1       2.987133431619128      19.383958908444541       23.77737603481372
  2156   1      25.623691909327899      17.889189560082905      44.876463596745424
  2157   1      15.473273415405911      20.510774157911026       15.57918310611803
  2158   1      4.8470481017430931      12.083916938672134      9.6748767355782999
  2159   1      29.545132590601074      4.6580538425514195      32.971340583909416
  2160   1      4.7570969579323465      35.270431775406749      6.9340172147602503
  2161   1      44.083734619305901        1.72659756770225      32.082632380235339
  2162   1      37.244414236903836      13.967015651394139      18.499747801009573
  2163   1      25.672209591204656      30.755491252925459      11.375534694933016
  2164   1      33.484984758498513      14.919655783799977      35.944167799275689
  2165   1      3.1466489900167471      45.075731668883854      2.0747819540610517
  2166   1      12.108703731951735     0.24977079960062482      15.141708017683525
  2167   1      19.321643002340668      46.612439315504794      40.039849012747943
  2168   1     0.58668412824146865      36.253250705878102      6.6178250320445455
  2169   1      5.4621715431129436      17.006475664317652      15.997500062344882
  2170   1      5.2377017497072176      14.365017206941735      43.257600207571052
  2171   1      19.093942056667853      29.114845943336213       40.23342983804902
  2172   1      2.8154507186539264      29.321735639256001    -0.61547221023836207
  2173   1      14.329616324444014      32.308316434010152      22.031438889978588
  2174   1      4.4156309609104376      9.9660395812805298      27.557081381851752
  2175   1      14.907115202392934      20.150114201668433       29.67215305345502
  2176   1       44.62711982262168      44.985588445604556      46.423311498249006
  2177   1      17.595120792520419      13.188129733674947      43.925909756838422
  2178   1      26.414106835894096      32.008455063285531      5.2237924863561664
  2179   1        38.2122650423293      17.189019339093651      13.554265625049487
  2180   1      23.911663167053138       39.68492666648077      43.214482866641234
  2181   1      10.870223015000729      41.940927528759701      20.097395879331682
  2182   1      14.322548294874222      8.3818104777461855      9.1048607424201702
  2183   1      33.834905128447893      9.5872861522991517      45.602127971477785
  2184   1      22.572191464822968      17.625134213242795      28.739776055427196
  2185   1       4.172248179391473     0.72135411460704479      24.755458746963324
  2186   1      27.356021128634946       29.89922093938635      39.873864789723534
  2187   1      9.3264082557022494       27.30298374485287      15.195200217767843
  2188   1      46.887862364414985      13.623781075233124      25.092596283035931
  2189   1      36.131777208396358      33.387110154796162      33.059948901918531
  2190   1      20.931622486338348       32.71966510761284      38.938047416398405
  2191   1       15.25635856226749      45.225167940004006      39.952076290403745
  2192   1      1.3684221700131676      14.971317286647182      25.746212634381259
  2193   1      18.400035023130922      8.4722283986518701      10.442339263097075
  2194   1      9.0457774617918503      19.215272735921527      23.002266627905293
  2195   1      37.305434308862537      45.724598057785549      5.0863934867005041
  2196   1      38.119683770518577      9.9854707870068946      10.872200278605188
  2197   1      20.853999116336233      7.8323971030676418      18.678313227310401
  2198   1      19.463935099509385      26.396005047501891      27.789345812116387
  2199   1      35.214717716862864      42.017478491405861     0.88717903565233747
  2200   1     -1.8682133704382946       18.68107878207238      3.9437111830569682
  2201   1       19.45091681091133      21.371398646802717       25.37342346969956
  2202   1      25.137150395375699      39.111431438214076      19.258418119149024
  2203   1      25.519411963225238        37.8727110495104      16.223874386437036
  2204   1      8.6866956767120254      39.599141125676198       48.80028323594712
  2205   1      35.593660761187181      13.215740109755011      42.773682061436482
  2206   1      36.971699357776977      18.585259992016258      23.307273800012421
  2207   1      13.249372709883268      37.966168507915782      21.944733706038015
  2208   1      24.711359442152339      32.758863912649986      19.990844498200445
  2209   1      43.913756238486378      30.984913313333603      20.487908122501302
  2210   1       20.87954611792431      9.7558382449887233      1.6145293060224442
  2211   1      10.392446518047597      37.950695997858851      6.0456900536215068
  2212   1      45.388388904173425      29.224729035137415      41.584866008691314
  2213   1      28.952591085965693      37.927508965169515      6.4867374304415817
  2214   1    -0.28392569165681147      19.267351599360364      13.118132984879352
  2215   1      6.9300945016545832      39.957508514599098      39.983263943681294
  2216   1      4.9992905586676732      19.689720179307262      38.061196424239228
  2217   1      40.566388766486078      37.829905447220227      22.359962152381961
  2218   1      24.535405023464442      32.173127398380245      24.390306486444786
  2219   1      28.434102448171913      21.961012754737947      16.623122599501954
  2220   1      12.716748089523916      46.023360208641051      1.9448227757959908
  2221   1      37.116576481935766      36.227391806491049      16.602716115705533
  2222   1      25.502802373669887      20.104186735711806      11.433470974700752
  2223   1      3.2422428567986437      42.598479330840703      17.154467477440065
  2224   1       3.669699047666815       31.38997155710377      44.321596247334526
  2225   1      3.4691501547261492      42.861662508664999      9.1021859038200503
  2226   1      2.7406949646799874      42.079958923061717      38.715792161837896
  2227   1      42.130177670364915      27.489884975295542      24.245600354060958
  2228   1      5.6890868489387829       2.700058828516184      43.534985111882776
  2229   1      21.119633412687424      39.233236169795795      10.784207084204539
  2230   1      38.167224708876347      41.884107706862011      36.278000930905669
  2231   1      32.922489125097108      36.899091513278606      24.838533631031186
  2232   1      43.903158720072057       40.13939645619935      13.427209250509906
  2233   1      25.846698636636777    0.054051999604357054      39.591897356819082
  2234   1      31.847112390104797       40.15732300902873      5.5305044447350005
  2235   1      2.3346583587379528      6.4971685720406844      37.550000558130407
  2236   1      38.883833652980172      19.845187991860278      34.728620812364703
  2237   1      11.811391694754963       45.09157783471904      41.417723769017329
  2238   1      17.503660472566523      42.010451515993175      25.636137613457063
  2239   1       7.711379427159466      2.1034336408602101      27.045820478709075
  2240   1      11.290226594215289      35.323163387452901      21.190606754718658
  2241   1       16.50207711177282      18.451053596408777      35.001864618147998
  2242   1      3.1195324450632964      19.751554942921963       44.81119540142133
  2243   1      35.215713762740414      24.737291346882408       25.71845898017968
  2244   1      25.533785164543513      5.7871264364180419       35.17580601824563
  2245   1      41.854559410273559      3.3730206879895936      34.567146763629239
  2246   1       1.494098270359651      14.566803406669196       49.38454944805946
  2247   1      19.934841990843708      25.371206435306579      37.984062396697908
  2248   1      13.892943173443076      45.262177703179432      8.2382195039674837
  2249   1      26.513651303312155      4.4164842161434219       22.69777634686324
  2250   1      33.173029992558334      34.151447602228785      23.356568271845362
  2251   1      12.382319910483941          9.894410766539      27.746043213491653
  2252   1      31.728969474574754      30.290141965013841      13.087037813172742
  2253   1      16.589789765350758      4.0551582176435499      40.412639577078849
  2254   1      6.5011961369964162      24.791359090953527      45.127209404102544
  2255   1      13.495222822665896      11.067649636874846      7.5385135989745242
  2256   1    -0.97510093456277747      44.923587117186408      13.871418948342937
  2257   1      35.443350626433144      13.336785477367608      22.339719953782986
  2258   1      35.496704381341345      8.7946186083740479        25.8284286397082
  2259   1      9.3501970550618285      31.000758496420513       43.69533039363332
  2260   1      1.4415359357247297       22.97859064039509      38.328221641313661
  2261   1      17.352556203675558      3.9322025662461884      18.391376264911134
  2262   1      13.291441832875931      7.5118012258588411       2.854670308588358
  2263   1      44.674196762890631      40.226336841099858      6.3516155456443606
  2264   1      33.908839373678525      29.877466085781727     -2.5736172672678337
  2265   1      29.473779776113243      35.331653520450729       16.40814464535023
  2266   1      35.910864880962279      7.3471359870340516      40.672627048023109
  2267   1      18.721335410906253      42.101333684591474      20.445151481169336
  2268   1       20.86531085472512    -0.66922220042675695     0.42393616169886722
  2269   1   -0.040431609165090338      40.402110423323769      19.228518936972211
  2270   1      43.266859916000712      36.856431751812785      37.840563660184657
  2271   1      16.808108577995728      46.702001156745631      35.264596888926214
  2272   1      22.121710392252332      42.842626050414808      12.047070056771068
  2273   1      42.126257846421304      31.733403374060497      29.435148137418956
  2274   1      44.215396953898399      15.824220037854642    0.052258369083223635
  2275   1      23.902664856837834      29.466920563521924      4.5985580372246284
  2276   1      24.548963872895975      21.211006028965347      44.286076897854983
  2277   1      26.605805166778904      25.988781207296196      3.0000272560046883
  2278   1       19.37852644290901      23.594221769437485      35.296431029154711
  2279   1      10.872176576501261      2.3593370090003751      12.757843173893436
  2280   1       32.48411580659436      6.8427755135601087      21.910882516468419
  2281   1      46.450986507036554      12.682960340056072      13.667734454375459
  2282   1      30.325798934176067      3.6507435204824157      36.083909117799109
  2283   1      28.260152778470335      35.740486514608989       34.50395847453828
  2284   1      46.843752604384797      28.011877054837502      35.329948214238549
  2285   1      15.387942994092722      4.5246884656824617      23.953136727854158
  2286   1      33.285141975464512      15.082143354638482      4.0555269176077333
  2287   1      6.7510842490814023      7.5125964401763516      25.804314356905184
  2288   1        31.1679324621783      18.664528943465701      23.506872614100089
  2289   1      41.899913074204903      35.649200263985193      35.023736926718783
  2290   1      10.189827934234476      30.609412797636676      22.017200251666772
  2291   1      13.247711542668664      17.087245809626303      45.161651897727673
  2292   1      15.667553797451362      13.507575927520941      40.700324865390257
  2293   1      41.483750106970668      19.047084243433304      8.7158024115789221
  2294   1      1.5193058412150608      1.1969853992925128      28.580669938786507
  2295   1      6.6211364817267615      11.508127888265548      41.203947304941458
  2296   1      19.956889146537659      45.839329147157088      21.427922303126657
  2297   1      35.258951019288929      45.690487320079107     0.95027446992941245
  2298   1      39.931012225270507      36.883686138247974      41.666533321300655
  2299   1       31.34459786945779      9.5655343932847003      28.082367269860733
  2300   1      28.337336036390976      30.495126795906867      24.272854503977552
  2301   1      10.468924918872881      44.470200487412548      17.780032827025874
  2302   1      35.617210904711044       8.396163595523694      12.463206206423431
  2303   1      27.070552675674616      40.619828704859025      29.572278959814401
  2304   1      30.331041200544046      9.6353197138837352      32.169448647369236
  2305   1      42.462410921552312      18.644532434891183      37.647269993834904
  2306   1      22.930893577413951      7.3980654245266368      10.795464918506438
  2307   1      38.542732739500053      37.124494853683323      29.317444112144816
  2308   1      30.528542838235754      44.739725543603953       20.55788390049128
  2309   1      39.459829318035212      16.592208653268994      33.999319144877752
  2310   1      7.4022236702036572      33.445343441921437       44.67595309006726
  2311   1      6.1577744443551943       28.58491194594404      2.5834490029465607
  2312   1      25.639776180437966      25.144328905530539      32.901960047988304
  2313   1      38.899327880200467      12.290702644220771      34.188378690417757
  2314   1      1.4030643123039082      26.755550502326358      26.504169822644393
  2315   1      34.754281469580889     0.96413935809803852      17.059663666579151
  2316   1     0.63647517721602287      25.590835807058198      36.420539967732914
  2317   1      7.5184145456440818      40.547549686144279      14.381365399463252
  2318   1      1.6097728841475758      30.999240205636962       39.45391788015889
  2319   1      21.079995543562145       41.33804859526866      27.084119212314455
  2320   1      23.613470325737648      34.137106013205646      29.947157863921149
  2321   1      13.374409311587998      23.482029107577688      3.3536741966218462
  2322   1      14.962673028156329    -0.29994939753603717      41.486111082270959
  2323   1      25.733230615336367       13.67208794804502      6.6108280651446343
  2324   1      42.557581727044187       39.04126323631737      45.334451982413704
  2325   1       38.54741924536966      40.460101327230696      14.521960359685112
  2326   1      22.263177949525222      12.453958538313939      47.996536731396787
  2327   1      3.4335656400847472      19.571935983810569      2.6843967015989363
  2328   1      32.190726571971524      34.638800972056146      41.642070408158979
  2329   1      39.581252093901981      48.220132335057727      2.7362826401104212
  2330   1      9.1160216790084103      8.4454911607126117       19.63043072182645
  2331   1      45.734109354840619     -1.1819717485586869      36.656121902312648
  2332   1    -0.80792302920380199       10.26974879045417      33.378338551238095
  2333   1      13.147764903451938      29.680795772686348      20.149550927506226
  2334   1       43.66359253356601      3.5661828903179265      1.4722047881631712
  2335   1      45.919821536618734      33.656504028150295      19.397271549424936
  2336   1      46.548441084360405      47.667598845753368      6.8433396743563071
  2337   1      5.7092019233441524      43.969192074666999      26.142314498602236
  2338   1      29.791863839243142      1.6883074971467045      16.815378377807942
  2339   1      31.025243116345969      25.138039334458522       11.24395684859909
  2340   1      27.455779150209178       16.75074054038382      38.053954648451423
  2341   1       34.52904775147374      17.012457924528736      10.735598301891725
  2342   1      28.684126831670874      7.5338753309251558      12.456986277901995
  2343   1      24.010404699706317      15.225677967600255      23.622929042438919
  2344   1      33.976461764272784      15.304020750257838      44.937197750121605
  2345   1      3.1065083211532332      22.876398813471535      6.2424035822727442
  2346   1      10.394818239607076      39.132074089776552      10.262228351124008
  2347   1      27.408419024359183      2.9139778779842418       5.537937498354645
  2348   1      38.652933098141176       3.164220245235235      44.677348611091311
  2349   1      30.672808601091312      27.334516246877378      20.207795783285878
  2350   1      6.6523552126604955      3.5838015836562263      9.7150417820436505
  2351   1      25.843523530855709      13.902410023577335      28.370940761904741
  2352   1      6.0061702226547462       23.53524596340624      8.0042477060364838
  2353   1      30.180415885096714       19.42972290846885      6.1242761283952643
  2354   1     -1.1541706412353687      24.906518263999729      39.175530278367638
  2355   1      8.8909385783061694     0.18472256822724151      5.3492733549127207
  2356   1      5.3680920490656296      21.826904240619811      46.091773888433792
  2357   1      41.341893160969434      15.550587523519436      36.434723001633508
  2358   1      38.184107295033222      9.5829898736616208      28.259831788904723
  2359   1      44.968681064024672      17.025107467092084      39.280301976951478
  2360   1      13.515415887993637      42.159308133341284      40.943669416866307
  2361   1      8.9179714085461317       19.72034995515293        12.6808606477308
  2362   1      38.921011627255957      31.621133034346258      45.591694374965492
  2363   1      9.9620089302023356      21.935853224242916      9.2696163087102335
  2364   1      33.092765571124993      23.874034232217888    -0.98696652094265902
  2365   1      19.638772691272457      2.5298990008448232      22.821052882601883
  2366   1       47.93844680926226      41.750327195333419    -0.84603028891410825
  2367   1      17.715339641713957      39.522488566914078      12.482470701533401
  2368   1       18.91041302596274      1.8852231082512683      33.687001627770101
  2369   1      15.183343342761946      30.355123885259648      44.909638427820489
  2370   1      24.465012748391224      7.5215806736045749      17.849606405947046
  2371   1      36.922334598188463      34.765461679275347      10.027965681522172
  2372   1      46.943682868873651      38.860277806253421      45.492106293901081
  2373   1      19.560041739534697      34.542097967845869      32.592129802046877
  2374   1      32.715223997637978      42.907641134781244      15.545853405342354
  2375   1      31.829055421793797      29.053235467305583      35.510240629437668
  2376   1      36.502914007885813        22.1492580089866      15.847686844375172
  2377   1      41.270866860633099      6.5921914671435298      15.527449425753296
  2378   1      20.153646249953365      13.520378815135013      34.706671632794496
  2379   1      31.066521678092101      12.150587602058744      12.925735169733384
  2380   1      18.503826068983173       7.517366786936206       27.34826062027237
  2381   1      40.409667609220399      38.485976607036719      8.2055320058385064
  2382   1      16.148790655534729        4.24160812953287      0.9326109101870399
  2383   1      9.1944528774673113      29.866699240985774      2.4546746958649246
  2384   1      37.843793067593829      28.526948353718819      19.849374932114912
  2385   1      12.108288181527397      45.020980470179261      20.818251961026753
  2386   1      12.890046508746089      20.906283339079991      45.189768940914917
  2387   1    -0.73326097189920691      9.0214998550554295      42.670470324862649
  2388   1      28.163325870344881       44.81001873026942      38.473042545410038
  2389   1      38.400415173124173      8.5121945097783271      38.661102343069899
  2390   1       22.81304053700913      16.667489195655563      43.484192393647611
  2391   1      21.754839724250793      8.6660823857196601     -1.3678978368686694
  2392   1      7.1980320068182397      14.943061932555192      29.968907171540806
  2393   1      32.342110514978764      42.903254714544822      41.808764324608838
  2394   1      34.987068430525042      33.289689436649844      6.9560331966955795
  2395   1      11.390140016001251      18.546873255711787      29.653277623566748
  2396   1       8.266750853942245      5.4016913652987162      16.035330814713422
  2397   1      38.466248152303784      1.3515496507589484      29.783570413127926
  2398   1      34.509735283380948      45.328197488088144      28.083791728478896
  2399   1      16.482230932448335      23.636286645474861      25.225606812172753
  2400   1      9.9707469457451765      16.596161541531124      35.504005800428992
  2401   1      3.6029877624025128      17.526118642085716      31.950047202580507
  2402   1        25.5548336326124      14.746092407359122      43.660698137310348
  2403   1       7.602399962014748      45.553280830512023      19.808007800808024
  2404   1      44.689583787505939      40.273603794968928      47.397112278071496
  2405   1    -0.33063178994564951    -0.77809431049190836      34.521100569439831
  2406   1      19.405167243607551      9.5941679901168708      36.896545813527524
  2407   1       22.39974534534278      24.537529651672951      8.8313634436464614
  2408   1      31.628879468833222      41.580521146038549      12.408463987734654
  2409   1      25.063874624929202      38.018502450865377      30.559408263087075
  2410   1      17.048508137258743      10.868900454442606    -0.34087085505327336
  2411   1      41.963697089238813      49.650733649585035       23.69686155759911
  2412   1      13.056903136801932      46.815680730488054      5.4655550690610903
  2413   1      43.567465524779884       3.232443439321639      21.585351565795392
  2414   1      32.222365392298876      10.299982841090426      1.8107144441484997
  2415   1      2.2645074067711368      42.058590445062848      42.369599774838335
  2416   1      23.765809298334766      9.7066964606166568      39.732309122407948
  2417   1      35.284070256212566      22.958350097654897      11.414391139656189
  2418   1       31.32810697104108      35.540059922926517      10.772686341969335
  2419   1      16.012085524928921      33.410033371109073      36.801850440591515
  2420   1      2.5142898483354421      3.0158341018397166       7.684389998791767
  2421   1     0.55729765068480264      28.339121220977113      29.463623635291068
  2422   1      2.9058604007157434      41.650501165218039      20.353139949868925
  2423   1       25.68847058392409      21.096302909991095      24.586425113464667
  2424   1      10.177811423601463      31.228450970340997      39.540868564018432
  2425   1      6.5938416933514121       27.08835248294217       8.594172464857861
  2426   1      14.576213524252696       16.68591896638463      40.490759426170705
  2427   1      31.308795888430534      24.651028703188128      31.825253533169935
  2428   1      7.8961700687645315      23.359863454067479      13.472942698574744
  2429   1      28.850421178956399      46.105990918006576      33.195003180750604
  2430   1      22.892357891055102      4.9243098654739228      29.697864913845812
  2431   1      1.4462021145375141        34.9894520270878      31.471395216959476
  2432   1      12.591676486644019      29.321109809101298       23.87923543535263
  2433   1      2.3705624233383924      10.887660813726123      30.938163328327629
  2434   1      6.6090040994077555      40.735781342599985      31.852248815320308
  2435   1      16.581939141524312      23.646067318727365      28.554236920705275
  2436   1      43.195163925028801      36.870050954206938      24.068324310482822
  2437   1      16.185873497909068      14.958379201454528      23.146501216732414
  2438   1      11.061339875069883       5.012755136240985      40.664074642905298
  2439   1      17.253270578230417      17.748553621901397      38.910128121015752
  2440   1      32.694934729393104      10.150367714696481      20.147954684676861
  2441   1      31.262091704744922       27.20604728538293      14.223127688528393
  2442   1      32.114829737618059      23.123222671152625      6.5208541730938121
  2443   1    -0.78369643158461244      5.2753985174505074      22.040027254479288
  2444   1    -0.87867472279644576      17.587757194700359      40.793581826199187
  2445   1      34.777515242428059     -0.2942978396201123      5.3062361413205679
  2446   1      27.748126103415107      14.714628974329258     -1.2392766189527888
  2447   1      9.3842616891683228      4.7929397576776323      25.227146377969049
  2448   1       3.237032805241653      16.039726800189118       21.20376453777444
  2449   1      15.964884464830165       27.59282911088231      43.171711363665537
  2450   1      10.793551050028052      14.877720806428773     0.53774778235830856
  2451   1      10.626667258164437      22.535084762919311      22.278074025980157
  2452   1      7.9173720686556841    -0.36645756321593737      11.455175023088511
  2453   1      40.219625376336374      31.459791051121279      14.480173525208487
  2454   1      30.141761366596224      34.662808710564576      22.408768033412567
  2455   1      5.9517959397341418      4.1416615058417809      31.749003879580719
  2456   1      42.943335648717671      15.226381716059064      26.277979288720999
  2457   1      14.710150370792853      12.832034863112879      46.461052759131789
  2458   1      44.962056076103025      33.840953555838801      1.3245750879143878
  2459   1      25.734590010590825      18.518635834727984      2.5100869088930948
  2460   1      21.772720223616737      43.367819099308413      20.062502914761371
  2461   1      25.060305414130642      4.6977160124927524      3.6124083710373491
  2462   1      34.423602223890065      8.7310033954215438      6.3697417041805293
  2463   1      41.926664609196798       12.99692817735853      23.136296732434175
  2464   1      14.692843879887713      27.897352004434882      32.364523863348992
  2465   1      44.095249432892871      16.914978068641279      35.385246232154998
  2466   1      1.6839505092122935      11.767771243770797      27.749610070605868
  2467   1        8.87231453633302      35.571971532396951      17.761982232796921
  2468   1      14.298857227624811      5.1327795057614676       19.40866893051874
  2469   1      27.831111123861561       46.46660909967153      36.604216028958135
  2470   1      22.521022184111967    -0.93973182315019099      45.344166459593552
  2471   1      41.451540385674186      25.373107443049431      26.767199331113861
  2472   1      30.374322126916436      3.3139979841780955      40.457965428038392
  2473   1      20.441396470101509      14.453659930922806      42.726428498039112
  2474   1      38.136180123180445      39.121922853968861      1.3116111251939444
  2475   1       36.84837275842392      6.9108368949430554      44.684371899214945
  2476   1      26.600621117104545      26.835152461789388      41.730950924301915
  2477   1      27.220841257121524      32.837713178676736      1.4442570984693432
  2478   1      44.515121104431955      31.663650136904959      4.9203130408149649
  2479   1      42.011079325101832      4.0712348079059044      9.2167923374605252
  2480   1      37.058226238647499      36.234858375347208       42.95599341046227
  2481   1   -0.025461463967310232      20.581719772058655      32.585585816396545
  2482   1       21.11180192345098      31.597146237612964      26.701457083455445
  2483   1      35.650511540555442       18.05695569489086        16.2377763398238
  2484   1      1.7848523002296761      38.810755315140014      16.787313771021928
  2485   1      3.7258666462645413        13.9236626591532       30.49071529554277
  2486   1      32.485745792754933    -0.69675402347067683      44.418133089828082
  2487   1      41.710868487006032      30.212890686838104      17.773795350373067
  2488   1      10.658272738745131      40.428694127146969       40.89928029672123
  2489   1      1.3115730892230291      19.577615936142191      37.018431349922309
  2490   1      5.2112142033137152      33.108067012472155     -1.1183390880225095
  2491   1      14.083839625060296      37.620471830287364      10.341886509355641
  2492   1      26.457028895703971      34.626197457335728      11.184695542484192
  2493   1      35.449014419122385      41.923443403512046      20.460935812041509
  2494   1      26.156121121185564      11.995336028661749      27.031571681656779
  2495   1      26.699244098484183      2.5928937954331897      12.474059509557121
  2496   1      18.561532239135655      25.265017496008852      8.1444255562094696
  2497   1      17.521695966117068      16.041069282160596       42.02463790944244
  2498   1      45.606837567285893      27.985350742736056      18.921039156647538
  2499   1      33.657277312875024      24.630229028882312      15.982599588645698
  2500   1      45.850285116671081      16.124705960372875      45.847718572461005
  2501   1      1.4719819228082793      33.897649876917086      26.102753305451358
  2502   1      41.427329356968606      25.970335268964288      10.103372038086274
  2503   1      43.650133582699738      28.543552958641179      1.1981859765845737
  2504   1      43.066168356457943      43.387124331083342      33.390113432636078
  2505   1      46.206805742293348      45.946786811160919      2.7214242031069649
  2506   1      49.600667839101959      14.099321780536879      11.870233987719933
  2507   1      39.370644381919881      21.468569388689549      23.175762738233953
  2508   1      26.152546475844083       20.23938322356712      5.6138496457652316
  2509   1      22.307351229369687      1.8281135940148125      33.627173454941065
  2510   1      9.8020253314506274      18.025498287446073      44.938055405214108
  2511   1      3.5796506471484624      26.222890858075889      46.257010945095708
  2512   1      16.030814283021822      3.3277376268221572    -0.87149641679306655
  2513   1      36.346358323726761       41.96531264121765       33.29739319181305
  2514   1      30.314875720446611       15.13058334050748      30.499256600813816
  2515   1      38.403806279502021      27.842703104848891      -2.901624608110339
  2516   1      25.638432562354463      22.109953023671256      8.5119646694630173
  2517   1      22.350683236108207      21.355387829685455       9.755152513305184
  2518   1      31.734131908385088      45.245415842877847     0.62380739553174736
  2519   1        21.1000441697919      21.011996581702512       32.78329998706181
  2520   1      26.275293049342775      37.409596516943637      1.9961372272771236
  2521   1      31.748749917213335      47.537404599020242       15.94620312965864
  2522   1      26.762402222979581      25.296211686031985      7.0388521067297543
  2523   1      20.773875872723508      30.978247850220018      32.125696213641319
  2524   1      5.2060228008282747      15.753864223391329      9.3127238556608383
  2525   1      7.6009252055959333      27.282895411923896     -1.2372636648733231
  2526   1       17.28410529802785      6.9031339862675694      15.817061574813943
  2527   1      37.493705792557918      21.220964219540036      5.1275316821950057
  2528   1      38.560315094710276      35.410928646664011      45.718016367905228
  2529   1      32.999497484620342      2.5680560862772461      14.732897422081633
  2530   1      11.130909073124075      39.376148426030298      34.105057373770826
  2531   1      43.777641000331535       32.95464103587917      9.5468244012395953
  2532   1      17.534019015444215    -0.12481311782581307      3.7654439002790521
  2533   1      7.3496169891729499      26.125887363951676      29.328506565588238
  2534   1      20.037700458646921      7.2027008129470005      4.3666304896427244
  2535   1      3.3883997987706325      38.375001958789781      21.379911476330545
  2536   1      20.385416540264576       24.70234145595451      19.125904511936124
  2537   1      35.359802466999398      14.650926953387515      39.622387684606245
  2538   1      1.2521786325342597      39.037260603987377      37.598056677378707
  2539   1      18.730679460254624       21.18657969108105      15.444608198750849
  2540   1      8.1681482617278114      35.244873088390172       32.05631605274349
  2541   1      30.400760791265199      20.557819196724878      46.743260068839625
  2542   1     -1.7114361197085788      32.854831032840558      15.864151218078401
  2543   1      6.3024436896007945      33.161631867406143      18.653565432184241
  2544   1      5.1579948215590452      40.692750459887051       43.62228132872135
  2545   1      45.296068984503243      5.0570115909770594      24.049549220227298
  2546   1      5.6582496680289189      44.488356224118604      30.446598640624934
  2547   1      22.815589885389638      29.255544584718898      34.462980382278566
  2548   1      35.699660713428663      28.273774222772751      43.689662278828742
  2549   1      1.2935395503380578      36.437066244654986      23.030555888721725
  2550   1       21.36131765421981      42.812183479856877      46.995400155902736
  2551   1      33.936002210695548      23.725756874777801      29.386901123607295
  2552   1      13.742365658348231      25.504273477470214      25.371356782588368
  2553   1      22.824789201600758      14.125860008130303      20.224906293749115
  2554   1      24.776062797630647      4.6818325085079922      38.417860768311094
  2555   1      45.051773313943649      29.066891047207214      9.6896519761481059
  2556   1    -0.73750774305070488      11.858515637262093      8.5391013705981926
  2557   1      9.4599291583327698      24.827842709576416      39.340018684976151
  2558   1      10.752722825557685      33.122377939513164      15.762541513624413
  2559   1      2.9232130511678491      4.5147493007590249      34.913720691415236
  2560   1     0.28450100577314891      2.2483008140941925      32.248290096946228
  2561   1      13.583205263863544      32.746310243620094      18.915869756163257
  2562   1      32.187840040467748      19.067294074444256       1.443219981256761
  2563   1      4.6563054256027572      10.482455963028961      44.322653660592174
  2564   1      42.153397786612416      45.713789969331124       4.388277546268041
  2565   1       37.08403145588732      35.310237219800065      26.126289644180897
  2566   1      5.3808519613978554      31.779766178629664      9.1127063101559767
  2567   1      8.5585866381335602      20.834812925645014       20.24217176014259
  2568   1      13.630284612448609      25.362122576145495      28.644288625318193
  2569   1      27.857424162321852      11.763467418766147      13.661101972653316
  2570   1      29.376767763707413      14.063899757150448      27.758052501137207
  2571   1      31.135292985543725      10.157480971442318      47.235792617657943
  2572   1      10.485925408566041       32.17323653636285      10.710124918947027
  2573   1      27.098382354121888      43.496238782318002      27.810606649106706
  2574   1      43.359772947520867      3.6653320579265585      42.773996634077733
  2575   1      1.6902158042852928      24.486981212288324      20.385371815108815
  2576   1      22.915979454310197      30.575206432381314       16.26701903372383
  2577   1      17.045730714316473      20.839484098337625      40.256296716751017
  2578   1        43.8554489690558      32.044732102208179      34.151474097483536
  2579   1      34.054249962372801      17.205423604077108    -0.70816986980520436
  2580   1      21.633444061332415      19.851597528374516       43.07051619793927
  2581   1      34.554855048040345      35.760958026875933       38.31722994436717
  2582   1      20.360083225128072      17.183350890378613      40.464353328966638
  2583   1      26.746499979113036      20.119931162780265      28.600623175759992
  2584   1      35.097162942234206      2.9603491856714346      22.339228124079543
  2585   1      4.9871206470314782      28.340766715854876      13.970937787716103
  2586   1      19.623263145702317      15.622504802655394      23.580675258002849
  2587   1      48.386334515662099      15.489268963527518      16.897589136506141
  2588   1       3.497106450598725      0.9129852676099669      21.501827570401542
  2589   1      32.151949855225908      7.7362403071411032      25.311092387093645
  2590   1      29.945875659229682      35.456463134389061      31.595809699171134
  2591   1     -3.7513696066498752      35.154878449752523      33.970988265578534
  2592   1      40.882285536060621      25.311590649655528      1.4404612250900191
  2593   1       20.42984418143228      21.446507614031596      3.5419947069298781
  2594   1      2.6872387189505469      44.887260521872136      43.814631406980958
  2595   1      14.237368483931563      12.953462092523807      19.672822476577668
  2596   1      27.693323684599608      7.3975964233331499      6.2536151657489842
  2597   1     -0.2068923947282757      41.576220919777242      35.601583175938543
  2598   1      12.024922230551013      33.002840427211808      43.261813439924268
  2599   1      26.981952638875587      3.0831977358584868      9.0172517134591654
  2600   1      3.0859880002537854      27.856206661934472      20.258375735666494
  2601   1      11.113015999578467      43.179206085784301      38.783895556525117
  2602   1     -5.8334903254042585      8.5799935724686662      31.878426000192558
  2603   1      20.765870147575008      4.9482336802809321      3.7705821998223259
  2604   1      29.506575227022537      5.1026859822812627      21.321562589423618
  2605   1      32.559197723305815      24.520421444560448      34.913235094879042
  2606   1      33.996523428421078      47.229888631367778     -1.5251060668722096
  2607   1      41.381642508312204      36.375004289823224      11.628908265187349
  2608   1      10.694482158777662      16.108680377800297      23.962873407213621
  2609   1      1.8808355072914138      1.3051513380543232      38.629274060589765
  2610   1      45.981162268185173      29.044352439183918      31.655200777071251
  2611   1      5.2238726161442912     0.40673930413672615      4.6870966307667716
  2612   1      37.560941286081807       44.63421526360203       40.45703017125728
  2613   1      32.583682732255028       6.592293635920762      37.416506445957062
  2614   1      3.4836931909377018      5.0083463343040782      17.858461742121172
  2615   1      35.579505652542252      38.438176025861033      34.138590868353994
  2616   1      48.565357534967255       28.05339480618548      6.1698705536374261
  2617   1      9.9666262159771311      2.7248794515710841      21.761437466947051
  2618   1      2.2020827970053354      23.440342603879536      13.748419461078742
  2619   1      22.416837667971613       11.49531145677871      5.2731328477642325
  2620   1      21.183370680573645      32.216406043874954    -0.82913049638692804
  2621   1      30.384954110954961      16.218732666662728      6.1923070860537166
  2622   1      40.675224838263311      28.116030037604549    -0.22077509406802731
  2623   1     -1.8190831486795238      20.488121411491129        12.1263205697479
  2624   1      15.430496228749444      1.4644289582928156      38.549077672005772
  2625   1       15.63792826426381      6.9723505604910381       12.44388413495062
  2626   1      28.658069782411605        46.5412529752655      11.489433366755724
  2627   1      34.695818713726602      9.7340990029049976      29.114806429860401
  2628   1      17.571778279511051      2.2393437378708776      8.4989936886010238
  2629   1      16.696174593668843      7.6906509218372969      46.390079684182126
  2630   1      26.811635127186392      16.496135107885028      4.8097304514964376
  2631   1      28.457743894744162      26.270082497011433      34.090545654725858
  2632   1      13.971057476386422      20.394337102170478     0.91160558885035226
  2633   1      32.019456060591857     -1.3516679235725666      9.5380802823331834
  2634   1      42.725185729812857      32.125714819714652      38.927323294905968
  2635   1      28.174312860790188       3.687656732936806      43.048120493443591
  2636   1      35.159877448930558      17.864065377280461      2.6036477657358246
  2637   1      3.2063262785823334      35.721379274094495      18.453595594480579
  2638   1      7.0215205150602751      25.939052355254923      37.386714695182086
  2639   1      50.049141484361222       26.79031257358303      11.731064558725224
  2640   1      32.984274335608838      44.234424491170401      10.054678930403091
  2641   1       10.28461503415884      14.835550147525451      12.377359069142699
  2642   1      33.449741860318355      16.344141915647494      7.2884081309900228
  2643   1      41.164311727950796      21.468929507574853       40.50612614159558
  2644   1      14.018896399748531      5.8995779162152369      5.9264083764555595
  2645   1      27.035681551655166      16.087252411258042      26.023631994147507
  2646   1      38.056600233658628      41.331863779129165      25.336289525744903
  2647   1      14.073369391530372      37.374569194724451      6.4297569448220742
  2648   1      24.076359998531441      15.169431490182252      7.1907689802047612
  2649   1      10.456652333530581      26.933721807124531      24.832538030208426
  2650   1       23.93698971535963      34.504526489589239      40.668753889207096
  2651   1      29.674955428175654      49.122628822115992      42.825178294113989
  2652   1      19.230768842240234      45.167857846080238      31.375252129698655
  2653   1       31.94884862066057      6.3872800834120991      7.5903833870480355
  2654   1      39.078970648777293      15.890978355999188      16.382929128930908
  2655   1      44.471329493156695      17.673766191208909      6.9042147021527294
  2656   1      37.345891635549322      48.608546456944865      19.193930202048719
  2657   1      23.248569691588294      8.2259052117415976      3.2038543303780505
  2658   1      37.941714961587671      39.417043993796788      5.9956796874061089
  2659   1       26.30085511586331      17.695470477379072      17.927028521945321
  2660   1      4.2961428325172237      38.176779116607712      33.193178002975245
  2661   1      49.570257918439609      26.310906584190334      48.635698000738692
  2662   1      14.045486022965745      4.0906820516840217      12.256342751012527
  2663   1       16.75876273294595      21.243185525463051      3.4127475965783347
  2664   1      38.387991971466434       8.984703919422806      35.102607304414036
  2665   1      42.120353535269032      33.628816275235636      26.454831714019072
  2666   1      30.179533671761927      3.7150711321953702      7.3847818698035264
  2667   1      45.761321194312345      6.9179480967675975      13.577172511482289
  2668   1      27.841869933755003      45.058524325303779      47.955310800054882
  2669   1      40.065237180062809      26.560844377804674      6.2221930655769402
  2670   1    -0.20702174969214754      49.144992688053918      21.194797865330209
  2671   1      6.9073083791784464      13.091176115573614      24.665401549469575
  2672   1      44.814210810000134      30.590893683600132      47.239192508589653
  2673   1      2.4416320829192335       23.14733184118931     -1.5099756661989638
  2674   1      30.008544544849105      38.511997123955574      35.221837634141814
  2675   1      22.629009685805372      11.869863290367562      45.622912753038513
  2676   1      5.0070479905535157      20.739506174467493      41.107798712276974
  2677   1      35.564555685598933      15.454937123530284      30.327881335101615
  2678   1      41.238490234606601      21.196828549597836      1.3897238915413777
  2679   1      27.329483771881865      15.074514877501095      20.837365397069764
  2680   1       39.23879504016562       11.57564652900715      37.490984049152736
  2681   1      1.6494009547075941      24.950516557916693      41.071861391049033
  2682   1      21.571462287616512      32.963656924067152      18.496303735050777
  2683   1      8.2805406688110548      40.703804592775853      3.9619276225318143
  2684   1      11.199391452032888      16.899758594249047      16.800077505513048
  2685   1      21.430811998967165      48.985707426523909      21.119268420530602
  2686   1      37.786093649103513      6.2671960412626024      16.309548618491775
  2687   1      42.003827197256335      15.749370775395295      39.661448035729578
  2688   1      17.297526586249599      20.917921186478353      18.485681144841827
  2689   1      18.844887795236154      35.599529087416883      39.814158183244636
  2690   1      45.092852174187072     0.21602987646864416      40.069985193151105
  2691   1      47.223823554728973    -0.56747913577784692      30.899031898793755
  2692   1       10.80471433855452      34.374970642485884      2.1503990637467871
  2693   1      27.905793394407848      39.866277235882812      10.238369656292274
  2694   1      46.405463604979531      44.709728785767872      5.6601265712772655
  2695   1       6.461058153363898      6.9089078257113226      18.406425451452179
  2696   1      40.768962612054011      31.184381546105318      3.6900026397056509
  2697   1      43.294130604119928      11.695251595237233      32.620769818762028
  2698   1      34.120231321533986      23.737822861139303      19.116323620359672
  2699   1      7.1123487973908199      39.165265746031928      7.4167695149955692
  2700   1      19.745930051144189      36.336842479182721      22.980872575926387
  2701   1      18.487588325499246      30.881486611192795      6.6091573551773397
  2702   1      40.316749875033906      43.285800170949628      9.4963537533232927
  2703   1      5.6951616298322367      5.5817091155676506      40.012353345941307
  2704   1      9.2001887587089861      6.3592740653276865      36.053662375118805
  2705   1       10.03951676534599      1.8280678810506903      8.0950273882106885
  2706   1      4.8827374264355186      29.246932412236934     -1.0604030011939571
  2707   1      4.0547117710263958       43.80308600204237      33.449635344561969
  2708   1      24.571578275204686     -3.2527881255256217     -1.0433782064467854
  2709   1      17.248939449369601      33.047765411397464      12.788476836244836
  2710   1      36.182643847698991      42.737260394897788      15.608527938574218
  2711   1      35.007841026773256      7.4280021961312199      34.853992905605864
  2712   1      6.2851805445020599      25.465067552403646      32.249528861209363
  2713   1      15.944073280333196      41.858722600244093      14.254193958745363
  2714   1      21.247488666629213      35.103857271702822      7.7538327264574551
  2715   1      8.9429104768394048       2.817251546917527      3.5398493986092685
  2716   1       14.59828910661868      23.786953260699192      42.408822370563918
  2717   1      6.9667574105019021      9.1289146779140342      12.577969073898695
  2718   1      5.2131370910160513      22.015878999191223      4.1809167868759065
  2719   1      39.619833751247221      13.387053596960421      28.753440400297592
  2720   1      5.6913309048358789     -1.1136362961547897      14.754744604528462
  2721   1    -0.36661297121318553      42.932327967042404      44.151944847029839
  2722   1      38.542933993358389      44.836615576000177      34.652030736670739
  2723   1      48.774032694502687      27.569712072561181      32.679904259157013
  2724   1      41.653405523128598      23.979847418318574      4.3996099276866207
  2725   1      30.449904094625186      10.994773581965376      7.3495643577306673
  2726   1      8.5445330120904988      16.159241222952552      41.811482554433326
  2727   1      36.143724544437489      4.2186032146350136      39.879691135220973
  2728   1      42.356496629452892      1.2165898925641028      3.5323775466379845
  2729   1      31.337673133962802       28.38564082168881      5.3800191621440403
  2730   1      19.935969187310139      2.1180570864708912       2.058965346805822
  2731   1      13.329944893761676    -0.52834774994193234      21.279523407486831
  2732   1      40.092540848308353       18.22922987438406    0.077197858667735847
  2733   1      33.205349879246036      42.120458325925405      32.334855365244252
  2734   1      18.803296118210884      8.0191101341309814      40.832901652701267
  2735   1      25.444852593032923      37.282989398164887      9.1284733212469629
  2736   1      16.202090510133843      2.2376611378668603      43.305627892948522
  2737   1       24.34729967976989      16.564459833656699      17.334990748288959
  2738   1      1.7397169429927484      38.197265169499055      31.234389915581072
  2739   1      34.235473452328343      25.207040617639574      40.242874968854977
  2740   1      39.513616057913779      29.361611781838988      23.283358787460507
  2741   1      14.548923973649947      33.306806560647843       15.49445952036502
  2742   1      30.691882119722987      25.116298951814169      25.035669885978486
  2743   1      21.865603455288468      27.975998018215826      42.546937001647258
  2744   1      40.620533396074158      16.481249351908421      10.484963140167741
  2745   1      3.9472724678845519      4.7346625545616456     0.66671284592056768
  2746   1      1.2762643750685088      11.196724293757875      48.723736481547277
  2747   1      19.831717908824075       5.892906693307884      46.450366728513472
  2748   1      32.508501832618769      14.751802755381975      27.969897373406504
  2749   1      43.885760961355281      1.5307349038841469      10.789724731681027
  2750   1       48.90849738116713      10.604438815793042      17.311270985213724
  2751   1      13.289763282419402      45.378470395386294      17.636942759810974
  2752   1      17.026441968073566      17.609959992165031      1.9145710405212539
  2753   1      43.372025139602471      19.066061886976126   -0.066246552543391055
  2754   1      41.290458012913696      21.351488216052271      31.767769656243662
  2755   1      29.706362291653289      6.6150520384722995      42.680797221269273
  2756   1      27.450116754189509      15.840935939936095      32.839134782282628
  2757   1      27.016177943761676       7.156475379604041      48.572205042044558
  2758   1      39.763512956632347      7.0056708362616469      19.536605858559764
  2759   1      37.778490869441072      5.6478586972982807      35.630182519532866
  2760   1      30.608278455508085      37.134727734826818      19.813065615252778
  2761   1      28.077460408939437      30.231607953058308      43.410860518336271
  2762   1      28.200969752691478      48.146301771850041       49.16212010768885
  2763   1      41.742942831698819      30.334044173207136      26.260690151276364
  2764   1      14.256409844373724      23.725374224794486      13.472687935447068
  2765   1      24.353734188081756      22.873704136597045      47.458176178605356
  2766   1      12.208441774597045      13.187503686433717      27.632692833121034
  2767   1      46.376842214196017      24.107004907333469      9.4838718597779526
  2768   1      11.920866450946113      5.5721727165215666      14.338922528188778
  2769   1      18.744594667050933      4.6072572222522608      29.355250425964233
  2770   1      6.1043325375751918      32.541701617919323       31.92831366511415
  2771   1      29.139732124640005      5.5104083816421818       2.493105965405225
  2772   1      35.121256078900679      12.438331900045982      26.783986979746519
  2773   1       3.889478972036351       32.92447571569376      41.142766240139174
  2774   1      43.791494551799659      34.248341053696137     -1.8030708832192133
  2775   1      40.361040491567323      39.269012192749003      26.461350934357405
  2776   1      45.558106496483816      22.898372799764712      3.0261089534653922
  2777   1      38.495383014357344      11.478360484439488      4.3271585343865562
  2778   1      43.470107829781824      10.328286041223917      6.0838620839734503
  2779   1     -1.1264825134852667      29.228644367121216      12.289457777306126
  2780   1      31.673715990909663      25.881017446045753      8.0471665160459143
  2781   1      18.158841566834134       38.87898746992861      36.245081706078643
  2782   1      35.399649464544716       39.06698739049861       16.99676098851921
  2783   1      4.2830570259381178      13.764277505962479      47.394911145416465
  2784   1      20.745268964538905      26.285298591699174      43.763470747377909
  2785   1     0.11278052655919014      11.428663434331591      39.882462929712517
  2786   1      17.162421058127812      11.738492125606836       1.821759417595044
  2787   1      10.594296652247001      10.560749784900914     -1.9268405115578233
  2788   1      19.823551246141406      39.916127805128347       22.82380400190246
  2789   1      44.459250046228277      6.9801463048539807      16.594196485127053
  2790   1      18.423929033645024      43.987977086279642      6.8240023830158272
  2791   1      48.805120504515692      15.173086532556756      6.9719643653624468
  2792   1      43.475396197512531      27.594804494945421      43.875292673633851
  2793   1      33.720051682006492      34.976093958972548      44.634483092916064
  2794   1      23.905894883220512      26.227868081276462      5.0588374222998329
  2795   1      40.612260945167897      6.3640288728427317      41.924941980184535
  2796   1      13.228794177594351      8.5441063899569514       13.79520958260685
  2797   1      6.7668994269151099      45.282057519502651      -0.294059176664834
  2798   1      24.287442311841193      11.750528703592233      34.888047240448408
  2799   1      12.886417137111961      10.613505684845256      17.738338019598721
  2800   1      35.466565554654885      2.9325082845613979       25.89035548079784
  2801   1      34.112452820793017      37.713674638028003      41.205914990190124
  2802   1      42.226440142644989      14.808218914430034      32.861467492538537
  2803   1      36.752259305372235      14.792838843509232      36.517759054726362
  2804   1      13.450504946214711       21.16394704289424      9.2699046624934187
  2805   1      24.394373339580966      16.009847350411636      40.609243454879007
  2806   1      15.240005866678795       41.09170896651478      45.614611378234905
  2807   1      31.430816017197163      37.762879420367454      3.1501314369930382
  2808   1      19.029937491401832      27.476840182038575      21.318850780097378
  2809   1      23.743482402138842       13.01611071341301      31.472198233405997
  2810   1      21.562217856005642      18.701173850061416      7.1979174128563805
  2811   1      23.428433780920308      36.196416444147403      43.524607722486515
  2812   1      26.131263116819717       32.15327195962476      27.042537242855733
  2813   1      44.739928133297461      35.097947429133185      40.137128318583883
  2814   1      18.196328432478868      39.596983718539711      15.740081374051449
  2815   1        2.98778060349421      18.017688761895585      12.617921757709215
  2816   1      3.9600183874748076      23.855966936249946       17.48987767258313
  2817   1      36.252250253856424      23.332123645182826     -1.7093005774014303
  2818   1         40.696027098281      30.676289914645022      11.273961111448926
  2819   1    -0.75082753446905326      34.945515856038604      28.928734181230134
  2820   1      10.445411768485029       3.295303880093547     0.72794706666412556
  2821   1      5.6778912474583754      16.837198343468756      4.0150281123400049
  2822   1      23.830797934584709      27.521557826789941      38.727999304790089
  2823   1       28.45524903209332      21.597522291746124      12.324280223750868
  2824   1      47.003966348892114      2.5389537442924985      26.051067936884106
  2825   1      15.302433255049223      19.231204338306256      -1.869582798787689
  2826   1      34.167448238470989      28.525174964434864      10.124651988851934
  2827   1      38.629752438611945      15.629279856465081      1.5592460930094376
  2828   1      2.1947927393985665       38.14316129747494      4.3217206915459965
  2829   1        4.07886535116692      35.061479907757075       21.61310071214017
  2830   1      34.602080904353471      30.894723699050967      37.461867015595686
  2831   1      38.324616975600776      11.973236102843375      24.969302900446582
  2832   1      32.152392038057869      22.633900733320306      13.079059212029842
  2833   1      24.868517538833615      41.718038504803189      47.633345901470364
  2834   1       41.60930189601055      29.476409144152768      45.757743196931187
  2835   1      36.653595119387489      11.166119299527798      39.725339110073143
  2836   1      32.826366921202869      47.458494562372984      28.018612853917144
  2837   1      10.699685595518453      38.948072820731582      14.132341879641443
  2838   1      19.444425000474553      27.830629830498022      31.371673161249706
  2839   1      25.335830197472077      2.8479914751259621       19.51974478921959
  2840   1     -0.5170313275741556      24.739106070888738      23.396497926812387
  2841   1       14.32702965201741      16.818275437652986      30.439320698653223
  2842   1      26.524560472176621        4.96276092475666      14.331552844510568
  2843   1      11.186035136774251      29.490606629034104      27.998422536591633
  2844   1      42.070577451620984      17.308229337492147     -2.5024584434932717
  2845   1      3.0148171360453353      38.260710573077418      44.474110231672107
  2846   1      3.4064069580862784      23.629769116730227      43.971833471087969
  2847   1      38.664711569956019      12.793550940657633       15.01633274836972
  2848   1      42.966396274503943      22.660201040714998      13.329323605484808
  2849   1       3.925662572517032      26.350543272350912      29.697730830500838
  2850   1      33.772989846195038      10.907503112501345      10.660557324575324
  2851   1      15.674559799713819      23.857927614755788      39.157783328931956
  2852   1      40.665234129979858      34.740279326379046      38.338630698464669
  2853   1      23.639525370253981      6.8112230748692228      6.5251984106204439
  2854   1       31.43444706298688      43.911281586363323      36.685439579369223
  2855   1      4.6350932119641381      33.241536198929396      24.628210676241093
  2856   1      1.8753620096594663      5.5933158595069958      9.9020134001409055
  2857   1      6.2566862018370699      9.9726125557119936      38.078402677896065
  2858   1      29.718975437332745      45.917839215595855      6.2077913052651539
  2859   1      41.340280128661583      44.793838440019016      29.483121141429169
  2860   1      2.2706658985846087      36.484140385924327      28.354194622812539
  2861   1      9.8873216953878931       28.59486488395126      5.8319772272761004
  2862   1      36.480423404263703      47.117541409691661      15.953085097732787
  2863   1     0.41526407666284115      46.685709708430892      4.5716574125645613
  2864   1      40.361219456698073      26.611642670000638      43.506999360854564
  2865   1      3.3499559996432304      46.635539348448539      22.767559586682697
  2866   1      32.631039704662442       42.15650704570006      28.309841046227135
  2867   1      22.384749214913626      15.595190945024671      16.849706279649421
  2868   1      24.281329535617033      30.491546790768435      41.467658445753784
  2869   1      19.374465919591721      42.910504825562612      44.059192844015399
  2870   1       38.20728075302646      45.179499209107973      14.071030051472746
  2871   1       3.008142538219678         3.3589477940401       46.21260061608438
  2872   1      32.791651736719757      40.796370084168245      35.416363493622882
  2873   1      19.215746803350768      41.267429654333064      41.022697235606941
  2874   1      23.344382392679229      24.341975357867263      28.857113513988367
  2875   1      15.011111492134038      3.3275529540741617      32.688565844479015
  2876   1      26.201761264178295      28.485105276058672      21.503361219534472
  2877   1      24.336913220786176      12.366527773580566       15.86502179787581
  2878   1       16.73688621895943      43.039414532891328      9.4766706455463847
  2879   1      13.597778085279543      5.1096646317160603      35.244455898323821
  2880   1      17.730809723814978      44.632641820142737      37.776826640836212
  2881   1      29.034011540473646       18.41285226786842      15.309281588056507
  2882   1      30.513930012539237      3.0383810801325373      10.566671335476553
  2883   1       40.01137992258159      23.368032345870237      43.760974216185247
  2884   1      6.4736815819992399      18.479945891485702      43.167540614717545
  2885   1      1.1044052209547148      13.323270399263858      3.6077571497092213
  2886   1      4.4921811927668323      17.111440766093271      46.446690959952328
  2887   1      33.573777586445942      32.277325009767175      1.4956815268095687
  2888   1      4.2046148524776426      6.9894944417173939      33.297201943494166
  2889   1      17.548151163770594   -0.077708941270761486     0.39680947928401916
  2890   1     0.32841643647795238      21.027680739741957      41.286165630296964
  2891   1      41.609468521422855       3.589299285933401      12.582454255912095
  2892   1      15.451468887090339      13.873363114619327      28.408091554089353
  2893   1      16.504812306529953      22.467727008053714      45.137634410003947
  2894   1      41.408767306447942      41.165633893389767      6.4037796494156822
  2895   1      34.826840686315968      4.4024944656607463      36.902779335962649
  2896   1      33.666874824495785      22.231659914959113      24.143655641185894
  2897   1      11.994588697587076      31.467776654460383      30.787390838389868
  2898   1      48.596271570647609      35.994718223529794      17.087780728084404
  2899   1      22.077533789779615      13.015071692294967      1.4294756071416883
  2900   1      34.494418833063136      21.037369881847169      31.035023349466808
  2901   1      4.9999305147948325     0.77199678127507732      2.0549200191639612
  2902   1      9.3710798824466082      6.3939640702711396      22.184850535489328
  2903   1       40.96246695652313      6.4662808198048607      1.0608102174906191
  2904   1      3.1886341022584341      48.474982829920613      33.871881882865637
  2905   1      18.907507849781869      14.334013468554247      39.606214244192536
  2906   1      5.7221995851644492       33.26371687732599       27.73281565381701
  2907   1      14.838005462518151      43.571883599170206      27.079930457040735
  2908   1      18.277919112399058      25.668917162793875      41.245019035834282
  2909   1      1.4931141009465454      17.752253718795565      14.138814763473734
  2910   1      33.050089113498139      19.553557957226943      7.5804382109398469
  2911   1      22.880660854999405      22.272900864064393      36.879607438241891
  2912   1      30.967260843456554      37.621449505530585      13.829510284042236
  2913   1      47.229350526099012      16.532187400621876      33.509888853985458
  2914   1      28.092068280230709      37.344365139896425      25.840049115192869
  2915   1      11.255223658274515      12.190035953904443      31.578403419011764
  2916   1      31.270535000220381      21.661609954970871      30.128527628377324
  2917   1      4.3291917650086731      33.183997185958908      4.0399367000797923
  2918   1       31.57751366536322      45.308736646947651      13.643131468827766
  2919   1       16.33274216467904      27.693244801308776      8.0466215253684474
  2920   1      32.219433104804843     0.95914221969010105      21.384111811228873
  2921   1      11.538537130037765      13.641194420810008      45.848608444629988
  2922   1      11.347630303266847       14.38458630552563      20.018641132174849
  2923   1      42.472194105868589      40.613207631703098      35.023297734434038
  2924   1      23.844768479191469      7.0295480466827884      29.307962035016192
  2925   1      35.460892189827689      36.849850511451599       19.52233049385346
  2926   1      22.800929844809907      46.428111099851449      41.626064722852071
  2927   1     -2.3477627510184922        24.8006484458374       19.69278589829505
  2928   1      38.500776880730591      24.548114152377885      3.9287108615775339
  2929   1      44.724370415424481       25.66506900797145      26.474759735714674
  2930   1      2.7089084545564837      15.398851760687046      38.906843914524117
  2931   1      5.6069935388951473      41.575864713386466      0.9213563453208049
  2932   1      1.3465535730310652       45.03028167779653      10.831644064855563
  2933   1      41.479364388014488      35.736570283828918      44.304606837951937
  2934   1      34.725246453875044      38.200744597496417      2.0882901108438197
  2935   1      19.749471863506255      45.003784112791955      34.787522972006279
  2936   1      21.656365950256863      32.221349987865644      12.733442972012551
  2937   1      2.1096858068586917      22.739270255453498      23.656122816413493
  2938   1      19.926060790527536      31.862760060148929      21.332691553423103
  2939   1      45.767187198382871      9.6044967416864413      1.8931750647320968
  2940   1      26.591119385992378      9.0142991269162085      2.5931723055691887
  2941   1      12.612629927040375      37.797380246424225      44.957260814746284
  2942   1      34.902414614129334      4.9518346284248071      17.748341923218618
  2943   1      37.546454322672716       27.57632814091351      37.735378305300891
  2944   1      14.148722760801904      2.1201634520665644        26.2553760603965
  2945   1      6.7845524460015101      17.119001021771318      33.164727040583934
  2946   1      46.736549064324166       37.52644214230164       19.47761985278602
  2947   1      27.845074381779121      46.519246653570697      41.583563438015098
  2948   1      18.432033725386997      13.519773545550997      31.025140821602882
  2949   1      20.266847120834978      14.688970905286006        4.17941028620465
  2950   1      33.649547231547444      47.199609202757046      37.841397895820528
  2951   1      28.674449180949559      23.121514110235818      9.3481178816251216
  2952   1      9.1444605637552527      38.902505506393346      30.733309225827288
  2953   1      19.167245541702652      19.716293979793665      46.505259015328861
  2954   1      12.994011033829064      12.487423770232315      13.876047243773739
  2955   1      35.158205018685464      22.685061431464739       7.960046599342057
  2956   1      28.474734342898039      4.9380180668613658      46.053676632291776
  2957   1      33.722218518479941      25.510807429305022      44.314709207099654
  2958   1      28.195988668466224      11.979668053099202      31.510079302536383
  2959   1      36.925365857753974      11.229148591417591      45.153187640521288
  2960   1      20.416731276093511      3.4015262229805456      7.2016523495284961
  2961   1      1.0233357930251241      5.6358390067516115      43.723623121880564
  2962   1      29.533446768819349     -1.5496013402745981      4.3732847035784861
  2963   1      10.309355625469006      5.9120212127863754      2.8413159812193904
  2964   1      2.1217480350108846      36.701613029939345      35.138121660995004
  2965   1       9.328215882079741       21.27151201895639       38.87785569799955
  2966   1      1.8474098871040208      19.866816640748578      5.6301607285916786
  2967   1      28.349939479974392      19.214905754869363      26.012524286512676
  2968   1      4.6283260426223043      35.579408976676746      31.195782779523228
  2969   1      11.946679783063038      14.130887383825199      3.5858189219583898
  2970   1       1.838499641106935       48.76101835480484      43.200953591128481
  2971   1      36.148547217802623      21.837217982194886      34.535728449109293
  2972   1     0.76456376498345568      31.655401523859947     0.65129804531827751
  2973   1     0.21495312613239953      35.984070189697626      43.965424249467311
  2974   1      17.029924335505402      33.886260242541269      27.803916737795699
  2975   1      34.873754532957392       28.17348950397491      1.4997665422847433
  2976   1      47.899245088567802      20.988109725958711       1.783657686470594
  2977   1      32.389713795243928      9.7024148129346006      35.627906719701471
  2978   1      0.9460840522933579      43.553386137558157      7.2858501442122821
  2979   1      39.274813390379634      28.177565232231142      28.506015040394999
  2980   1      43.999850579826052      16.918169958250701      21.981987181383786
  2981   1      11.383257509705006     0.55497999982289115      24.225929013673724
  2982   1      9.2953185186380836      37.838983533068621      43.506746322022181
  2983   1      6.4628031401102382      46.968829144876679      23.746238879413148
  2984   1      34.469379989701473      14.000387804156455    -0.84606362695086201
  2985   1      37.751592828444942      43.869042509967265      45.226079728869365
  2986   1      6.9255118679396572       19.24106301039685      46.942486025538805
  2987   1      13.530873107264776      20.862693463718355      40.914719020230478
  2988   1      41.641985485479999      40.935591548678545       20.93414032868348
  2989   1       28.89344414629975      11.182504235670562      49.912582478215512
  2990   1      30.045302230674718      44.266238678854798      29.315052678810865
  2991   1      15.161446581446784      33.426201966622017      25.141383378662674
  2992   1      39.664851156299285      33.871270083014039      28.560841188479184
  2993   1      47.140555418860863      39.042968986469219      16.579444179130938
  2994   1      29.023959460326729      48.391104381066093      39.098397682598481
  2995   1      11.054064391550625      47.565374594189365       33.14768154848236
  2996   1      9.3589819175158411       19.39169638521491      41.903813839510754
  2997   1      38.999562957657318      3.9566845870968166      23.677547217061424
  2998   1      21.942541621545391      24.142007506606458      40.984285545171367
  2999   1    -0.69162741015285345    -0.81410375621269326      39.398077010087597
  3000   1      15.907364649678339      9.5704517975667596      20.335045606445405
  3001   1       2.201905971702935      17.562040423996564      41.732084022991927
  3002   1      8.8979855180620326      44.589285032147437      34.404462175395082
  3003   1      46.351387771376636      11.622557034705189      37.793194152852564
  3004   1      2.6959877764322631    -0.29440170338587301      9.8496919527719875
  3005   1       14.42303587956002      12.211234973356929      37.462210274010715
  3006   1      14.708624940657412      13.556616727303608      13.690204199023247
  3007   1      12.653487761643332      26.650202416581045      43.475338317522954
  3008   1      17.523119009417574      17.986185481214761      14.656717728599606
  3009   1       42.07371819004598      1.7428221483333408     -1.1147374094177922
  3010   1      27.404669821860711      12.136955358101856      5.8666854161456099
  3011   1      46.725959490773398      35.785774974043072      22.474146652686038
  3012   1      42.527982967606228       5.530450189021118      46.821131189437715
  3013   1      10.405870366155424      9.5461307619503533      24.956115359988015
  3014   1      8.4115735868309827      35.295557869578367      13.300058135601247
  3015   1      43.233957194450134      45.527910248158605      7.9782777034850811
  3016   1       26.30135800335076      2.1873609184817222      16.177215138392359
  3017   1      29.219808953076956      11.282467737677779      41.234597357237355
  3018   1      20.782258230007226    -0.79332008028993539      3.7490894434102939
  3019   1      36.185533137892136      14.260251820907881      3.0517094654096688
  3020   1      13.764071848101059      21.669585671431786        24.0352340859246
  3021   1      34.719512976529508      5.7239576704081641      24.180101578868072
  3022   1      19.212668831330806      45.038396294344537      3.5726154305306852
  3023   1       39.93733364309562      31.357853988079217      20.310645774069744
  3024   1      37.724877795044492      4.3268275941191554      32.104014546580089
  3025   1      44.415520154807389      30.140899320594269      24.109924899584968
  3026   1        26.5975015827844      10.097591019763657      17.823748322720661
  3027   1       4.783231572629699      7.4363813954200797      15.546422407038264
  3028   1       5.919435317615509       26.18607542395365      23.144343942694039
  3029   1       31.70452175460537      1.1391470913353865      38.367816522718371
  3030   1      32.669874075784996      19.378955589095739      14.685597547236929
  3031   1      22.225979048176995      17.252342974874317      34.390907900428815
  3032   1      21.204591330128682      9.4662163474625931      8.9950344782804912
  3033   1      45.847864041170318      28.357097307415344      38.507716725301549
  3034   1       48.82313969905649      40.613222809333031      40.591409444623793
  3035   1       29.78482634385351      4.3968884593543978      13.823455712191137
  3036   1      42.033205616647734      9.5097483951797255      10.957710991992377
  3037   1      26.049968381138182      11.998402003654597      20.919308691520929
  3038   1      12.508457373053865      26.881547743824395    -0.60529208370732435
  3039   1      23.184116962854258      19.795473198545452      4.6008602770020071
  3040   1      22.516219602837356      4.4249853194041027      41.237451167843567
  3041   1      11.020144990944978      2.2835510163558221      15.738684327273027
  3042   1      33.855874646203077      19.849839180584738      21.745283372255845
  3043   1      24.795332117597937      30.372359444113549      37.011246494454277
  3044   1      4.5447960683153497      10.858394018460421     0.46416873026626165
  3045   1      16.827881349476595      25.676942549259852     -2.0839626909830771
  3046   1      33.434174291043441      36.025545710097944       7.823656354780649
  3047   1      31.175492770469045      30.890487517552124      40.947518400906205
  3048   1      5.5081986938611713      30.438794969810647      44.288856588664601
  3049   1      25.575211085656459      29.112621421820712      45.222784774811736
  3050   1      16.551262628611756        41.6437453789163      38.700872008408346
  3051   1      12.488025744210477      40.433706007028171      1.1976367093412466
  3052   1      42.162502454343041      41.957717603101841      27.515713472882425
  3053   1      7.9435472058133794    -0.44967301923300962      36.648629853887421
  3054   1      11.318784815476221      23.174055580301104      41.605780557250498
  3055   1      28.479017082162652      43.407194020931307      40.123068519250566
  3056   1      22.881432803745479       19.67719965199877      14.885623137257365
  3057   1      1.6639567008587586      34.169164544553169      46.234545007217143
  3058   1      26.582271048640546      7.6023251261961429      20.385976767954723
  3059   1      17.559030724269313      47.092033219899804      9.3340231125870972
  3060   1       31.15347474379465      36.947611555375488      44.063582878510466
  3061   1      30.122636673168376       41.26506814324599      30.556304387202751
  3062   1      24.766286763637122      17.078791630300231       13.63507396754509
  3063   1      21.644904310362385      22.003478777418984      45.691439930240669
  3064   1      23.915611297793973      39.698628432860666       13.51636780705207
  3065   1      25.738178553905509      23.637652227409546      19.455624792383404
  3066   1       27.91309457168396      12.028674469973845      38.018186560489568
  3067   1      44.383315697115236       41.92441958884104      2.7921009143209976
  3068   1      16.034828670850075     -3.1041329144527574      2.2183669613192034
  3069   1      2.9111560587867298       26.04891644584572      6.9207908243658487
  3070   1      22.214069409187619      14.818408040976015      13.436489806467085
  3071   1      37.676299216265036      5.7173245995600848      1.4238809190301884
  3072   1      6.9987199043036767      41.338472285468306      27.548060389025824
  3073   1      24.847688880156564       31.66586856778224      32.831423365507433
  3074   1       12.59880236950414        1.09792351413315      10.522404708157511
  3075   1      18.510357570672632      33.515110458061564      9.8926120762470138
  3076   1      29.008063098458369      24.028113600014557      29.423432382320513
  3077   1      6.9927980312786611        5.50062708511898      2.9568591729525378
  3078   1      5.4394023523936479     0.18533590167797978      6.8271339015362704
  3079   1      41.216528660210159      9.8018462401652489      29.510318205185911
  3080   1      43.218858704684152      22.426525974169468      37.109716068285472
  3081   1      11.479378807149169      29.908617020961945      33.942092034475337
  3082   1      22.409607206667175       34.88491435521501      26.259391179707791
  3083   1      5.9361324351959768      15.544956537547725      13.006675378160915
  3084   1      32.276203820418374      6.4977497540181393      40.834235784692233
  3085   1        16.0364415413814      27.870232265389095      11.465514930083932
  3086   1      34.292812621839985      32.750023375690994      10.326878545483742
  3087   1      26.586724354654244       35.74942776000664      27.935669995217513
  3088   1      40.108697237363593    -0.99075590821799531      38.003767417330366
  3089   1       2.640297069490948      42.245964619557434      4.9073591221531991
  3090   1      1.6545099148975544      6.0146117276240156      6.2727923968811652
  3091   1      36.309161470887396       21.89278947078331      21.479065263297503
  3092   1      29.449552515442342      2.6460357128942551      23.546201458617706
  3093   1      41.932990113974832      44.391260912110866      41.154781399268714
  3094   1      28.658346267447477      38.697031839468153      16.273297715368738
  3095   1      8.3491351416874728      20.912173340328508      27.567571074750987
  3096   1      40.054915448748233      42.390162645843596      38.641549889033847
  3097   1      33.313917770685642       39.14740643851794      29.339650182922679
  3098   1      48.038737751168647      6.1434237583998303     -1.9709808534644184
  3099   1      5.5682325633978724      24.480411337376864      11.363502122146365
  3100   1      35.581533315778799      45.375432358609267      32.313163653265406
  3101   1      38.066612012794991      21.189098853370979      10.021496279037342
  3102   1      19.135353810295761    -0.19015575706420326      45.932209107090188
  3103   1      22.237152961254566      38.224870735069295      7.1040141784668478
  3104   1      30.602324149771714      25.140957792415882      16.921194680542392
  3105   1      13.277291758729222      47.543073729592294      30.228745231214234
  3106   1    -0.42540348839397113      9.7336790070417969      25.153007156905236
  3107   1      44.382257907647116      27.432057969309064      46.993080860691578
  3108   1      22.956217340071724      32.910743368855798      5.1601441556512304
  3109   1      42.636404557040926      34.035833293080877      5.4119869856858864
  3110   1      24.418281893821565      45.566911766670096      42.935982717126812
  3111   1      3.9084545825778836      36.631931606992154      10.173207976643784
  3112   1      6.6038910117666028      4.5217590190031629      20.794410041085552
  3113   1      10.684298763261083      33.131712312185122      33.338177287055132
  3114   1      21.718714910821088      42.138779419883107      2.0712588723661236
  3115   1      35.447849311418146      4.9673417854055719      6.2175788734731805
  3116   1      12.017514076586822      44.926646414068649      11.471467647555595
  3117   1     0.93787581003739051      8.7184265217194223      8.2798908014748225
  3118   1      25.770862687079479      23.469154539021549      11.491856846343133
  3119   1       42.75487084905054      21.441844469738552      20.467201930328638
  3120   1      14.241672080251462      22.407051948708855      17.964112943126288
  3121   1      5.4499912184027668      44.542374144689639      3.1978007709588998
  3122   1      9.1449455634558898     -1.6576449954334707      16.662449433619226
  3123   1      42.445434041685161      12.275595416022746      16.380052816256239
  3124   1      32.253432474575561      46.139310019897394      24.385098447481127
  3125   1      17.314208002092752       24.85183088737713       4.420650638559886
  3126   1     0.28261256041906746       8.823798223289085      29.328680412397134
  3127   1      40.725198753391709      36.551922641444783    0.093021252173476301
  3128   1      33.710909964604753      45.400931267847774      17.499476515428725
  3129   1       17.87668029822316      14.018726613117103      15.402565446952117
  3130   1      10.663775232121587      8.7162504900817819      7.6530554773052915
  3131   1       41.31816677710404      10.159712420146196      39.930701971801234
  3132   1     0.33859061375910532      19.246112568008758      17.266111970820102
  3133   1      41.760999569984712       36.39963347447658      28.491441980031748
  3134   1      12.966505067989923      28.228487093306367      9.6301128503734166
  3135   1       41.50896727511585      11.060831177031528      26.472389377936992
  3136   1      9.9059145104133481      38.217149523349455      21.807667060623114
  3137   1      37.506551581340347      38.422303029469717      9.8998875931382706
  3138   1      8.5859605503479592       10.99957511581861      9.5995552716732284
  3139   1      11.883063815318994      9.9425290758659983         10.844195203458
  3140   1      3.4499283152734126      -2.415812390669466      19.075329823071257
  3141   1      4.9805790276884148      40.842570985550175      24.838007410063529
  3142   1      28.589268071532562      6.5553905713346472      29.364564872163658
  3143   1       41.08146459560659      2.1389421455941982       38.25028456845844
  3144   1      10.296305326899549      12.754195156283732        24.2465704892129
  3145   1      40.758660880361369      14.947887909620651      13.645314473344101
  3146   1      6.7322279336580548      13.106063990194823      49.903151916260768
  3147   1      21.845189081680079      28.495187282224489      12.758491482970557
  3148   1      30.175032665619955      42.554882445757954       33.80418389416738
  3149   1      2.0544696581631592      11.612962160953764       6.504562717956345
  3150   1      30.616722225049653      26.340842989010149      36.967034910133457
  3151   1      47.206076194099452      10.158667324172455     -1.1704142955191477
  3152   1    -0.45016954639688916      39.097318975130293      22.125721104155364
  3153   1      8.9222379791571793      25.586999540683685      21.601173286166588
  3154   1      4.2857050945006758       1.279578486280804      16.493263049495454
  3155   1      24.165559586478942      2.4066244455942569      6.2650586248227249
  3156   1      25.341230509816459       43.46567782935012      13.079524076534906
  3157   1      31.520130093289559      6.9353152150266739     0.73010150593113787
  3158   1      3.9090130327974895      -1.519553275442765      1.9835560908302659
  3159   1      5.3768579432833743      6.3767718909519253       36.35585446960166
  3160   1      5.2291442891468431       27.61921088311437      34.229166760858647
  3161   1      44.851673007928625      24.270660011809788      45.092572902098979
  3162   1      14.805354213358543       39.48587188071884      36.384551594345083
  3163   1      7.4326919694649121      44.165215615779253      4.0315011332699013
  3164   1      27.431364932900969      47.951235676728281      17.938745227634861
  3165   1       34.91395651641475      38.174837840381741      26.152735033890302
  3166   1      12.554085588187055      22.349330185947746       34.59269149234202
  3167   1      17.452996108889568      36.818903537067435      2.1886845640276928
  3168   1       33.72979953678675      30.014189598495921      28.521338467082316
  3169   1      32.677633251246341      28.048730060906863      31.471937568576198
  3170   1      37.718061933991294      47.443518808050271     -1.0319024130949581
  3171   1      7.7788808793717559      13.821674634752121      46.148020086087932
  3172   1    -0.58877729061722461      26.070765464601148      2.7480688936462183
  3173   1      15.694360889078135      10.699809917322863      10.934562367007452
  3174   1       25.30125418118325      34.702543915796468      37.345301198952406
  3175   1       14.67839390026875      32.512189974056184      33.624313886955555
  3176   1      42.723266102318085      8.8544219768726435    -0.40516927634511329
  3177   1    -0.59004673066080537      41.043411539934716      31.390567198745341
  3178   1      45.335023838870633      22.348721337641905      9.5541908860937568
  3179   1      10.473822551662467      46.232440423650431      12.021037319533562
  3180   1      8.3385981847972275    -0.22873497493109865      42.035688058248766
  3181   1      23.094004287471318    -0.49641745192584097      24.107637226576742
  3182   1      11.140441757998762      32.925394955534671      36.612235143298385
  3183   1      6.6787615706170564      1.1959919171491773      22.346984064687739
  3184   1      11.254479394343102      2.9928096216035223      37.656977498419742
  3185   1      38.024110075012572       40.79168336775804      42.616345701254971
  3186   1      43.713848839276629      31.338199271344592      43.990978945821375
  3187   1      20.845941293804987      46.136228882522317      7.3254404927435619
  3188   1     -4.0265388028027402      10.112073304874363      23.722542615079288
  3189   1      34.790843547874296      5.8996782041540747      14.590903533619835
  3190   1      19.660416503419349      37.792037245957914      26.474270982935735
  3191   1      46.546005822228388      5.6188990580547751     0.96102224041132578
  3192   1      12.154594471436873       36.41941291311646      41.929568780464237
  3193   1      48.705403787827635      17.570283663200343       29.58000912472977
  3194   1      0.4117951719150626      35.475353414466646      13.477875170136217
  3195   1      31.985993862815334      7.6317660012424993      13.192552329987398
  3196   1      27.466256280587768       18.83549160032403      22.522984426306543
  3197   1      9.6116022166727504      28.821114509031972      31.268179421652007
  3198   1      40.474380886502274      24.996630701989979      40.669383521312696
  3199   1       2.958235443415302      9.5791056414829132      24.014622309321872
  3200   1      15.443679294827477   -0.095795866058967602      25.998479105355152
  3201   1      23.147470171790125      35.005276615077896      14.862696873569034
  3202   1      11.144069066238306      7.1057986967052269      17.285103049968995
  3203   1      7.0840904099847224       6.966892279892007      9.8690736976599194
  3204   1      41.129059165415676      35.036982946858132      18.148978734040753
  3205   1      36.484373536182545      11.976588391209807      31.071598338563064
  3206   1      28.990653432380945      32.713736758965183      13.856458589944092
  3207   1       43.19395351674828      1.6975528776878892      26.519935120139881
  3208   1      8.1544807445383167      30.571779033275746      33.804069210452646
  3209   1      38.229297175637221      9.4995049863412273      7.2269053316786689
  3210   1      7.3178858572602827      29.297626997762393      27.856734807917746
  3211   1       19.17672919145669      35.406809822968377      36.415634203273498
  3212   1      33.862422656276095      41.586027696749483      24.843791025192672
  3213   1      22.538528243669347      23.182508925565344      22.184256751066755
  3214   1      26.369427273670937      7.3777417738028825      43.742623434222082
  3215   1      41.893468114648151      31.195780918059206      48.741937791230583
  3216   1      22.792507579703646      29.555300909672692     0.25604169433403345
  3217   1       5.513018567965644      36.561211549661678     0.80227419776952824
  3218   1      16.505791371092425      20.189145248910631      26.134026778110247
  3219   1      2.0766042616554774      12.729355009823168      18.970100615626492
  3220   1      14.161571391545378      14.557421419009641       1.083202892857132
  3221   1      42.216993990913743      24.598434213115475      34.199447055318139
  3222   1      6.0213667788348069      13.225048806024851      38.441641436034843
  3223   1      16.277816435213271      35.782263398067741       18.05275008994257
  3224   1       17.82729332301686      15.373683296354114      19.772227422438885
  3225   1      12.260473448701999      40.853999186483037      7.2810747460091578
  3226   1      10.813536212565026       4.445368780733836      5.8353122311507226
  3227   1      22.511862256587374       10.75534088057999      22.993535523241025
  3228   1      9.1222496203661088      7.7731865374829399      41.923980824802953
  3229   1      26.131921793798487      31.371600693044872      14.541327801511862
  3230   1      48.504128841501519      7.1834436788520275      16.321030621442908
  3231   1      37.860153229781723      2.5594189806786578      37.330283649916787
  3232   1      45.261471436823562      35.139716789818543      14.360028284677515
  3233   1      8.0540518682431195      15.256985521053823       15.82040624118485
  3234   1      7.2461669608225394      41.995979033432974      19.138453290785495
  3235   1       44.52338241920706      33.494221680353235      24.342995448516916
  3236   1      31.380375305075848      31.807517943418539      24.879874007289747
  3237   1      41.034738756305408      11.149851759901388       8.175793689699514
  3238   1      28.708453579161638      27.819954831393421       20.77152230591722
  3239   1      33.810540432982556      32.141787315450109      20.735338989433856
  3240   1      40.351436136385495      3.3078582208075478      15.825678943701817
  3241   1      21.679466427430814    -0.57596465514027462      10.336038835991458
  3242   1      4.6435525201696084       4.739488451944716      12.920391879185345
  3243   1      34.280349677327131      27.729167559360445      19.271453690562439
  3244   1      29.573011189933265      29.475544347115196      15.983038675954047
  3245   1      27.791733220370229      2.1772259126005373      34.340063520688737
  3246   1      42.069269688862235      34.442134283572614      31.372213055887258
  3247   1      15.668629720548921      28.089785846632044   -0.054942069691822464
  3248   1      18.399615769973082      3.1209963675169736      26.182134027700414
  3249   1      9.9586158920176171      12.308026385717806      7.0606572914266152
  3250   1      30.206246723818872      35.457859751867367      49.483584254583924
  3251   1      13.229698663915331      8.8345725155054886       31.67593422933092
  3252   1      28.743555997786491      12.548318557656627      19.103440376841942
  3253   1      42.362097683879639      40.705862225787698      31.348756643688503
  3254   1      13.008478447864263       3.937105826290177        26.4745636813484
  3255   1       25.47510951981393      11.174624724675123      41.836196284600099
  3256   1      33.212592855851028      7.8780359641618265      16.879500020980899
  3257   1      40.712040914146343      37.357857600343323      31.885625108418797
  3258   1      17.198189101877499      22.307569591026429      48.595058565813375
  3259   1      27.980165683667543      29.476135780834131      8.1587306509047632
  3260   1      23.126264114020788      40.923955659272885        22.2203974315123
  3261   1      7.8919115912177267      33.530077180857802      35.215257339729568
  3262   1      19.244366589585479      10.224986733894054      45.971956627300209
  3263   1      34.026527902042552       5.319100358815728      2.1953575858233245
  3264   1      41.002927822167919      14.739045947564662    -0.70963822961440448
  3265   1      40.476433272368894      14.710084691115055      20.007946586375194
  3266   1      18.444073341053407      16.009537041716559       36.22443180332602
  3267   1      4.2814144745720784      28.676318010357647      10.334685792033332
  3268   1      21.819751797405122      26.816916910041201      23.540912639308502
  3269   1      29.669345321403739      11.427182012410698      25.712268239789303
  3270   1      46.450683044996545      8.3415437633339415      39.665960654009865
  3271   1    -0.31730209049240277      39.844491709023139      5.7443270449992667
  3272   1      3.1722725450636089       10.49485367705668      3.4120811067330892
  3273   1      44.718222658289442      41.408382337169108      15.066911850525351
  3274   1      25.746005817721052      27.107841265287405      12.765629838420894
  3275   1       43.83553935489131       22.39143956593368      -1.137037182839626
  3276   1      27.414399945782218      13.337778905061951      23.737699252810295
  3277   1      14.111028970939744      28.590078907806511      14.893573182515313
  3278   1      35.026911644674776      25.082689414767867       36.98560918119999
  3279   1      14.402191647290739      18.142633796714119      8.3666339329615411
  3280   1       36.25093383523317       4.321655463575806     -1.5891884864809709
  3281   1      13.232594082212691      2.6779426127456589      22.074151171500127
  3282   1      18.216408641760676      19.429430688741611      29.142812743532069
  3283   1      44.551369644901385      19.730550175917831      19.484416299474987
  3284   1      33.986414711314339      35.147162436855233      30.218549407894137
  3285   1      39.908232105647997      2.8182732049128534      41.184532913692159
  3286   1      9.2302840010991023      42.688375592302883      47.935315146284097
  3287   1      8.9851496157177255      6.9705648943118961      32.615794330139011
  3288   1      26.989362320618071      2.0476079699450125      2.4057033934446093
  3289   1      39.456737602375554    -0.13509245171839335      16.633987435328958
  3290   1      39.231567243650488      5.5661843183854014      -1.759466664074725
  3291   1      44.153079464723994       23.42303660360875      17.462567203243406
  3292   1      11.765032620827274      1.8237639285397969      32.343415348568293
  3293   1      44.716995204879396      37.039965606169119      43.940537031587127
  3294   1      8.7750132058722787      22.373119857367996      4.2867662083857088
  3295   1      40.298263448072532      6.2265722231914795      33.326634204821332
  3296   1       11.78468120100454      22.045688837029104      47.957888532247232
  3297   1      11.859217479814433      32.632415615236518      24.576954678883908
  3298   1   0.0041871474262694559      31.121844812112698      32.451196551334483
  3299   1      24.140208512737239       43.71227590829357      37.168208688190404
  3300   1      7.5525080958714161      3.2692057442652809      6.4745300453179544
  3301   1      17.197881656557012      7.2495967325196951      37.777301553804229
  3302   1      11.703902369174774      31.276079387654104      49.626925815816385
  3303   1      1.6685855840909654      2.1126019019702826      1.2665368122138341
  3304   1      3.3392783505368731      38.975683943383956       40.40810353760719
  3305   1      19.289618552718473        1.50560910981105      14.926710363351763
  3306   1      37.054220079737725      34.728202467480806      13.271604339997896
  3307   1      21.235084740375161      27.787653870481407      17.012160910372952
  3308   1      37.088045419975977      42.599361441247176      12.448278760461935
  3309   1      43.745738844768177      24.561188579013347      31.329354079762467
  3310   1      34.659108159811282      41.777554978836719      22.632015582059026
  3311   1      25.504309672043451      13.874131702401447      12.977788053673095
  3312   1      7.3376901748716747      31.638058488302214      41.171864328922901
  3313   1      29.639217704760767      17.701303965916164      20.495707825326644
  3314   1       22.89904037993681      38.613997272060914      26.858433704563289
  3315   1      2.9631647402277195      5.8518444860653505      23.207052908566325
  3316   1      34.714426115917064      47.092206743863471      23.178185457476658
  3317   1      26.097947560789823       42.01784198899071       2.628300144936154
  3318   1      14.691222692764914      20.566133534991327      5.9776071594879649
  3319   1      27.860324840980102      13.774132365476632      16.183351283097807
  3320   1      9.8630833564235481      45.618591483739387      5.6521137521655094
  3321   1      25.808902695595847      28.424557500666204      25.909185941658404
  3322   1      9.2866490385768881       24.61427472439177      33.526316998644887
  3323   1      16.305358061256303      29.733780233769576      21.349493519145721
  3324   1       14.26195700484304      33.350477658522344      1.1574253828921843
  3325   1    -0.21096938448129207      35.988854434808282      3.1932752519327345
  3326   1       26.50061947955853      41.508179164880083      37.725329752172129
  3327   1      5.3497327037999103      13.901533005642191      17.669932517842813
  3328   1      18.403905128149496      32.207659109869731      24.756264178152957
  3329   1      28.606267912877559       41.81120847440117      6.3947807558280489
  3330   1      39.322193772845949      15.274054305344711      26.117310051606353
  3331   1       30.09566431206958      44.944102943732311      43.719890437304812
  3332   1      2.8119329874363039      9.7227967519827914       11.95394869408109
  3333   1      23.976416657917586      17.340043171503641      35.822421316479755
  3334   1     0.92345773486416738      40.536633293865506      11.011962086271264
  3335   1      19.151953585364549      13.449481546723026      6.5216898862159258
  3336   1      8.3020031314443177      41.080202464129322      45.142886670253191
  3337   1      13.986641708683305      48.774269206006693      47.226182248407383
  3338   1      31.770905421472587      21.635701055373818      33.343972216971522
  3339   1      20.829069040944024      27.715599709349608      2.5016547001802354
  3340   1      43.254248316095271      9.1467049714974298      14.214772423707766
  3341   1      8.0166760719674741      22.235442007591605      16.591150651815045
  3342   1      16.250548196322111      36.857111548273082      42.368256031758705
  3343   1      36.115326811070211      9.2365183117162193      15.771598818181626
  3344   1      15.159708194102517      13.750905997377297      6.4674301710626763
  3345   1      15.489534155156825       15.26373550960343      37.667122733674873
  3346   1      36.700913448268132      29.103816545160029      25.974985622830062
  3347   1      2.7059738936727182      15.757104695757642      17.955046099350863
  3348   1      45.741198477876345      44.037186735779116      37.394000798231154
  3349   1      7.2680040126674497      21.778048152644995       34.43671665548829
  3350   1      13.361411538963495      4.3251579851425674      44.171259408369018
  3351   1      46.245734116172009      20.185887175202236     -1.7251087547678843
  3352   1      39.882008494445444      31.543631085205696      32.565984529023879
  3353   1      4.4010018812614877     0.43957744827417861      11.356305270758982
  3354   1      16.802355200833901      26.525027170274996      37.192270206357179
  3355   1      6.8598598605098484      43.049191517005482      23.167166843940695
  3356   1      30.707554140793558      2.2501222631056268    -0.61548828623279539
  3357   1      25.079508577800176      18.622665017642309      8.5334258456016059
  3358   1      16.510335831946684       39.48465925126311     -2.4750934053267617
  3359   1      16.211685050177824      26.869193582328609      18.617107845068393
  3360   1      2.3179998462714693      26.935153621974145      14.854697677508765
  3361   1      15.210846985116138       42.68378417838958      6.5937662046586354
  3362   1      8.3159107035034996      22.778222814253226      24.657065920582056
  3363   1      34.454192322979907      34.415433205611677      17.271831432141443
  3364   1      32.603314872526113      45.089068046563398      33.624107089296416
  3365   1      13.413546997258461      12.826049901698761      10.259698616169812
  3366   1      25.549712062958278      39.724554627819579      35.010255312558243
  3367   1      28.420577087754193      22.663656871317841        33.7141958995877
  3368   1      22.680860497810283      27.077182945357954      26.829987672504053
  3369   1      16.892349372687864     -3.2803659172046524      14.022284676183288
  3370   1      17.903373369206687     -2.0505797375069124      17.691321632944852
  3371   1      42.768251100206911      41.396817751868205      38.045375305255902
  3372   1      4.5724388610497702      30.818638805018047      34.216725578579869
  3373   1      25.473139716850287       14.17284231412056      37.579566155242752
  3374   1      26.320819742932173      50.004208390665227      24.094265417543035
  3375   1      20.329609960594059      36.678977197833198      14.047796163829087
  3376   1      31.287088456842984      32.163791643498264      29.225003759691599
  3377   1      12.023387454222405      42.098177532083902      14.109819672972138
  3378   1       43.15099403068055      27.379461361279169      9.9348725566327758
  3379   1       23.84290988254741      21.677153550535298      1.9806139859243659
  3380   1      30.095626671320307      38.296224415700735      28.881246806879933
  3381   1      9.7787223985499772      29.044984969686254      9.5924067708220981
  3382   1      16.101865093165259      15.508582317028129      9.2150988608755071
  3383   1      44.496381562629665      10.994703835448934      9.3209310590904337
  3384   1      10.827708976689907      25.955269036444129      11.573058845976767
  3385   1      3.8317362070589795      2.9233416333461033      27.101774651989047
  3386   1      27.414366242646224      36.916596699626524      18.632907258121342
  3387   1      25.818224721258336      16.194500213440161      10.472044409551613
  3388   1      10.415422352135819      23.932440570162207      10.424902622501584
  3389   1       23.87889383143996     0.72496525286043811      27.892334454852172
  3390   1      31.232808063140421      4.5824462864065136      16.709500518970682
  3391   1      16.385977741192093      10.598682787429128      27.043801530029889
  3392   1      23.420356590275862      16.369591137583519      3.9733582759563033
  3393   1      37.165807787866271      25.182569836739535      44.277437479025579
  3394   1      33.284502035720969      6.3298853019152217      31.926712893666288
  3395   1      19.192559777370285      30.146090595427999       18.66768311239014
  3396   1      4.7336759539139805      22.857245334257609      20.568949727570832
  3397   1      2.8454008459256586      3.9395178904987422      40.843498998346476
  3398   1      36.091066935147708     -3.5898661396021603       9.065106862174849
  3399   1      4.3989111847424232      8.4966959276918068      8.8929227948240346
  3400   1      30.988660798575388      15.878783673346918      41.242545539892106
  3401   1      42.582148841807147      40.171366098010829      41.583047495573211
  3402   1      43.733609152369041      33.165487098401137      16.539601009332646
  3403   1      9.8427987298351098       17.32901306900321      3.7054235479678623
  3404   1       40.26635432682022      34.474894887276228      7.3500834136555762
  3405   1      35.215122371992045      10.777674954613156   -0.074739246403869905
  3406   1      14.076923043768886      13.569174664457078      32.386565880418786
  3407   1      4.5537906919510593      38.581789192839658      36.919279562449169
  3408   1      7.8290190329337905       30.04757143296964      14.023232962967903
  3409   1      14.507864624085805      41.210820508082541       3.649200412248006
  3410   1       32.79752044665463      1.3505681087276937      41.426539560670463
  3411   1      8.6411857113872141      6.1936901338003922   -0.035083944268267796
  3412   1      20.449269998601725      48.883455328279496      42.852880194825389
  3413   1      28.175532362124329      35.114009857350894       8.263497170904504
  3414   1      20.376201593380422      18.222532201274419       4.036343973339263
  3415   1      9.6600099176846115      32.906984353225262      19.379946450196268
  3416   1      11.394743446026594      42.706533294324423      43.479919105079865
  3417   1      24.562386304408335      32.597674460582276      46.439013047494591
  3418   1      11.425891819766441      26.143337508261297      3.3452350554018295
  3419   1      40.182876053811128      11.324129939694121    -0.31425167154618688
  3420   1      36.133053354692017       8.062222278622599      18.867439203856787
  3421   1      20.098257564259438      14.564296489845223      45.980106408523511
  3422   1      45.120022856469838      13.322758442230457      6.9962151734570135
  3423   1      12.195508122200902      5.0991539589739618      32.065696546745244
  3424   1      40.190223212965954      45.083859739416887      22.962049685071563
  3425   1      33.381182958116163      1.0444519048591576      11.686568560970688
  3426   1      36.788761496837289       41.51280765199045      9.2983545437342858
  3427   1     0.54431452803985059      12.152727359190475      22.188897610671571
  3428   1      23.810863140190541      44.946237612025769      22.290084643069214
  3429   1      26.666032404662818      22.011926898906388       36.37288002062818
  3430   1      16.148418850914208      17.791706178879998      17.740114477867401
  3431   1      13.594813864889026      18.029674371667049      13.148405463524597
  3432   1      28.058534335684406      18.048783175981903      11.898475645976369
  3433   1      32.949020261604041      29.400520735767756      22.642706018326866
  3434   1      9.7389971046852537      15.015989543001076      26.786389221854847
  3435   1      4.9206141269216497      38.651156202840369      18.272292113424736
  3436   1      43.575064280251141      46.891409600765421      24.006824629995094
  3437   1      15.923745010970181       8.422561767969718       24.76501284223081
  3438   1        4.69264148115548      14.459367515425868      33.822446559115349
  3439   1      33.507712723288073      45.752391794293992      6.9978221385762502
  3440   1      39.047039749177387      15.393736480986068      44.120347657626787
  3441   1      27.879181861402543      15.898197837529265      1.7455943365386168
  3442   1      29.913853071371769      14.646891688981773      37.783149740349963
  3443   1      9.0871108832862717      43.391069094992567      25.719491368740346
  3444   1      42.198592940298681        29.0715929062364      40.636102549482537
  3445   1      28.953089087497769      29.602652387453208      36.969841782594074
  3446   1    -0.49905912022112875      14.355013722597578       38.11204047746471
  3447   1      16.425457981621651      24.617209355374484      15.387108852903905
  3448   1      4.8149019213885653      36.095135540716974       39.09421952316643
  3449   1      28.709425683479552      26.495466134093302      27.312236433028605
  3450   1      17.060572277350889      3.3179947327093902      36.465351054265284
  3451   1      35.586027540205116      28.526749953610889      34.568455687190479
  3452   1      39.919442748328059      8.3843797057212068      25.003731727687949
  3453   1      8.2743598993212792      32.876245359282123      4.0095295322276208
  3454   1      18.788242996334283      37.195503713273304      6.9854004175656002
  3455   1      20.415423658645068      9.6025090475592059      29.161228031046623
  3456   1      41.434075826293103      32.164535577395796      35.899199266899572
  3457   1      20.213367661881772      13.125603177259814      11.365431447281763
  3458   1       2.413230770282492      39.903949574273099      1.5946958754994347
  3459   1      17.300170655029209      12.542302191989371      3.9729406752331338
  3460   1      18.058107184132563      45.776009382226619      25.594552343128658
  3461   1      21.661995130447568        1.94658387841451     -1.9258053992612645
  3462   1      10.617474830764658      19.763745432115392      36.366317403039965
  3463   1      28.713957352506863       43.39174613302194      12.953627048329958
  3464   1      3.1107597433372658      24.055330055070666      9.4294887630717437
  3465   1       18.26495492840899      40.917185815359794     0.73658315743852132
  3466   1      37.139793841473576      5.1829727367993836      20.343527327427783
  3467   1      5.6910636243173629      44.969375874828017      17.147215322650958
  3468   1      8.9564250156713836      11.758135079623758      36.812181965213213
  3469   1      35.396362317839127      8.9899310445258855      2.7553054583546004
  3470   1      37.518287997009587       5.687504773275057      12.653721191483946
  3471   1      30.532189898470794      31.541083589220445      21.793911777006848
  3472   1      7.1853287502609238      3.1596045112362385     0.70304380240907594
  3473   1     0.85914311851442171       2.637753602338488      23.676190288555155
  3474   1      26.991921344463201        26.2257135435595      16.905474578099604
  3475   1      1.3320645516678138      12.127283377628721      45.530902073170623
  3476   1      6.9718286783788095      1.9931458720624498      14.476864565453919
  3477   1      29.682322947579916      35.698434473451911      38.427795931288685
  3478   1      14.925848004161674      40.079260805238619      27.457123990780921
  3479   1      33.448508968021265      3.6337029767691176      9.0088014552585474
  3480   1      34.446444812716948       15.59956689349945      18.156486575738402
  3481   1      2.8597619831792351      28.877628677266333      31.985714800981725
  3482   1      31.245569211601673      17.343678656870374      44.100849555590351
  3483   1      22.994061135627298      10.718709731885284       18.96567043170219
  3484   1     0.14729556100940153      9.7904637877871146      36.810157575050653
  3485   1      35.491781016028192      18.564681921353781       29.39739115792753
  3486   1        13.8110804265881      31.192452149126957       10.65001027012139
  3487   1      10.319568625851662      48.776426279267106      38.912037744952457
  3488   1      21.440274038100586      18.840863393317775      49.301943657983898
  3489   1      30.332806350539546      13.353425364405311      2.8926113738716381
  3490   1      15.432766526220313      18.517215179100464      43.117302472660974
  3491   1      25.033503626017225      24.493949585406192      43.980982947736642
  3492   1       42.56905811571486      13.902470634423892      9.1401122119689582
  3493   1      46.772534221456539      44.677008807482842      10.817745898094534
  3494   1      7.3478781053354867      11.323984342763989      33.558429915983645
  3495   1      5.6914581976065151      24.526482834131116    -0.51412991328226954
  3496   1      19.254590148558417      27.939179396293508       10.03953860245938
  3497   1      39.763699190316743      1.4487787419015208      11.116105450587773
  3498   1      40.293087303816698      18.342848610538503      25.111362011429446
  3499   1      47.222537147885042      22.001995984061608     -4.3104550082841477
  3500   1      32.933831186938676      10.763609644877805      23.661580678944198
  3501   1      44.225168865371941      47.478431947309382      27.105491234432598
  3502   1      14.756769430253881      7.9503243760338682      17.585274477931417
  3503   1      26.927679389461769      28.150175311661162      5.4906144146860161
  3504   1    -0.41218912979241812      16.158522592098976      23.215508953650797
  3505   1      4.7914148127276341      13.233984380007241      27.435686534045448
  3506   1      38.833555062199167      6.3733087181478547       5.521816974323067
  3507   1      14.411768851014426    -0.10021905654016786      33.104163708773868
  3508   1      42.464857176514641     0.78386649813015175      15.047487184982836
  3509   1      36.958443129454039      31.005515038951422      14.183552800451706
  3510   1      11.841631803035142      35.152167108266909      30.866591024130255
  3511   1      19.130186415494599      35.574163575021309      44.883317739707586
  3512   1      20.991129352039863      13.264565871989694      20.772134386591791
  3513   1      48.263839693413622      9.9125508763003545      13.834081174488041
  3514   1      11.670041417022579      44.496869452822445      46.135209924194832
  3515   1      45.155777808134978      15.622363042827153      10.443399184392087
  3516   1      24.489452348031044      3.5245909568701914      48.845562643946124
  3517   1      18.175259859394199      23.001829240388854      22.133889228181765
  3518   1       38.21146215554203      20.227958536435136      43.629017723876522
  3519   1      22.219617456904047      25.121840204875774       11.94261259686737
  3520   1      13.772212424396406      9.7268282469529801     -1.2041519278181545
  3521   1       17.05606007016614      10.980513892069094      39.290587915491891
  3522   1      2.5076218470428264      8.2424588058331096      20.022900236917643
  3523   1      3.7022940560194764       11.29180275927115      16.433955616649492
  3524   1       38.14551474460476      30.892889467457156      7.0893940546631216
  3525   1      29.357732597347717      8.7856589950711239      37.837118386186198
  3526   1      9.6529172417664135      5.2509004491470366      8.8535839072027844
  3527   1       9.060589988689042      1.2909222377922298      46.586339078750001
  3528   1      21.859807430465274      46.783214640747524      38.100052656177198
  3529   1      10.835209666890659      43.089669201763606      2.3579457046198313
  3530   1      15.314764584890076      38.829534040687243      24.288762463237475
  3531   1      6.9782862034453785      21.559133660577984      10.643530155758405
  3532   1      43.493764667692687        16.0096926134397      5.8800781830633397
  3533   1       21.65704449456609      8.5614397163104368      22.110885469927265
  3534   1      6.1527651142927047      26.265643636375781      40.568683424765865
  3535   1      25.568131454186467      40.305682575687491      25.965848719734964
  3536   1      20.633793061276485      12.432099512542717      16.541666460102309
  3537   1      32.783482000077186      27.454717307035846      26.628529884420256
  3538   1      25.113742907901198      19.559428525952232       47.82646891804869
  3539   1       31.50329370787329       38.35461106490596      32.343239649189982
  3540   1      8.5992642842020715      10.145449548014577      5.1227112961263073
  3541   1       45.55188804301541      1.9828411818929494      35.269857569802006
  3542   1      15.581517417294185      24.872245277674349      9.8064532579318193
  3543   1      18.919802025296754      32.039021809862568      34.655435973938673
  3544   1      24.856071822204218       43.75902769907244      18.337534350881036
  3545   1      19.664407311671468      40.033452964833344      33.354486559749546
  3546   1      33.219988450130366      16.077170027793812      12.783943117082707
  3547   1      37.259650619548914      37.944511930526694      23.128925124898061
  3548   1       38.59532535317706       46.40649763557375      30.290471730394589
  3549   1      47.073314564867111      12.694457342036005      1.1375398363274889
  3550   1      24.169366574255921      19.977086953267339       30.62415805734129
  3551   1      14.145167279082447      36.197382593873883      35.746159828419579
  3552   1      19.740213449893037      3.1962475046954513      38.569574310071182
  3553   1      44.799267413011762      25.462067577640376      23.184907728489961
  3554   1      14.381955177535662       11.19883784196201       29.62368151353315
  3555   1      49.742300456610408      14.103826439527285      32.012148956621935
  3556   1      16.474386134364774      33.664697565051164      44.724099631085735
  3557   1      30.149004991926446      11.349268370860061      16.321909766965351
  3558   1      46.398332720802799      35.650938888949682      36.946174045690505
  3559   1      37.960971437308139      27.583044981628792      9.4869201949752906
  3560   1      22.533074383666257       45.62893981656044      2.0540584816591783
  3561   1      37.349662958942126      23.377435755063274      41.440310675209233
  3562   1      12.422108638162305      43.333510761724966      5.0607487918495986
  3563   1      38.354349793706227      11.236427747742162      21.199598002167583
  3564   1      14.908315604062953      44.641816386748381      30.346306074824362
  3565   1        29.1101607637064      43.247016904363754      3.4592555957629729
  3566   1      45.737105135257984       17.00470146866525      25.326192119672161
  3567   1      4.1289179648236187      22.391076038027592       35.90650258357114
  3568   1      23.014700359100107      2.7287743151935628      22.170999574604892
  3569   1      16.481769306027918      39.867316083497649      8.3269732511785417
  3570   1        38.1577628545392      35.879533683372358      34.854895387924529
  3571   1      31.955981344566471      27.226907110358983      46.665304465976327
  3572   1      16.454412790654558      1.1615262199629146      12.729673093374068
  3573   1      6.5786840165745684      41.956562867190577      11.124987631593154
  3574   1      20.261155538136304     -2.7342293078826172      17.266894414100573
  3575   1      5.1486749710200401      8.2456492270725672      5.5284992933665205
  3576   1      45.574773068804177      49.025558226344984      14.383991008937558
  3577   1      13.565296347828577      11.403931869783419      2.4145715459623465
  3578   1       7.151798216817296      19.418052822227025      3.1488884407476037
  3579   1      0.7557426347235785      18.606086185551799      20.565647295046677
  3580   1      11.141260102262084      18.533269165276934       39.35704795359824
  3581   1       22.10520585330443      21.651670145228582      18.100276392053598
  3582   1      11.509648730061429      40.662479999446262      28.643295311541518
  3583   1      39.084873937350537      14.976218848455808      4.9157160731780838
  3584   1      48.528384815698871      25.182085570839458      30.343680498600158
  3585   1       25.80829997157154      33.126730937661357      43.345039328966976
  3586   1      36.899103570412166      24.919823376953122      1.0179460191081486
  3587   1      33.511013178539066      9.6668675704296003       38.99735727527046
  3588   1      16.186413449613429       5.278080704590864      27.192458839700603
  3589   1      1.2464558816267568      12.981335279202975      15.081016958795663
  3590   1      35.808359745633737      10.157552541641929      36.660997121578703
  3591   1      21.480610412331608    -0.50469813636119054       31.49021040738069
  3592   1      2.8060561093871428      32.435744804416743      29.184476117485179
  3593   1      46.046033066881492       6.238574767870964      42.340800013742424
  3594   1      10.703300623776885      20.541328776455209      2.3567856637989979
  3595   1      38.629940530948247      4.4960938887001669      28.824198963688211
  3596   1      24.699594674520771      19.133443906409816      41.807420813042491
  3597   1      14.836231368366835      4.4572384881091933      16.212816136017334
  3598   1       45.99402078910262      45.590776880109935      19.910053315885307
  3599   1      12.043906194144881      29.372567317821279      45.278121428192556
  3600   1      49.314864753098249      44.482701214728188      28.067018067879435
  3601   1      36.006751633376574      36.194978446885379      48.528442939523487
  3602   1      50.115544879811843      36.851788050063725     0.43822042373719833
  3603   1      33.264255905570913      34.436867439801226    -0.84858525892265357
  3604   1      22.394935692950082      18.413520602146608      46.152731758093779
  3605   1      24.570619832683622      1.2804453437219669      10.396956135899476
  3606   1      16.698427054140396      36.156678235826568      13.256352536871091
  3607   1      20.321096811802185      38.306402878548049      4.3247221915569627
  3608   1      15.753434179459948      30.340163700949919      18.057757137976743
  3609   1      25.250449951228948      44.133554385171443      6.2456076191358285
  3610   1    -0.51301506542766695      3.2340035222973129      9.5237865873626255
  3611   1      24.851713760681847    -0.11215340899238854      21.213909913129598
  3612   1      37.495641566270137      13.565527993334797     -1.0094099707336506
  3613   1      2.1309526750792256      6.7472069238882044      2.9544129585090939
  3614   1      23.149064998408214      1.8097627712585518      39.378545112243053
  3615   1      20.302154482328685      4.8924988340951945      20.492680061670711
  3616   1      34.779715360168112      31.623760062696771      24.384952265588371
  3617   1      5.4159103120975507      12.493586744165775      11.570934559599699
  3618   1      7.7118022361982801      1.4313428757392275      33.686975768988717
  3619   1      43.372596675926573      5.3124983879475947      38.855523232669682
  3620   1      44.985109937757812      20.071316045550681      35.315326888117596
  3621   1      23.631213764813364      4.2364231550723455      9.1731014070141228
  3622   1      19.673529920599215       11.04604363529158      42.313797871729285
  3623   1      17.232341367319489      18.160554010503777      23.839869129425981
  3624   1      41.283580658287939      42.038249855907495       24.07998713094964
  3625   1      18.188957934630949       9.363644935782542      17.615442305559363
  3626   1      42.023510383659236      18.237395658520573      12.872724470278976
  3627   1      18.781450796849413      14.680307167804395     0.47998142577073327
  3628   1      11.154480281025803      21.235450363273657      17.413914801890773
  3629   1     -3.7325154493167791      11.126827281462583      28.167938662885714
  3630   1       33.36299668444989      17.371459032823868      38.492529377198373
  3631   1       19.01061205015273      42.786753208276664      15.517378223377595
  3632   1      22.243378609254346      30.320973361925017      45.421135529906941
  3633   1      13.101084763733699      25.795045689232815      39.859802620204761
  3634   1      32.479568008737523       28.51980367964638      43.521441117914975
  3635   1      8.7110905013240405      28.157135034047172       41.23884063085778
  3636   1      18.443878174912673      36.666775873792332      10.566542468155408
  3637   1      38.592504365011663      41.238904879503586      18.527114259866153
  3638   1      8.3785667774364381      22.573315725815082      47.254379196030456
  3639   1      35.629270014359015      16.993245267587504      20.996805033085632
  3640   1      24.995427946119857      20.701655218936676      15.911595666344816
  3641   1      43.644535066931745      37.780286035624243      8.8393480606855004
  3642   1      30.547409697525964      28.836525872958962      28.900005289724501
  3643   1      32.417503609071282      12.569733031614504      41.313607740625471
  3644   1      18.976032053867517      11.738096701776556      31.834361193344066
  3645   1      47.197476324240014      26.500171664780535      42.475323494057136
  3646   1      2.3676569521097348      7.5434152784914588      27.124981932384799
  3647   1      45.409689905710593      9.3419883351772892      35.520327596172244
  3648   1      26.107624634826571      42.987997549905295      34.570733877191444
  3649   1      43.730871991967092      12.062140915659583      47.523032926467934
  3650   1       15.37947693093364      40.177820891508773      20.139402173646779
  3651   1      2.8389569956402467      33.627377073464253      33.916063232472446
  3652   1      16.921032671042219       28.99914231113123      24.630885007877982
  3653   1      10.737516774436905      43.815186357667734      8.2715067627871672
  3654   1      13.388549722403415      42.374077807002678      9.7582381348501706
  3655   1      41.859016828904174      16.441691233020109      2.2120817678723586
  3656   1      7.4383503209230462      9.2756624492586202      45.465791905917229
  3657   1      28.583131743294125      17.658516223254701      46.272075015716254
  3658   1      44.974319857140237      20.982577481854751      5.5560819263483889
  3659   1      39.402788327417845      37.800924004933634      18.952815893481933
  3660   1      34.451723370658591      12.218736442823367      15.075512257083213
  3661   1    -0.30053047016439299      18.729156413402016      44.035844605574013
  3662   1      7.6358416032726888      33.678809131119941      21.935943826200827
  3663   1       34.36135313423776      37.788126616020975      5.2268268343711828
  3664   1      44.477049076757766      6.3888142670524255      9.9317234148859157
  3665   1      47.713116835496159      32.196408222694764      24.531752577662655
  3666   1      29.326110051584838      2.0457793734592995       20.21243563978031
  3667   1      36.478504629271576      19.189332450799419      38.200719131556973
  3668   1      41.893318028613479      29.994260773895224      7.5825608969491656
  3669   1      16.534726221322767      5.5166113925577989      43.674787236412286
  3670   1      49.869769624504379       18.30935067156658    -0.81216980175256248
  3671   1      22.672416032029247      17.290136299586329      10.943813558356853
  3672   1     0.44102361386320288      14.442520675346911      41.443740297816795
  3673   1       7.969665978478834      6.5045946825151733      6.2337157291801404
  3674   1      41.785387550352311       24.06603169547385      23.421369619422393
  3675   1      22.620577941218937      31.397251986057494      40.351960033870846
  3676   1      21.047109495454016      24.278819007744683      25.769207495341909
  3677   1       12.88765462124857       42.95467327235172      35.261402139187766
  3678   1      8.1941593474364858      40.320325267746533      24.646641770057322
  3679   1      42.300081470215652      37.916404440488513       5.628814742380599
  3680   1      41.404170336559318      10.038757535293025      2.9174229986224001
  3681   1      40.363829716151493      21.588427243312211      12.843314494550322
  3682   1      6.7569669322049641      45.059228620235537      8.4411821631939379
  3683   1      44.350642996108327      37.913674713982473       30.59437564071197
  3684   1      21.757094418228569       10.35124378123677      33.108752426024722
  3685   1      27.220189361494064      29.243173776385959      33.678934797101114
  3686   1      45.521829693596843      22.622162947476472      41.331785701743136
  3687   1      35.094487257326321    -0.45503669812077385      8.9687469017338426
  3688   1      10.065988562517258      18.654968248879516    -0.27944437045885873
  3689   1      23.667855090784098      5.0116914729843636      35.067252444470505
  3690   1       17.48351429254895      4.9480871582885477      10.461238916936759
  3691   1      41.394550495506309      47.717073160395543      20.318578005463323
  3692   1       13.33162551466912      2.5945632992834291     -7.6332288995493691
  3693   1      8.4049431911613048      15.109317626923596      9.0346357799957531
  3694   1       17.12356145466056   -0.070769561117575749      21.535685822609501
  3695   1      21.945698414304989      2.8815053292191672      30.134995438736372
  3696   1      17.237502352803965      37.084886071034958      28.859058177949073
  3697   1      45.152744908012849      6.0491907555957987      20.474044450753052
  3698   1      33.493353089592397      31.776370169213983      4.6119853699043443
  3699   1      27.289813812112524      28.716117670039999     -0.8237370868123175
  3700   1       36.95944818734462      22.549810971322948       38.09782151237485
  3701   1      42.106780637802402      48.510454161712502      34.805101174713563
  3702   1      35.920552073831118      32.280853330476425      43.285568831501486
  3703   1      18.595011024815303      9.0636527204015636      33.799190806097855
  3704   1      25.272000866710979      46.372949784513658      11.349217966350142
  3705   1      8.1053676773232617      16.791202731463414      38.582644000064384
  3706   1      6.3756525772517829      47.099370377869789      41.968414915518281
  3707   1      28.517709842450909      41.972840651547038      45.838325218450748
  3708   1      45.216483760676965      29.379901628247861      5.8588869643263397
  3709   1      19.357148783692661       9.311759541519848      4.9271697828813714
  3710   1      15.658636486901603      8.7730455459581709      5.6545928684069011
  3711   1       17.47985994738978      38.537381454687889      39.518436067132775
  3712   1      16.975378878048797      6.3181289023173388      34.553378550797305
  3713   1      20.805630196809236      5.3261776557697482      26.652112548546125
  3714   1      32.149476541372714      22.305015856322481         9.7152927961166
  3715   1       28.62316394836224       37.49983261670647     -1.5345610937936183
  3716   1      19.439734371425299      18.481047857997741      17.495996707573941
  3717   1      21.248013013806464      25.662099127997735      33.466217296484508
  3718   1      7.7813837792034244      36.386536079424729      37.410826569857875
  3719   1      17.488296277286167      45.437488515721874      42.624520675444565
  3720   1      20.508469653765182      31.619905408016692      3.4309305981876639
  3721   1      27.790129147253374      2.8467216866096972      38.319870819866814
  3722   1      33.209934208596614      43.739222432383151      3.7754317893374654
  3723   1      30.995381659999914      28.083929995542313       10.44278767696699
  3724   1      30.869728977235319      23.454797835324623      19.664907531437596
  3725   1      44.073119853688006      48.552767353392028      18.044898129672514
  3726   1      30.247381082809547      13.789824447357127      21.887130240754985
  3727   1      46.967718050260267      37.663781919565622      39.473807683947008
  3728   1      6.2652773496166425      20.676307662305021      14.243898282238217
  3729   1      13.822932501478956      26.293030303004461      21.629205745470397
  3730   1      23.157025405493226      12.718500903220367       23.94662722918364
  3731   1      7.5198012102016447      19.027437659717002      36.210728090391783
  3732   1      48.849946835696962      8.1773686711401687      0.7639521459809705
  3733   1      27.612082485870772      19.894360834019508      32.100553010132771
  3734   1      40.729253619402719      21.855512701716343      16.931547238766004
  3735   1      34.796775919929011       7.244780689379045    -0.95200638587582875
  3736   1      43.587562120912402      19.099423988752001      3.1526917141137369
  3737   1        24.7120867796868      47.070052375073651      30.418435542249618
  3738   1      46.934964468544514      29.136418310676795      21.738430554259441
  3739   1      24.183610473413651      27.436925643657357      15.446677898347032
  3740   1      48.965300835873919      12.858256902114059      35.232675869558932
  3741   1      40.568329309221632      8.4762008664157822      45.693548173753662
  3742   1      4.6595437946855105      20.531383415006353      8.4855857168351214
  3743   1      7.5869588836344048      16.825279402309242      1.0208427888241209
  3744   1     0.95696596564488434      33.650427493106001      1.1451583885477934
  3745   1      35.349659989236457      27.004145555660973      46.815565849640691
  3746   1      47.712403882121897      6.3927284141785394      11.138264469720598
  3747   1     -3.8641158883701316      23.232784372726847      13.798907323900014
  3748   1      46.604282060250419      9.0170677616313455      6.8333653275090001
  3749   1      8.2002400407511722       36.25415773065766      46.186299587981175
  3750   1      3.9777228765105201      35.188437054564297      13.345349851286622
  3751   1      10.893272473974353      47.455262993446404    -0.43538525987841553
  3752   1      45.952876748695815      41.698517854652785      21.459244646213566
  3753   1      34.141020012946214      36.812671642279405      14.840537803703015
  3754   1      29.406280952634205      11.614987881302145      45.037236846213787
  3755   1      43.742493531900969    -0.45645730444547583      1.0416021618878306
  3756   1       28.91177419366273      10.777493740705106      21.975027670893407
  3757   1      3.5583111851231051       7.918875235810809      40.654152805599935
  3758   1      18.624888263940882      20.031831830780252      6.2316116958206917
  3759   1      32.404988493089398      3.0333838724435385      33.573400124300662
  3760   1      35.819140448561292      39.163220240449768      41.149897556384303
  3761   1      10.267341190119874      11.811381135934258      1.7266398119377819
  3762   1      5.8296167785647359      44.103796950191835      45.012955064206331
  3763   1      3.7701325969032178      20.051030312665219      16.690777856931742
  3764   1       8.388817261089395      32.634420204529142      49.487974214772542
  3765   1      36.139730428922441      15.908474062532234      33.415627828665627
  3766   1       29.04660796623283      21.906100459458564       22.76902260666963
  3767   1      44.887791275571573       30.50159530716558      15.026811536790987
  3768   1      42.793503318187334      27.058077297432828       37.97920193793987
  3769   1      18.584288633418865       43.41350491949413      28.371730080027266
  3770   1      27.399020380155896      43.446895104720411      31.247535231778659
  3771   1      31.626942371744061      35.678596911517005      34.410311209648121
  3772   1       39.64012256283835      34.218427104774662      22.213275846888326
  3773   1      9.8518161920551499      25.276004079260328      45.623563289984361
  3774   1      15.213794347676732       12.97629543821076      25.438880457779319
  3775   1      17.990154528195074      1.1152609413905223      40.492274519250969
  3776   1      1.3024202572822883      34.439718233180997      10.550124405847344
  3777   1      18.780279734956803      12.076970341321509      21.660380389397094
  3778   1      39.746852065848394      27.546248582470231      17.162372346475969
  3779   1      34.162612422750691      21.657501585603143       40.04108130373713
  3780   1      1.1115212564984625      7.2842967505705172      34.586210355924621
  3781   1       22.84109803315329      2.0850363136567585      15.034636730365685
  3782   1      32.254506445141281      31.515925193731267      16.035218905400914
  3783   1      11.518970454425968      21.900136239066352      28.421866289528325
  3784   1      18.496561834919738        27.8768794083208       4.697648560705928
  3785   1      23.496990065108989       10.61178353211247      29.546211526554739
  3786   1      2.9113311715578494      25.467412372045487      32.826915454220646
  3787   1      12.483615748858815      22.857483929158533      38.279289867123119
  3788   1      24.059876113867432      40.681277958076478      10.421290485823167
  3789   1      7.8735739862853258     -1.2678911181644035      30.458367692761257
  3790   1      10.005181247970754      27.881866849762748      38.210663589620019
  3791   1      34.341888731986998      11.697191214918808       4.494572971153044
  3792   1      34.631509659783688      45.190041984056457      43.364236121346828
  3793   1      38.794543150967968      8.4959188042013594      13.860522725104696
  3794   1      42.138394458776254      27.783454565780801      30.853954357886611
  3795   1      3.7085278828564658      45.466404493549234      6.4156067874975173
  3796   1      9.0803917288084843      24.751227885895307      18.358068498958897
  3797   1      10.276912958362193      11.359914065282732      14.370238389416684
  3798   1      23.103991441900657      36.023573447099281      17.980143682595806
  3799   1      42.910181551618116      17.468088989236886      16.286044222102319
  3800   1      14.775434324087158      32.441718160652883       29.52745548435583
  3801   1      34.727380759131975      24.108017407426459      32.600997963260703
  3802   1      18.071412918297355      14.012910016733656      26.219964172289018
  3803   1      24.493889635133883      10.154444334934599      7.2354942285389576
  3804   1      27.049262516582093      5.4040730824073151      17.717525608235416
  3805   1      3.6260019960837253      9.2578422033086305      35.764696853305637
  3806   1      14.392233688835352      37.112384936532123       39.27841458351628
  3807   1       44.26695201811458      38.781670225156006      21.614122527878116
  3808   1      1.2980625014742984       2.620126598640466      12.378734075610241
  3809   1      3.4465114335091709       25.62801764764966      38.284557190380752
  3810   1      43.243447462503319      20.053217122972715      29.411669952885521
  3811   1      26.254652826942245     0.53679872312502241      43.004968862362894
  3812   1      7.3891066884579777      18.264932437187586      9.4452279714117608
  3813   1     -3.1431811833793422      20.175907838567642      38.669778903041021
  3814   1      27.566489483056209      30.861809609198751      29.221019258065002
  3815   1        3.64614292232408      1.2258991491118045      43.344824575623122
  3816   1     -2.7373261616845741      7.2976486409261812      31.265089445358136
  3817   1      28.419762417592494      24.075746998880415      39.673965272653589
  3818   1        13.6026672669877     0.49603327927665058      1.8950970062003594
  3819   1      26.763786953992774      46.246523052855579      24.907471598767103
  3820   1      46.284830528348344     -2.3899844718404921      30.772369281711562
  3821   1      35.040016792429476      27.064205009909877      29.346820399233266
  3822   1      38.430205790815123      9.0058605422737692      1.7159178084410829
  3823   1      17.583720519745651      16.120410805981358      29.700626331381621
  3824   1      26.408476399037479      29.302592931859653      2.4614963435326871
  3825   1       2.767495283879942       17.47711783319907      27.663736401643039
  3826   1      43.057716377864033      32.835810923824184      13.260534502942734
  3827   1      2.4343607561533509      12.284108039083867      37.535558539628227
  3828   1      47.197412298115957      22.439552157619179      36.340232981066947
  3829   1      19.619841255387882       16.48899165491763      11.974833966496849
  3830   1      20.096322870214063      18.607448965377703      37.525898773716193
  3831   1      41.265511206095383      41.797076781947048     -1.3349255267359572
  3832   1      6.1894330457586264      33.064420919958124      14.975003878884886
  3833   1      26.243987772641155      44.527138675787576      44.139552058727155
  3834   1      18.132950666253645      25.372821205030949      11.938921006023405
  3835   1      19.413718947077623      38.410866809481888     -1.8082368019277058
  3836   1      2.5368482732932023      39.169338002109328      8.2829352735140453
  3837   1      38.485268569162002      42.446750500549676      3.4392035097643965
  3838   1      38.850445293116685       4.567038401967932      9.0172858376450371
  3839   1      3.5713793057832941       29.00762905837016      5.0370723097155645
  3840   1      28.912380336630367       23.11155692852741       5.039391006095971
  3841   1       32.03182820348605      13.184481424513002      18.606215460188537
  3842   1      47.570388858431166      5.9752651475114291      7.6246461542777038
  3843   1      40.374142345682372      3.1015728759518129      20.059527390971507
  3844   1      32.694793206981991      39.596467833127406      19.306423316148024
  3845   1      1.9558345940417454      44.880209808877261      40.395967826582343
  3846   1      28.186369934144547      34.887947858274742      4.7527765354710381
  3847   1     0.48455707916130786      29.755178023527751      15.300321123278588
  3848   1      12.920584938370398      16.053906706320621       26.74354387254672
  3849   1      16.323459902133234      11.851834790721991      16.783026790114004
  3850   1      16.901585033548763       32.76597002435178      20.025762094694443
  3851   1      28.732161324314234      33.883175877241598      25.345775005722373
  3852   1      29.875942994583266      4.4754404629649258      28.938722232908813
  3853   1      37.873685139443879      24.583454578462909      28.056336959503852
  3854   1      39.295725143198844      40.047233412071591      33.398260446808834
  3855   1      37.051121571772143      21.544815962599831      28.910670737685155
  3856   1       17.76228920935867      41.083122994801336      5.4176951059498926
  3857   1      27.474471464553979      26.697203213625023      9.8879131620055158
  3858   1   0.0084751830091037324      18.023792879852241      26.116890451613941
  3859   1      16.313188779230366      0.6111537426318997      28.707544162183652
  3860   1      29.819770807089309      44.557340870246279      8.2909737454591781
  3861   1      27.698856256096196      4.5448877694269241      25.858461470234168
  3862   1      37.032030032699588      7.6766101706184218      30.831947213282564
  3863   1      21.280475364022227      22.128513450933827      12.700096510415406
  3864   1      31.242899985270892       23.00622696213998      37.876468409547101
  3865   1      29.936285652264463      1.6642943689338447      31.740340970728518
  3866   1      44.254383964801576      25.263756472238864     0.84792743454849728
  3867   1      2.9723102658501919      21.522979149762033      15.258692201873172
  3868   1       3.031652426972248      35.885750987652102      41.847883578014709
  3869   1      38.943722389118768      2.0850162284879783     0.45013700003508716
  3870   1      15.313187426688801      2.5083356201920801      5.2746324159340308
  3871   1       47.00721785499011      35.333393953533324      9.6960961862768951
  3872   1      42.000486654624247      39.680024455172962      17.805454343718296
  3873   1      10.652475583479584      32.988791845488052      46.576053528023841
  3874   1      26.562363584297813      34.109152297197994      31.448238811814583
  3875   1      22.211639918233129      12.926380493333459      27.472085920428707
  3876   1      44.405523508805921      10.371087804061929      19.417275835925786
  3877   1      41.812039815441004      17.953674446075976      32.058057706795559
  3878   1      20.357909485549026      6.1776691994051482      8.9846931160747232
  3879   1      9.7920872530556604      36.754732387851575      24.931746850265625
  3880   1      23.046863724916768      44.641939654652646      32.693438815119364
  3881   1      20.574654650990464      39.415869150016171      30.132556660630136
  3882   1      17.096233528886362      1.1815979710158271      30.507172851701213
  3883   1      46.530560950328862      22.579849565999087      30.968733533531303
  3884   1      17.099012066960885      15.992752788904671      45.629530913358963
  3885   1      25.297387921945859      1.7252988704701868      36.713077294997277
  3886   1      9.3644277616100879      14.493698338972015      33.111666471920344
  3887   1      18.514950148738755      12.398628954118911      8.1819364541324084
  3888   1      9.8229732721065961      41.136370815639935       16.57930628852948
  3889   1      15.053049538408517      36.561203734244216    -0.19166995807295897
  3890   1      25.095337328219891     0.53428032281536597      13.636109152098047
  3891   1      24.875091107211556    -0.47399399547532922     0.57432342490454946
  3892   1      45.939211147785173       40.11316922290839      26.142502350039415
  3893   1      27.927277718377955      27.139609480904426      30.864280040472156
  3894   1      30.703930769089606       22.60978929587381         2.3320815155673
  3895   1      30.148183525683127      1.1959484860127734      13.641608696055282
  3896   1      47.484845926485185      13.204776803237642       19.21447536183474
  3897   1       6.181658961085903      30.206840620200609      16.740165078346791
  3898   1      47.684498954124763      32.272034875151824      45.974211989466426
  3899   1       45.53277045445121      26.464943825894803      29.412674147346973
  3900   1      5.6478722596983495      23.480793753193453      28.199459602386465
  3901   1      13.363209584140368      17.904957990409159      36.446016296550681
  3902   1      9.6890801612676931      33.534566084083245      28.118887786337744
  3903   1      3.4008972858946196      25.647696686328302      3.0115460697791563
  3904   1      29.490858395711747      37.157737366239488      41.341376107822654
  3905   1      11.871178369839074      16.086424129304373      42.233956513714304
  3906   1       38.39777039142389      30.695577602335945      17.421632746833698
  3907   1      44.052930609772069      21.045198205122571      44.657549049485233
  3908   1       1.706649257582604      39.950184295044338      47.040068703985774
  3909   1      15.536049840648632      6.4025764429547731      30.776541751393644
  3910   1      6.1677873336931404      26.230963169379763      19.773327122397632
  3911   1      9.5734032439186993      5.4781095030665359      29.211587674305754
  3912   1      46.391769986961357     0.10433868461832609        3.92062368113519
  3913   1      39.478409566007976      42.604851745848507      31.663595752455649
  3914   1      13.759607026839163      43.538064558790872      48.711199194580779
  3915   1      9.2961568894414413      43.584930455216032      14.372092241176052
  3916   1      23.570290867172588      1.7307036999733345      3.0261730910629043
  3917   1      35.759064354923268      34.462075491683208      3.6621831447396724
  3918   1      9.6922600091918589      25.009263727018386     0.23519459807875664
  3919   1      16.632749750350676     -1.0055562982690525      13.337960892608489
  3920   1      24.765682068075527      4.1025936259170654      46.610969960659041
  3921   1         3.6342130601834       21.52189975836113       11.46522531838222
  3922   1      26.284275540444387      41.108989729318814      16.595993949341022
  3923   1    -0.27704238668273445      20.286154829459676      23.603532522940622
  3924   1      6.8526254897165595      14.123774850954142      21.541321901038362
  3925   1      34.347235221355064      40.054727277708906      11.508106756123309
  3926   1      12.895907031475451      7.9591556781079698      20.576796861040524
  3927   1      11.971672184476821      1.5151569452652118      5.2475535022645587
  3928   1     0.18862423186765032      31.248166611400542      27.823758664713992
  3929   1      27.804323465933017      12.857427188928424      34.639073624344881
  3930   1      19.546148280970268      24.579402594201898      44.803792009330223
  3931   1      11.316533915245461      1.5152063441669259      28.915788241330311
  3932   1      30.022690412546751      27.974727059715025      39.867226266489119
  3933   1      12.789132251231157      6.5615811012977492      -1.172183536344545
  3934   1      18.320403335822299      31.050751173222945      43.537650633324816
  3935   1      5.5084169110201326      7.6324520344275175      47.601611462899101
  3936   1      12.067763198946597      25.788497187783502      34.915620140300916
  3937   1      43.864013641888995      19.928667484995408      10.713258105539508
  3938   1      39.681059155787793      43.933128527381228      26.222988556986632
  3939   1       13.69712787733096      44.925238315354122        23.5811651365145
  3940   1      3.1108611723392019      42.641805296557969       13.39044484202673
  3941   1      11.824760596144804      41.027147973369331     -2.0830324139797036
  3942   1      36.448088325397691      2.2047840370323826       10.86278501204808
  3943   1      31.419983708374087      47.097438083889124       40.88043843105747
  3944   1      33.506015962733613      38.215320270306854      21.772045848425016
  3945   1      31.385090071192696      9.7973960775748896      43.350797268887355
  3946   1      37.586434282065603      26.727699541117126      41.260548450125754
  3947   1      41.734663711404934      5.2558423528336897      27.556375195909791
  3948   1      1.0103734639592028     -1.4035117386954317      13.200466292159916
  3949   1      4.1238229901649062       16.27546102426399      1.2964230624605046
  3950   1      10.179795685619101      49.885529006566834      42.192656717289999
  3951   1      9.1365506700274786      19.295053574936297      15.813317786750426
  3952   1      20.147293894723795       5.400837862953229      16.492310546190126
  3953   1      41.768771389038797      32.061741305900618      23.379341544935766
  3954   1      9.1161496554138921      13.429664485377318      39.780332194636756
  3955   1      36.964194862216864      11.418157390228467      7.3098826765419638
  3956   1      45.331243780765611       45.39545250567226      40.117159848946052
  3957   1      37.330772436690189      29.451901751671013      31.273976472534361
  3958   1      23.444360852754368     0.11975510590633133      18.203938367771155
  3959   1      30.932069595089054      14.362284503321469      9.3375322064250277
  3960   1      20.420255135268398       17.05712549952306      32.846032375195591
  3961   1      40.505533962368624      42.892012349336355      13.495818439577425
  3962   1      13.353523612696264      19.413961761501685      26.676214878759946
  3963   1      42.201160578579504    -0.11057219108408879      44.348539889746043
  3964   1      17.906523118492526      14.778666869217743      17.587478968612938
  3965   1      46.954629953748366      28.678349934501128      26.993178976149689
  3966   1      23.441117356222229      40.229058969857334      37.604356114208855
  3967   1      46.922680293108151      16.014714747600603      13.740423584847345
  3968   1     -1.3000493552793606      3.9510820720833184      14.816642854683746
  3969   1      13.026724943857715      19.034278696915987      32.816550746880125
  3970   1      44.371247207334022      34.415378736643596      28.927060729502315
  3971   1       19.53600788587292      34.715396778032037      4.9139593071888941
  3972   1      21.873252870051065       38.59085504907577      16.416278388047441
  3973   1        34.2868904139196      20.829648199368467      4.1428272337864671
  3974   1      36.028462004582821      2.2660635576349173        3.56644601446617
  3975   1      7.1883157673624911      24.942668741533595      2.4844886338296845
  3976   1      29.263798273779397      32.608896456743679       35.72795687053722
  3977   1       35.74310924784718      20.243026016724226      18.791769806432896
  3978   1      39.119407333956772      24.340990306177204      35.811580081691432
  3979   1       18.57873513454232      25.579106973387074      15.848153560858865
  3980   1      37.060892162385173      31.073172301600657      22.014333950487803
  3981   1     0.39486676001551085      29.200708066491465      24.512793210951205
  3982   1      44.981648696908245      37.211831667725136      1.2863321290503589
  3983   1      34.034395698046488      25.934334084623007      12.240113639856474
  3984   1      42.463878160845269      27.197885576232313      3.9872135063830134
  3985   1      25.380185983975466      35.072430057963402      6.6022739568820912
  3986   1      11.022022612287882      31.661940371439332      14.361137911846471
  3987   1      20.611367274639843      43.068067039468893      38.536257943851382
  3988   1      26.667298869301057      39.308170946704045      45.480517175820509
  3989   1       25.83905092430992       4.379223427799638      31.822179816420633
  3990   1      15.794492376074773      42.632471315520064         22.425905187578
  3991   1      2.3603340653182721      16.740451334699124      34.897580869581432
  3992   1      7.6591254579364625      37.610342318170261      4.0057376638428588
  3993   1      36.247737665287154      25.103502735431427      22.133083497050237
  3994   1     0.18950056773050625     -1.7727175441032064     -1.2732220630128099
  3995   1     0.53977623167762312      34.147299845593309      40.309218054758809
  3996   1       21.72547584418993      36.843277627746033      31.454058430363048
  3997   1      24.725239734418853      23.649361712189975      39.333063911034607
  3998   1      45.941741046454283      18.290575167878892      18.823552714378366
  3999   1      9.4437646376077637      34.461220724529262      7.5932259944216849
  4000   1      26.524923500259064      35.984245743808472      44.134759319890598
  4001   1    -0.47122466472695712     -1.4940511652558859      17.234334133982511
  4002   1      6.5370821798522263      29.481145789774843       20.93970131743335
  4003   1      21.120603688352798      18.783091808455424      14.000253558717301
  4004   1      43.417139658241098      12.489227302303629      12.163349679734882
