(written by ASE)

4004 atoms
4 atom types

0.0      48.780000000000001  xlo xhi
0.0      48.780000000000001  ylo yhi
0.0      48.780000000000001  zlo zhi

Atoms # atomic

     1   2     -46.005591990817983      38.577144262797553      73.677831585139856
     2   2      22.286840030315911      25.157092026662419     -23.068470855712658
     3   2      10.737779286840796      18.113979271010354      5.0815894061725189
     4   2      57.039419203730489      47.102759273389729      45.071917304174242
     5   2      16.841488366719044      25.758803005417978     -4.4778319564010278
     6   2      18.747357993630978     -24.426413516597194      15.967668707767995
     7   2      47.782210901139727     -26.749385624969758     -24.839346716514697
     8   2      84.738846592537314      58.350764904058394      60.087702794204795
     9   2      11.731166481678075     -21.743179806472401      24.765528042667935
    10   2     -69.190232414226557     -3.0483106436920129      44.424373679290014
    11   2      20.682752120234806     0.47512689227976118      72.283633491858581
    12   2      13.101604222520853      79.697590480226665      17.148851730916849
    13   2     -8.9772503513966804      59.377030433684851      30.013274282565501
    14   2     -18.305676270677356     0.16765165766578624      55.048904401070317
    15   2     -40.597488326830671      99.801812860223706      11.906011704203365
    16   2      26.281932286603123     -20.598919978397543     -32.928380071859138
    17   2      50.124417032222681      26.985016187449453      44.312346159112302
    18   2     -27.268581897805056      35.163708707916193       73.09031812025971
    19   2      37.727825366074633      9.5944058184619418      67.938282827183357
    20   2     -2.5737006612631022      38.450342779821383      53.602627694104818
    21   2      22.021449721417266      81.900014252298021     -4.0430371438642467
    22   2     -4.0665451854909387      1.8746387871390013      32.428696089312545
    23   2       8.808098670654843      41.874658841363875      27.412751979748254
    24   2      20.345474285546636      43.860716234160748     -23.146746736020461
    25   2      11.687094200975993       2.630267949024911     -6.7281981847780328
    26   2     -9.6758009741611666     -5.9926346993180672      26.361424939904776
    27   2      6.3992677922406882      62.174014657352608      24.649935778499874
    28   2      32.034538692990679      36.506073402770539      32.886277849526422
    29   2      45.111558994760507      27.001623638707365      18.482302474782873
    30   2      4.8849160617992302      86.879597661359938     -56.127305808104346
    31   2     -11.890714550418236      47.271736725816133      64.197452627016602
    32   2      37.459497604378285      77.898688431924867      43.303337831265736
    33   2      44.431555726905493      51.196320305915172      14.988316126304065
    34   2       40.33226937530182      -45.33324031071848      2.9142086530592826
    35   2      42.029559857608653      36.472330714354634      4.7107002437626146
    36   2      28.101781665021701      28.151462610730817      19.836824841411239
    37   2       60.14439531179783     -51.299070249821661      4.1367735285077503
    38   2      17.152521103701847      30.474233922020645      45.026951605477805
    39   2      10.818212488912028      36.682401947474588      20.114647271047961
    40   2     -13.590067211609648      58.557474490515339     -18.222154001786571
    41   2      15.807331333110355      30.253760825541615      84.273748471068345
    42   2      21.450902023837209       16.82949464029592     -15.334354601188698
    43   2      35.634786010579852     -18.978545741155749      63.355102783650452
    44   2      54.366863292761685      55.681881553183501      30.024118944020184
    45   2      60.073937730037606      34.064913029198607     -13.754834846673283
    46   2      32.990830327043035      40.264397569407784      78.042287906250777
    47   2      -25.77824925216451    -0.86428733446460582      59.856780033206071
    48   2      40.279224761984985     -3.6539122285112176      14.908022553944178
    49   2      46.883924602949449      2.6784663306606578      95.044757572450081
    50   2      23.998904702235901      46.502083663041347       71.94985404459797
    51   2      43.792313227959369      43.604901894241472      33.211020973401759
    52   2      1.5196870340446362     -43.010653010964923      46.099734966070997
    53   2      39.255504215972294      96.327657556598794     -10.137652673735085
    54   2      8.2500399239669466      57.020344699612956      31.493995355781777
    55   2      116.41947570789627       104.9412151917327      26.412018635368344
    56   2      30.103442958101152     -21.104268487484461      27.186251281090165
    57   2      107.60029802442229    -0.70292108867678149      21.923865902279246
    58   2      33.629785732107216      30.864422382403646     -6.6746689301070958
    59   2      54.260193888856492      85.611858754142077     -1.0563413510453004
    60   2      9.2751862787999126       3.821153704301778      8.1114662192917333
    61   2      41.216561623300635      2.6717044528299208      83.593861467777131
    62   2      50.256832056025146      38.758050740905851     -31.303079658409448
    63   2      77.991482139514247      -41.37665415145139      3.3585532294638845
    64   2      30.380074298087901      14.519336238267817      46.923884931039922
    65   2     -27.864543399113188     -33.038487123709508      52.291270748117093
    66   2       25.29154160167494      19.856975118871798     -15.001126329245446
    67   2      82.395198248914809     -5.9817983321725894      56.460335451938143
    68   2     -2.6083421864671261      30.891499102404666     -32.351337473848403
    69   2      18.541925327846858     -51.615130486820227       110.0874020198559
    70   2       62.89891303215682      25.194892597612256      67.632381180542041
    71   2      30.351844696811284      30.073061989215624      16.861985540899617
    72   2     0.94419966225289642     -2.1425919930974699      26.615610225206726
    73   2      21.787794284466731      20.556300012385481      13.152136073595385
    74   2      61.078148540123649     -3.4941608592750533     -10.283905541540255
    75   2      78.133366345986175     -13.156771127751206     -55.028998708939746
    76   2       15.71251535617834       10.40738669951658     -28.069734176013721
    77   2     -27.215399324359851      11.885048342011913     -47.566513868148462
    78   2      18.302712494305624      9.2311976561736255      54.931449263800836
    79   2      21.311015487218302     -1.6819225199990342      43.770783526812941
    80   2      46.160067261202308      23.744204908132463      35.102326435928916
    81   2      49.194436210899596     -73.284021370915582      54.970404486782556
    82   2       35.75223667191684      45.947261953564983      59.824512552213747
    83   2      17.022880601449742       51.22310897240412       42.36280093452816
    84   2      89.648629408353514       96.04506484954851      26.071938144560598
    85   2     0.89807281478088041     -9.1919829048906472      33.540117088536967
    86   2        95.3838083864282      9.4601936134755729       27.65783956489204
    87   2       33.41369220783227     -1.1127521631034425     -5.4732407102799074
    88   2      53.298926318784801     -24.623244400045188       97.23581371312325
    89   2      106.72125561776016     -2.4613344439501033       14.22122165984219
    90   2      80.645325492880403      28.999084621022451     -3.1952143069188854
    91   2      15.455285063109184      52.773991443866919     -19.329578811378376
    92   2      74.744084794849442     -29.837926606270194      23.744110196561365
    93   2      18.406767011004465      5.0310386778736724     -2.3976461490440051
    94   2       11.60392326591743      35.554785731456541     -38.430592221066895
    95   2     -16.377645664410085      61.157206484402302     -9.1729683742020427
    96   2     -5.7962546693970651      26.445451021896812     -36.014061102666666
    97   2      8.2517491008917734      53.004927434124902      41.271896093120283
    98   2     -7.7119590118358436        17.3665913382398     -11.322154405128135
    99   2     -5.6891542224880052      5.1325343025029806      119.36448405742361
   100   2      6.1587729172617793       -31.4461464163711      40.004101262752812
   101   2      23.423968224478106     -4.8867235182679849      43.111533912703166
   102   2     -6.6054390860344352     -2.5980299044669586     -12.606986240900234
   103   2     -9.2580787057143183      5.6051411908465703      19.977692332949022
   104   2     -11.247970723090551     -34.847628230164069      17.585665849377069
   105   2     -13.018716240527624     -2.2093308202141042      68.899983483960398
   106   2        38.3188864016713      22.781911708913221     -26.119409429337249
   107   2      22.719173916723086      58.184115693030165      44.702297105584044
   108   2      31.334584933975918      4.0367119155422344      62.424298930868041
   109   2      16.005939146081964      38.029432100005273     -12.162979142539429
   110   2      22.562412469894664      75.108413786468347      41.711025844679526
   111   2      42.395041988386332      25.696539817128173     -14.345209432799066
   112   2      38.006608629271227      8.5936041484213899      39.579445749509176
   113   2      54.972942249788034       3.117705140793948     -17.346258388066186
   114   2      73.482746864012114      36.407145949775916     -21.004518405254558
   115   2      43.807304863079359      24.199243569441251     -1.1281590685182736
   116   2      60.873717356836615      12.922325255871002     -28.057059170978995
   117   2    -0.84433573321794497      75.572891594735751      9.7262204819456475
   118   2       18.50262027908007      8.6894066581439482      34.555999804643697
   119   2      54.749457326695833      44.989204640215299      32.073361367065864
   120   2      99.382373593380635      27.011901727287373      51.310515086517675
   121   2      30.531668942907594     -2.5780686173673932      38.989660593472259
   122   2      58.588596319057707      54.649197111529695      13.665049389150475
   123   2      53.652106178226632      72.224271259923142      34.723915199645255
   124   2      36.558239934636298     -5.0028159171301372      30.311028894036099
   125   2     -54.522832156061185      9.2676696544883335     -11.888691819783263
   126   2      7.2014853018055893      70.890286212234884     -7.6577320718485229
   127   2      -45.85490334638633     -42.393060359820097      14.019710536649741
   128   2      45.144493278992869     -18.071483337991392     -28.720227024565581
   129   2      50.688117088349813      4.4856270934761433      32.778897736856194
   130   2      41.003177672664656      27.721658472887089      7.6757203096637765
   131   2      41.751774671603329      39.050046668260443      25.433968287688007
   132   2     -1.2822767803333222      -23.48340705538449     -0.9894556064550144
   133   2      17.568232287036732       36.71063410610148      21.019252630179896
   134   2     -19.683226560501915      3.8560685757856468      42.665311309998621
   135   2     -12.937791647715416     -27.684260299384846      92.643576005916813
   136   2     -1.3535821205309235    -0.85351311242808581      48.675874792993135
   137   2      29.120397931661532     -22.631892800305277       64.03672877224578
   138   2      27.379191321040487     -4.4184984044556153      10.275399924354961
   139   2    -0.80583485716584302       66.65249935345723     -2.5832254992546417
   140   2     -17.217718747563502      22.030421469998153     -50.509843614091622
   141   2      54.588556471735117      26.079157784971446     -52.861837590612367
   142   2    -0.16766515751832897     -49.772517169339849     -4.9900174913629503
   143   2     -35.814800397044202     -16.484020485111337      52.076453465885209
   144   2      90.298326624391279      -15.88064230881028     -16.894209747582423
   145   2      47.460276580383493      27.575695093338563      53.903734658985044
   146   2      22.225477314549117      67.434567921532135      53.930839466876492
   147   2      36.221780576763059      24.698739971213698      75.403238085038979
   148   2      41.849235065038954      45.600793373348672     -2.9420923704061366
   149   2     -8.7375296410887042     -7.5216139180603134      35.337147426597753
   150   2      68.437802288982283      97.811229826733211     -40.163182523873445
   151   2      28.872488243712812     -10.915366284908531      69.667072259888073
   152   2      29.327592029201973     -19.922476694154469      50.023254887114007
   153   2       10.21140341909924     -78.354797438983297      59.756852637170894
   154   2        73.3670211881293     -16.219973640229021      9.9850114419400828
   155   2       65.88127540564787     0.47893624777064098      26.089109004004644
   156   2      63.446676299769464     -13.274202030939998      18.238675272289655
   157   2      49.985236553801677      14.839311255033977     -9.1224386283544252
   158   2      3.3362215155269856      2.0939824163362366     -37.421963090642748
   159   2     -53.158306169951679     -8.2997747571619165      22.751022972185407
   160   2      9.9987047612030473      31.130977772903357      29.005010839124573
   161   2       69.00381494493007       5.883152612696712      21.520828733839767
   162   2      49.749775588399011       9.095626238325945     -37.464476603035585
   163   2      40.857254601521518     -8.4181469973401395       50.38042018955381
   164   2     -28.053135714856278     -7.9186188260101176      49.609888333450925
   165   2      84.221640476730016     -4.9039802132275012      53.237259538197414
   166   2      6.7271456346183145      -60.96395991300168     -31.038191471223829
   167   2     -15.071292168518077      54.085598867219417     -19.826756660770119
   168   2      55.847294814444382     -48.654036404438024      4.4699413381405968
   169   2      28.975969964792128     -61.784516419812093      27.521472887057918
   170   2     -10.248771738011875      40.579283666181119      42.901869323137795
   171   2      10.704636236022406     -13.567988438505946      16.123298799899434
   172   2      7.9507919754945746     -20.364542566649536      55.289555264570104
   173   2      79.822066101792331      11.216230110342652      78.775687563375115
   174   2      24.262435746245078      56.178169059461517      27.384305090720765
   175   2      49.228468861490931      8.5914377991488298       32.86700538970701
   176   2     -20.334857157867489      -40.61171360659602      23.812184262532316
   177   2     -26.232695758687949      2.1988781771019621      94.513171024803441
   178   2     -26.574072876535165      1.8446577532349444      54.817323426910527
   179   2      30.737356658268233      52.708713378838389      5.2802741159012063
   180   2      57.780992615442855     -23.286701766956739     -45.142586757680988
   181   2      21.724673836411188     0.83289445298454468      113.30417816088314
   182   2      35.801588819075107      26.230956113089459      62.199997364188803
   183   2       30.95664046756513       37.29703044367227      6.4245901235806642
   184   2      16.504046770221439     -11.265187309216316      25.406569431392708
   185   2      9.1416130967504969      16.534875670590445     -19.257750995739812
   186   2      65.831105830887708      30.685223695586384      31.544934173079707
   187   2      69.587317728944456      79.849783799109574      33.917786957140109
   188   2      81.361426587058858      9.1934984534262956        53.3566676281093
   189   2      90.318525484563736       55.03412240374994       16.83540386844054
   190   2       31.78205885583322     -17.205971461217469      74.259228026673966
   191   2      27.710474334637741      57.776314644882461      33.982205852639154
   192   2      25.885618136561142      30.830908688555034      1.4286053974482245
   193   2     -58.664766620771168     -25.966308971282793      17.882610207934572
   194   2      21.552825456099622      68.311395549857579     -26.084114755590182
   195   2      25.174700552810997      64.936926239373449      40.638771478495116
   196   2      44.319195627145596      73.554810553829654      6.4250772340451467
   197   2      43.963333000804873       22.69577509240861      10.449856951124447
   198   2    -0.45302117050701052     -46.607030439582111      17.538614174120397
   199   2      28.635816777182946       -2.96496617652654      34.631836881028399
   200   2      1.4849958798462153       22.36829940218961      2.7094285624429544
   201   2      30.325411911507981     -8.0420136111025489     -6.4175225458611482
   202   2      7.1436121961157628      21.061268374565511     -41.985180742169995
   203   2      65.880685040320046      68.106177756547766      32.422232437506267
   204   2       63.25045078674593       6.119751273574801      89.249523747146384
   205   2     -3.2573896157789539      34.030343532414491     -19.368689266960207
   206   2      10.805730393156269     -15.292884160572504     -8.3687242099167491
   207   2      42.918689732640722     -4.8874892716579073     -26.802986539449389
   208   2      4.3050684694764083     -25.464786266317642      14.160710913377697
   209   2     -16.559532705853638      34.238348409314113      35.986941453671292
   210   2      63.595899591288401      18.594387438920084      57.554014696892843
   211   2      64.693827136682103      71.009842148447106      69.612242901836865
   212   2      -22.75312276590131      27.574482014195571      47.244343979724498
   213   2      11.151852501101374      31.763732061422672      -36.27602852233025
   214   2     -1.0612232396946559     -29.664302792056471      53.427291255459551
   215   2     -33.757645731423587      36.659096691909753      8.9849370913555298
   216   2     -72.075782478808506      32.807539126783098      -17.62861545082469
   217   2      33.749987481033557      39.369373842164187       3.838313912081269
   218   2     -22.867587320936018      54.529219454200785      6.6624316839323683
   219   2        47.2034606372222      36.759257941460767     -9.2375197142963685
   220   2      7.9562564452580684     -25.431950417391725     -25.950403186281569
   221   2      10.250753988705151     -24.655486829702323      27.655166607913579
   222   2      39.989370242014651      63.032764811017906       27.89817591435347
   223   2     -36.791419787713338       54.44482756087131      59.395012147903557
   224   2      13.616291140365623      49.535404975938597       35.50748830121028
   225   2      54.582133510515199     -64.918023001107741      5.5248343972969209
   226   2     -11.660153664867385      47.885527985123318      3.6043500727970574
   227   2        59.0786955122596      39.218982328551995     -16.665155673208911
   228   2      26.337763497904781      24.341474651779993      36.944963088733424
   229   2     -4.9795922412261922      11.083511936511186      40.694999534513407
   230   2      40.066182424505811      13.062946611619415      88.739097343984525
   231   2      64.117775867732192      21.817423740495215      45.679188360310256
   232   2      71.279379623451561      58.611531718235511      57.536120556793541
   233   2     -13.693538728529472      34.003908843809249      15.015816071812891
   234   2      62.372342233419175      36.588289151854134       72.06246682113958
   235   2     -17.773969884087865      33.329501755340921      2.1177251218510973
   236   2      87.954452077739177      22.551079462087031     -15.312313911612298
   237   2      61.852691570845479      26.483089118982537     -4.7250166785472043
   238   2     -11.277170083489121      74.710452286483374      57.192378631999894
   239   2      33.077903735033068      19.782824245453046      19.382959442776816
   240   2      68.885168269187304      71.353399565013632      92.757785851696894
   241   2      8.5426769170078956      40.258952011418565       57.21077578658808
   242   2      19.689499676771931      60.035221507012757     -32.141664858051442
   243   2      23.813053197129928      6.2774286475735668      10.438239435297904
   244   2      11.722037982776065      55.712934829963778      55.753010896360244
   245   2      28.695538381479508      74.752726614497149      39.458589284971161
   246   2      42.009005209496607      47.163706203862496      41.163882611650955
   247   2      110.55644187778728      9.1524774349661087      35.780834307896107
   248   2      33.143722362606439      31.093005553621897        8.90610981106569
   249   2      46.043611905227436      11.027942336415515      21.752951526636572
   250   2      67.999069915124551      53.344137081169052      57.218405309364691
   251   2      15.089378209484027      38.862788668602384     -67.796172120815029
   252   2      63.568760628245656      66.505865828468586      42.921213051636165
   253   2     -12.588821486616245      -9.212244215669033      46.482264219965998
   254   2      61.166015068339426     -1.4578654767385453    -0.56475403070246533
   255   2      21.369430814474136      39.447351204765319     -22.095847824914603
   256   2     -8.8744554840036081      25.040079969807298      26.218976831735674
   257   2     -6.2242981194164217      79.733789170963675     -20.657286869834394
   258   2      71.483620129165601      5.0300230228144462     -18.664077054901192
   259   2     -16.074504319851517      93.138839113460236      29.067211947419832
   260   2     -54.063546115069222     -32.165498823101984      54.875666624370197
   261   2     -48.883919460157465     -12.918325566660315      23.229752503465317
   262   2     -11.506492718551669      76.101309760887162      66.779120301583632
   263   2      2.4033065897793056      35.466530768563743     -3.7298517686967338
   264   2      97.698228162462016      44.541738629287138      32.518662127156716
   265   2     -5.7359590772465134      84.550175824794337      41.119891962913819
   266   2      30.665337986742376      4.7431093249098364         24.455856898078
   267   2      85.802251783964692      71.137925494573722      40.724808555463881
   268   2      16.671864724360205      92.105890597030225       98.14702477261757
   269   2      82.769535282622613       95.59508703675786      17.252030408372672
   270   2     -46.986294380139654      82.616744136335029      48.881541280864347
   271   2      73.934330160581823       76.94358045064206      11.872771244580163
   272   2      46.335057301964163      12.952839290449843     -22.930521229121194
   273   2      43.499182112709136     -55.684555321685892      74.631377736812823
   274   2       65.49200566240539     -20.319383080757206      1.7291823752387936
   275   2      27.083181458952918      2.8182769512509425      10.556620563377512
   276   2     -23.287790260408396      18.170485578101051     -28.889661137549986
   277   2     -19.253823821301431      22.423676861131035      31.699924238645309
   278   2      16.432208006921734     -27.189792094516218     -6.5618366779727983
   279   2     -6.5864375741942922      106.38229637452896     -28.486087459726221
   280   2      42.772074556606199      101.60674601961408     -42.948674194374988
   281   2      58.471714505230061      47.341655995042565      8.2745448926876417
   282   2     -5.9106749591865544      12.639126829146333     -86.303587939650171
   283   2     -38.628887294447551      41.589325462170905      14.837427952495101
   284   2     -8.9738294474190177      34.377452487958109      38.993768092049557
   285   2      37.190531989655156     -60.143628052419295      51.806345133341431
   286   2     -29.177171773045099      34.735171431513585      9.6090927837767239
   287   2      18.261523172090119     -16.322938648332368      67.423924975881945
   288   2      44.782068556063784       77.11624390632565     -12.011717671580607
   289   2      25.956129841713544      37.746063955109463      73.249089722793457
   290   2      84.969283512729831     -30.578289052059063     -19.761398801327626
   291   2      59.380715707711587      65.223658288477225      41.893881175552387
   292   2      46.930086759910559       5.873318100563826        63.9124098915715
   293   2      39.587827659259787      54.551635542594802      91.161137100096056
   294   2      31.141609284135175        11.2682139711156      1.1385093040752627
   295   2     -50.954573034232062     -5.5753998302758667      68.100816199189197
   296   2      83.032844665726827     0.64570488564097073      14.137422574061283
   297   2      9.7355104453467032      69.984750988878218      13.860002989018167
   298   2       -37.6396149891562       -11.8077692111891      54.120769007912692
   299   2      7.9996247383753323    -0.16943139789306993      97.997895843925178
   300   2     -3.5025142186074016      10.262394397276779      13.805273156162681
   301   2      29.844213985739813       7.707769945340214       38.57968206209776
   302   2      37.165808437425277      147.84301771595287      8.9373920086304555
   303   2     -1.6737974693656392     -24.685908015013858     -54.005182112947921
   304   2      1.9229013314577428      74.183173827970734      36.874180981674336
   305   2      11.858704005201071     -15.475193791146454      19.606143056000491
   306   2      58.957312235978407      12.660036231409064      78.300476831825762
   307   2       31.40014089226737       71.99279803625025      4.2497545376810901
   308   2      10.749807233789692       61.43366594125655       47.97479576491962
   309   2    -0.61723928843762987     -2.0428543309492242      37.674578453421724
   310   2      82.115541042960146      22.011147518195912      29.195000310458802
   311   2      82.325832111361933      26.390721806340238      37.854275637504827
   312   2     -29.359768064730584       91.15265482380174      38.111724416889189
   313   2     -2.0328234491213917     -59.757620311747665     -23.055272716589975
   314   2      8.6919911228839091     -4.0970082293761454     -43.157621540260038
   315   2      39.789683676817567      27.473463997439161      21.782184502379856
   316   2      82.474642478154294     -4.5715010301496246      62.927457754332785
   317   2       30.38690237395603     -20.494959603739872      60.761204974053477
   318   2      22.452353539959496       28.12413068492593      34.027754742507987
   319   2      45.658458367520034      26.243401429441697      80.981285822144244
   320   2      6.5980720484015656      48.907084938536627     -73.237992649401463
   321   2      29.612176685915273       51.22445677645792      32.211400216574937
   322   2      99.615229671679032      29.073474792050682      80.738701323292986
   323   2     -14.487779234120218     -15.558719703505634      31.725244165189974
   324   2      4.4989746519941027      20.861757613781265     -9.8532806119216794
   325   2     -3.5149986658852423      22.465355245467691      28.806269900318149
   326   2       63.15231225040187     -14.790175300982003      63.736161507843214
   327   2      25.457189959742415      45.309846747394907       49.62006528090734
   328   2      58.505693754068211      9.3007409197640083      68.481902606186082
   329   2      65.726730376679924     -53.137590660415405     -24.608872480256959
   330   2      61.092562765943811      37.704915489777115     -2.6553060277839187
   331   2      -10.47303578158067      30.838505873293649      -19.66756450261909
   332   2      22.837702916839465      41.950299991162822     -18.001672195592214
   333   2      9.6727302226931897      25.178610317812609      47.065385731783735
   334   2      41.523232658623471      34.360100681608898       27.59829796298197
   335   2     -48.649617131030944      27.736385857207161      17.149254983439228
   336   2      23.561045758458626       -7.42198067452785      22.936559314305601
   337   2      24.429273694188854      118.45666467669304     -57.036189496771193
   338   2        24.8579745955414     -26.546449722792651      21.471848076808058
   339   2      15.608475043180841      13.319207772946266      44.931610931948924
   340   2      45.854919355608679      87.863618599816775      67.346220626493491
   341   2      27.799387064827879     -17.547420734832251      26.836256967412201
   342   2      28.189908644018715     -17.179617109972476      95.062302697987349
   343   2      12.245434077515972      58.368546050824996      12.868599997691438
   344   2      68.242947944278967      25.935018386997601     -16.787263311724896
   345   2      24.132185404002222      35.279323081552874      40.495224291939124
   346   2    -0.63206506246372318     -15.685658603407289     -3.1685577182029236
   347   2      27.620045983502685      67.007972124798911     -9.9020653206421105
   348   2      27.903643423840677      34.044209626040221     -24.533466084092577
   349   2      24.064426643821914      -8.185458860006495      17.238283906516806
   350   2      10.001151076796415      24.676781586851334      16.521890178579461
   351   2      5.1630758164714949     -10.478216429180859     -19.396540205672174
   352   2      20.401957572988263      45.359621762251997       53.00489055704508
   353   2      37.464511548923987       74.47873512693721     -44.451437555464743
   354   2      35.542329384318677       63.21728252033644      13.470134114646244
   355   2      70.560544395570801      79.029855877866666      16.952519161203803
   356   2     -21.135439966367702      94.312965684056152      24.247185514484983
   357   2      107.35195821019705      99.568112378677597      24.463653711213365
   358   2      26.328691344499411      10.466436234435385      9.3090304583290528
   359   2      29.509496400938229      17.727278618523087     -12.708967844319929
   360   2     -1.5371138478111763      53.269170726794854     -45.240841429291173
   361   2     -23.967593793674357      60.559571808517937         15.325893466223
   362   2      15.495942959658411      59.388774816089175      52.303935004012367
   363   2      27.807874548103825     -9.6313942017639018       57.36086316246427
   364   2     -7.1867453829278034      41.197586096724045      29.875668949582927
   365   2      62.541476310760615     -21.732849084690343      36.339954654271182
   366   2     -9.2839941775627821      13.240978540914213       34.50015121165778
   367   2     -4.4161473405458453     -2.4771536591034193       39.03434862107121
   368   2      52.897981404809478      30.468135933245833      68.533211245374744
   369   2      92.283240816860072     -36.050706090159863      33.164355105327758
   370   2      18.084133810745282      21.524038598952153      6.7422765556204611
   371   2     -16.832940729195212      19.070667492894451      9.8368105461673174
   372   2      49.567756628072409       59.86013067045598      20.316511128867674
   373   2       19.70675206644605      39.651600822274844      15.328831710117624
   374   2      48.589579595708621      28.675463591105096      70.350892059130828
   375   2      12.501597141346524      9.4997286384141422     -25.809311899980042
   376   2      39.437676504583912      29.044889100622253       14.38586238800282
   377   2      98.341333242317376      58.102189393822506      15.609323713914176
   378   2     -24.513732267758474      22.675838048838688      50.079524824379341
   379   2      59.116172523877566      18.459864043302765     -14.252313488116661
   380   2      43.744061617997225      92.196535818738113     -5.8346937093888886
   381   2     -19.102532545804998      22.167317793342175      71.137965433303521
   382   2      45.013766845922255      52.918686751553572      37.174943056222233
   383   2      40.296298334175333      1.4281890497356595     -18.229706858100208
   384   2     -8.9948608594913324      45.756488586306958      9.2331394491408396
   385   2      87.567699339651668      26.719415499523283     -17.975659830773111
   386   2      46.212866737420249       76.86346250054325      28.122397502528997
   387   2      40.107260844792144      19.403268533754936      7.6579214155777144
   388   2     -34.235013336502853      34.722196820714977      43.376590286716365
   389   2      44.602633849343114      -16.12418050756844       25.01755513599387
   390   2      27.987567874735433      111.07375489794497      41.184828455139268
   391   2     -25.441149533119734      13.697938471699247      6.7910377805724211
   392   2     -53.101823000243193     -6.3855908676363367      63.283223184993886
   393   2     -6.0128016086327021     -7.5773419451923676     -40.125494455046024
   394   2      47.707138733327021     -21.463188900370753      13.714963978635245
   395   2     -3.1828182466581048     -9.4356967156865359      43.255599740547666
   396   2      23.969248068223067     -12.255178725942205      5.3113201379548025
   397   2     -34.078702238232808      54.570691285358301      13.248546600766915
   398   2     -58.491326081328289     -3.7544083050226402      43.893749295797683
   399   2      61.479919167308246      18.041125674363727      -10.58585342112054
   400   2      63.696285639570384       73.19971794311337      9.7192758108294708
   401   2       5.749160238952113     -16.682013280095632      72.239679323714384
   402   2      40.840291739739385     0.95047479834353898      9.8903970391962464
   403   2     -14.504537735199786      40.216579207774046     -13.344940449238859
   404   2      55.492121607460355      55.806016437608953      65.719042166752587
   405   2     -25.044759886761081      51.378964865080128      9.8159290693610881
   406   2      58.953336281799601      -35.76736661668766      59.866787034198204
   407   2      33.521380956788711      26.149194005564663      50.159188524747321
   408   2     -28.909715969374595      12.602933428115286       54.10176849179274
   409   2      5.9580832323770885     -26.503743209243137      45.244890761625925
   410   2     -74.675093450773019     -25.038752373355774      57.496818908268644
   411   2      5.3495336146857744       10.80446656959875      65.849468128886954
   412   2     -8.1619865213176954      20.256040210884841     -6.7984661531373245
   413   2     -27.536209159440414     -45.588960172219288      36.169337135467522
   414   2     -42.711459185620633      33.587376597694366      30.421620273762478
   415   2       14.24409637045161      -12.57149914935804      2.5355938959489333
   416   2      80.751626927502471       25.00928508614718      11.076439193485818
   417   2      53.520408663875699      56.159116194485094     -1.1515622058827819
   418   2      27.564304724802842      69.674734182031131      43.458530581431347
   419   2     -2.2669461898071406      3.0951560316123095     -6.4035274316731901
   420   2      24.031605780319911      1.7048453155334597      20.073400567611092
   421   2     -45.508963704621046      94.708443866924554     -36.171320421550746
   422   2      16.681972291054965        86.6176848231365      47.489624865152237
   423   2      51.950990010002144      11.589701658665332     -3.4308113677660308
   424   2      2.9391164141402655      33.849587349421405     -32.377471422377425
   425   2      54.318237846890781      20.175068835219065      51.457301509797709
   426   2      4.8402314465003089     0.84981948395485263     -2.8679084844101905
   427   2      44.853034681560636    -0.12263549325311041     -4.1134119936146192
   428   2       8.950488725877177      64.832178370617854     -11.849175339190715
   429   2      27.035707962722885      15.259866866551819      20.730673109091605
   430   2      24.794143809409753      73.100330022605249       -33.6448457226969
   431   2      42.654337146713274      -10.83248454471393      16.127488826505164
   432   2       24.65620429035549     -3.5040357992502806      27.788699553603223
   433   2      39.761400889783644      23.561097357651843      13.823326225281876
   434   2       17.50304993008087      22.433376526974214      28.729434662920411
   435   2      50.919618619777886      20.711387746395911      96.921010938377606
   436   2      20.024349027227959      66.775375854129464      16.137724878185157
   437   2     -27.164746925682387     -19.404813678052278      1.9438477600436335
   438   2     -22.787843984569637      66.948101186156819      95.970865725011876
   439   2      46.002841383408935      26.079595171059999      120.58844389361523
   440   2       16.21744106331931     -20.446283354602695     -56.361197761387899
   441   2      13.040922306532936      59.275884391264412      66.212264570832701
   442   2      24.109473893110184      16.782537928879066      85.934097014380896
   443   2      69.165554265609302      12.485282252208638      70.364263970606515
   444   2      39.710878315832133        18.3557965891038      45.934799024726985
   445   2      22.444239479081453     -9.6559110818584806      41.918115611637582
   446   2      90.139931199424751      28.274872909211108      38.514510344559071
   447   2     -6.4632093273809996       29.87056408997331      4.5409683778328418
   448   2     -50.575826216539539      68.319857368058109     -16.492440581519524
   449   2     -8.7339564543539598     -1.4550435076769159      67.310757852057947
   450   2      56.316946321489937      52.826125373758281      21.694753420404894
   451   2      -11.41837531535716     -31.504864894356814      90.083928687379853
   452   2      18.773271395203359      4.3520372560619531      4.4751515727407529
   453   2     -64.846516905845945      62.622619611188874      8.3178961434384107
   454   2      56.368164257625033      76.364546281614949      77.575569502040523
   455   2      12.448597656988882      90.046614028546671      3.4995600663269939
   456   2      59.262776394006828     -4.8590861239545857      10.074620905700725
   457   2     -28.105795964341684      85.553709726046009      34.206962446870783
   458   2      110.62094161407065     -1.9418195671824843      24.376720365026209
   459   2      50.234918500072844      6.6283239540474117      8.1082337803519717
   460   2      15.732490066572353      49.060046930667212       -30.0116253273032
   461   2     -56.611870630648404      58.883298028149454     -53.975022713721643
   462   2      84.692900658843755      3.2382077239165521      31.702660361455443
   463   2       68.39620232701661      40.867957001141015       22.74404749093727
   464   2      53.138358732156114     -1.2288713865885641     -19.031275676257199
   465   2      67.116412739907858       41.31079852013017      34.401167650279881
   466   2      -10.36623664921021     -27.541216983441188      26.150578594571734
   467   2      40.966790058198704      71.948788703224665      30.314606575726085
   468   2      41.706572402943046       25.78037865284017      101.44362767612398
   469   2      56.532932156263279      7.5101149915342766      6.0666365904217292
   470   2      21.779504179366796      10.339466932254721      29.633730756011829
   471   2     -23.627264737583889     -9.4951795718638401      37.974439703676232
   472   2     -4.8897106119412834      84.200138530195431      -3.507191957378728
   473   2      36.297634765852131      43.077366950734458     -31.159922317165801
   474   2     -6.6286251413577473      32.563201316096993      66.185684674524566
   475   2      16.847487094879764      111.32095339317206      51.977831525436009
   476   2     -6.6218091232246872      51.749634958734035      44.484710957477176
   477   2      81.522596886041484      17.642014970996588     -5.2968409365893079
   478   2      25.647223926921633      25.949426130806859      30.090293035357224
   479   2      34.625902455109149      14.394487951406804      28.108255943229093
   480   2      14.656993336542623    -0.90735472703944775      15.083112275035926
   481   2      61.983054669292009      76.067195798492733      61.830353440085162
   482   2      12.936087533618235      1.1883600694359671      57.203125770726999
   483   2     -31.364025369813959     -15.666273505110833      25.292272749237352
   484   2      17.958293226026399      9.2507008352185149     -7.3882007599296315
   485   2      54.064493629590963     -3.9137976378684844     -23.705370258677721
   486   2      2.3685078738810947      33.748193696272644      38.319281188696507
   487   2     -35.379065381233062      65.732300476006742      48.314259370648379
   488   2     -18.140140139767148        18.8505722671242      53.231303159521708
   489   2      44.340624394811684      12.859920278452764      19.273685195252593
   490   2      24.248397683627125       61.99466459744918      60.211880040238633
   491   2      8.5508168386772105      37.508466719453637      43.472094882110348
   492   2      18.714271512700083       15.94872787072503      41.897189033480181
   493   2     -21.185215652646797      43.014831158320504     -8.7427480410481717
   494   2     -54.294481876838461      9.6927975181282147      47.846668216009704
   495   2      51.038216102190667      14.632741091982879     0.27594225174481202
   496   2        42.8647767450461       63.61491416990674    -0.81465238516815353
   497   2      49.541622997073645      49.781585979081235      30.089010178038251
   498   2      16.477291469538319      84.079631609489141      29.948124954269133
   499   2      51.447312743261833       12.69256679042593      35.956715786444207
   500   2     -28.876599411837212      16.339523814181319      56.068862860876131
   501   2     -3.1078403122750933      27.691625570616978      94.318446313908396
   502   2      12.267434118813076     -28.310007505959017      42.096209052709646
   503   2     -2.5079455897291281      72.856125176578075      51.488750241517309
   504   2     -20.144005250844241      28.290968590242006      23.489782197140482
   505   2      8.8610276494868163      15.223791962922771      21.849375249123725
   506   2      45.348227659398788      64.076569509350435     -8.3120701822920964
   507   2      67.454744668140606    -0.44623949958896142     -2.0432046647112898
   508   2      5.5489541827671856     -24.921670586596598     -23.775249118082801
   509   2      1.6842015346479413      9.6488898371888254       48.87492630442614
   510   2     -9.5823744895845167      1.5206549382526162      64.509597659351115
   511   2      28.006698499524941      59.758748181245643      95.325554141707599
   512   2      128.33101639740923      11.165183511195536      21.378522301151083
   513   2      51.323721607969027      16.600987201627472      3.5517820585442887
   514   2      37.999430570117191      30.852752245883206      38.466049697008138
   515   2      15.353363374524438      33.602492372263036      21.659927673515355
   516   2       29.24371546569078      46.070170014741848      48.876605733103759
   517   2     -19.592507827954783     -47.136762956701027      16.401410920680171
   518   2      -4.546982940225063       55.08270474829029      57.833850400919033
   519   2      26.501027428082779      8.3141646191742833      65.292797528568954
   520   2      97.007856843206568      14.721356396427408      5.8741180590192252
   521   2     -21.939653787477479      12.286906929996077     0.78837963307027492
   522   2      53.665593957586914      60.540452520145863      1.1016156941998636
   523   2      37.283079059478681      -17.59778363340557      58.724775805298954
   524   2      2.5919158189824207      18.613904698726326      29.694469276518202
   525   2     -20.238499258630991     -10.422334411637863      2.7102250015192002
   526   2      45.649927481119789      8.4144084633399796      18.218838526862438
   527   2       -4.02961733236243     -4.1269272393024385      53.302186790652492
   528   2      36.783523212579425      6.1654999491233893      55.667452227860394
   529   2     -24.977093847493602     -1.0453264220321601      3.5123584158964873
   530   2      73.604720548253269    -0.78475942262718523      56.664046986771361
   531   2       74.49941876511069      6.5329328550294568     -3.3669035381869148
   532   2       44.73097284710903      104.21906264279708     -7.7552697940805411
   533   2      131.10296799112913      3.2584266377388089      36.359117274164092
   534   2     -32.448960316925088     -6.4396404648170655      64.529772473611573
   535   2       21.01269667485623     -60.259233382989336      -10.60029146592729
   536   2      73.230635983783529     -1.1169218363149716      31.747467696115852
   537   2      92.447749494524302      2.0746235506380986     0.12831095629820383
   538   2      75.503478060538129      60.133497193318632     -20.805677729445748
   539   2       13.45810687686156      3.2308797232775266      5.6377580018522711
   540   2      27.430352898859297       24.82171498413199      11.797830584794617
   541   2      7.3163842559089396     -15.762833218539507      18.870567351865432
   542   2     -6.8385984599765406      7.1070609247725836      73.259166182716029
   543   2     -16.738175459342315      42.721400172704165      97.898651279121808
   544   2     -48.132433731682319      29.453692396087327      40.368578051916636
   545   2      16.259421759818682      18.045563366676454      20.092576244312646
   546   2      28.432439637579279        11.0506819748718      4.8174414388322795
   547   2      28.161440736426862       56.22613101285112      30.575231822768533
   548   2      23.315435099826576       9.411289164067604      -12.20789981369709
   549   2      48.158867184509219      85.040481687375305      63.790910406680347
   550   2      28.693978402817859      41.530861571717914     -50.980355789809188
   551   2      41.688985346874802      43.062177616395481     -10.231050234426542
   552   2     -28.241210359764665      62.606806475970586     -12.415062373692027
   553   2      86.556687371898477      52.400434732450996      39.565111721538379
   554   2      58.453343539011001      83.094590455742988      51.933721378413324
   555   2      27.264688809792112      65.186970396658097      -70.73809011691273
   556   2      29.020767767437345      70.956243284912929      18.022089719995996
   557   2      56.313358021692558     -41.904793208053512      10.260012500884448
   558   2     -8.4898120874695095      66.914804597775259      2.4256475877546086
   559   2    -0.30288148963811068      40.246682976082056      119.57520920594264
   560   2      8.8391235251257996      20.270394239648564      37.867161406788647
   561   2      4.7332347275962752      1.6761815262618271     -6.7219317977456106
   562   2      35.362981059743134      33.223834607595379     0.80081195478410661
   563   2      17.017407037728486     -9.5366654402536213      11.871162760816949
   564   2      72.739647929604885     -7.6899328416952484     -2.5093869820051253
   565   2      68.193722455269921      67.196575417451911     -60.451435811220641
   566   2      61.789649596872124       84.04157108067642     -20.954631637787433
   567   2      49.254037638835349      31.387212001389635      61.841438037141721
   568   2     -44.955342899117504     -14.233526897433455      20.424100863789398
   569   2      19.107135664501108      -19.44953678239645      54.207736142314872
   570   2     -5.0192547369088869      21.265289951211905      53.383795935166745
   571   2      74.988688253927407      21.133317179171158      55.120099284197487
   572   2      29.997873065454517      66.580576187007708     -19.832740622730014
   573   4      27.226601232209713      31.857745193006984      13.296127883511861
   574   4      35.487945003764295      41.530076919396961      1.5335713989024469
   575   4      25.028970613082119      7.9676663200848381      31.183040984266697
   576   4     -6.9397824176979688      4.2715195903933427      39.915303532416296
   577   4      18.372152678942697      25.283865273696669      20.101826023470235
   578   4      23.090293473751785      43.881875942101253      55.855696481341695
   579   4      7.9048647776110128      31.683334118483977      43.083980326071014
   580   4      23.721418194271653      3.5313867969920882      26.982657799284912
   581   4      25.783350198427673      24.156666019056836      41.342896588957231
   582   4     -4.5411377076093604      36.702942708470914      8.5063225866795893
   583   4     -10.427921829168875      22.075744565701278      53.295828242281004
   584   4      52.310603819529561    -0.39438083833503629      1.2285171597385041
   585   4      46.652572985034617      16.991773922974058      13.399658764070685
   586   4      50.880816468768387     -1.5868120819422444      22.379598777161053
   587   4      22.114938290142501      6.1637267507534741      54.916204275968163
   588   4      20.247836004593687      43.347922082020773      16.802458404820346
   589   4      21.985641722538986      36.865463955427472      45.678778096030577
   590   4      16.171536405182326      57.612081444039077      16.020976805634735
   591   4      31.958599657316316      30.415442065932677      37.260741155603412
   592   4      42.808765372074596      19.681024269090457     0.12774910107939619
   593   4      17.213301868827397      34.115178627278183      34.141003846982372
   594   4      15.029752623033692      8.5699709456993585      57.971731394910172
   595   4      13.806256400369458      45.045708569916719      12.165908760797942
   596   4      38.471404332862676      21.791747326135187      10.349613513654345
   597   4     -9.5960905875474225      1.4977655462401358      42.875860723888046
   598   4      0.2921871200014966      24.157969846287401      19.549018945550678
   599   4      26.542143648111708      19.482778614706547      2.6798104580928097
   600   4      21.184129326071389      3.8279416602691843      11.832476244208971
   601   4      48.747871637889162      17.191440559742716      1.3777539843804465
   602   4      13.198144269320645      21.742726329117872      18.062678664012775
   603   4      24.267665029159097      38.405714948257632      14.299809956267634
   604   4      11.308361640676766       13.16424610638891      24.902031065168217
   605   4      33.714081046356597      17.454437416984131      6.5760682052725565
   606   4      -3.554158351998125      28.884999987989982     -7.0936919773376266
   607   4      35.996217299523806      6.3233622105080141       37.36671949218151
   608   4      47.893313302743785      19.693632583246334        14.0012655771952
   609   4      10.305867932768912      27.130072044058249      10.279082548492045
   610   4      14.533367964537122     -3.7422947810973364     -2.8220297050403449
   611   4    -0.74361087103959489       36.49276962795409      8.4989195175055077
   612   4      22.494983037725468       6.456058235089527      46.588134630464182
   613   4     -1.7767875334397865       35.97590552253687      48.205397794615195
   614   4      25.449259564525292      9.4748233300075846      13.038651689302634
   615   4      37.504571581690413      40.483455836499139      32.260925574294305
   616   4      20.868934518981913      48.587883140234787      30.613854752498039
   617   4      37.052299434853332      32.689686682930557      41.419453020494664
   618   4    -0.78370163360798728      42.290297819792684      53.067184180637526
   619   4     -12.343453524738724      44.757956615180305      41.131476554342974
   620   4      17.025716555345337      8.7701391276785348      29.489191070849841
   621   4      7.9259335688364727      19.596252988390738     -4.6500409147494137
   622   4      7.5251178733421771      3.0363764602400609      35.254211571260569
   623   4      21.985578898988436      14.841674037059734      15.854548163776389
   624   4     0.90616411536385877      36.634453032502272      36.309672080762297
   625   4      50.761976345648598      18.696891312195373      33.813004973431759
   626   4      21.261703146593433      41.416606255353578      5.1858145014072585
   627   4      26.419113238682502      1.3826881042532499       3.985680577157475
   628   4      21.376308026771817      33.661714679391608      51.725431979214704
   629   4      47.885217521414376       7.228599171088848      42.836307219037003
   630   4      40.284506678782954     -11.853456846821894     -2.1657170982739897
   631   4      26.358025753581877       40.74580299964169      42.713648155897751
   632   4      24.638012652047127      13.137132450391849      38.734877140056234
   633   4      35.790209660352247      3.1005171245638961      4.8241957787981402
   634   4      44.886457769351296      31.698919351017359      33.595469604977694
   635   4      36.974381749683978      19.249342280961866      22.503374042079038
   636   4      15.242622880715757      18.331858720777966      28.705656225558581
   637   4       21.65412134723794      37.299642445067512      20.392157785879679
   638   4      21.029439700684328      32.291255224673392      27.089664293926297
   639   4      38.988467962120353      7.5898565988256195       46.00758050618149
   640   4      1.5888874505791717      44.717793594358405      9.0167097008880077
   641   4      10.404724691713403      53.846638061495405       2.992374349940103
   642   4      16.375924727834182      50.825662986432462      55.713296250226151
   643   4      27.429147377069885      5.2022594440958461       39.27144470798865
   644   4      19.581104590036716      61.811084688963803      10.066492634866002
   645   4      23.212301036049951      10.505473399102305      33.220884352397327
   646   4      31.760204348601267      41.983688095925601      25.172750027335422
   647   4      41.415015456910027      35.727910260170162      23.121724496452988
   648   4         41.302937323616      7.9460951355040219      40.380705575611536
   649   4      9.5193428455086853      21.581441272577326      3.2659683496367609
   650   4      47.641037727772925      19.523542502287405      28.020761014853193
   651   4      23.066929803323692      31.720001783609206      20.396514214501757
   652   4      10.602161118941188      14.745498373603352      33.144132481831299
   653   4      1.6540161279013914      32.341828853121292      28.909574818105298
   654   4      45.608819610418578      31.365404322707512      4.0851137833130977
   655   4      16.593831889802182      6.9112352702501259      22.849237714207515
   656   4      7.9352320100819345      9.6721005036133718      -2.699951235695079
   657   4    -0.17332703317634746      51.067058294611172      13.480875125016546
   658   4      41.701574466547221      16.610365909165782     -7.3932733671891517
   659   4      14.946748915791986      32.719629037685387      10.952391082687363
   660   4      28.058646635036094       11.60434834100057      18.480421773071818
   661   4      8.5673487001045743      34.710925895764696      47.362208066712753
   662   4      32.206328674277543      5.1108529575936261      33.715341620548855
   663   4       32.13686010236124      12.833856928854251      12.465614047599882
   664   4      13.923205750474303      19.709611071353603      23.840647750063393
   665   4      43.384663414810667      45.466250781292715      11.778768983469977
   666   4      12.491586754133355       27.62461117179453      29.198072543079984
   667   4       35.00872109818657      34.183929970392882      6.8609065303819907
   668   4      10.831753508955561      46.612140495012873      18.202728059128575
   669   4      16.639189919741025      17.275457776376612      5.0569954768287975
   670   4      46.700053900891433      12.998807067929407     -11.066954888592429
   671   4      19.781126770184382      27.222097304075877     -10.057369483275583
   672   4      27.315054268530901      29.204825577500714      31.936243348932035
   673   4      27.062439278648593      16.456850820320234      43.790307822144413
   674   4       26.45571077446553      21.213512607344022      12.656051386866544
   675   4      14.418060630551436      9.1300972743183628      43.308609377172232
   676   4       40.39677107850126      12.795849381660259       20.13935241220036
   677   4      55.406574551107262      23.107576409729148      28.710422042778767
   678   4      39.496360600900381      45.988498972861208      22.617836429168904
   679   4      2.5575851096862321      2.0401660376330728      69.640501590811041
   680   4     -14.637594062308652      35.641311883361077       3.581672853478612
   681   4      43.513822951243732      22.594563006990644     -23.370910345629198
   682   4      17.507070121827489      28.841474533535383      20.370558268292001
   683   4      52.338046039839263      42.641417305276676      34.121574219302424
   684   4      8.4806881070287972       9.331493283142704      23.447434374212968
   685   4      31.062976857286241     0.19029470585268096      10.113825093582802
   686   4      3.2644694010741611      8.2580914550675928       38.10282335784683
   687   4      10.790372090400506       10.81379655408432      53.318954992819513
   688   4      35.088938733723516      59.056655531176105      7.6728021885816604
   689   4      25.795357968677802      32.525982274058833      42.308356834774926
   690   4      24.120773663182639       22.01611869080299     -2.8101777025570294
   691   4      35.075426804590506      22.843719960840481      51.535517082107468
   692   4      22.816989986416175      24.307629822432599      33.013836066215326
   693   4       45.18150465006525      15.326694773642595      15.645568881875215
   694   4      3.8530133963690054     -9.1040473302479246      45.551266403085087
   695   4      -1.492896009471562       43.70792326392646      49.576768291813025
   696   4      13.307226643595696      15.651743515040792      27.099351081058526
   697   4       17.26911430296914      45.232918465991482      27.994329087194526
   698   4      20.121132002841442      2.6052905450921227      27.913880137379923
   699   4     -7.1921635329665889      -6.568765420652519      18.184558249843093
   700   4      32.040458678124388      45.369310980062345      20.161228688804655
   701   4      11.349815093859016      1.0876509362977804      51.442120126285282
   702   4      26.835183619849698     -2.5345654975683214     -10.185700051935781
   703   4       38.16320977425768      35.918032686655167      25.149207614008382
   704   4      37.476729850564332      28.894296213286072      24.639968376773364
   705   4      15.082710139045817      29.112181539408059      54.476098711679946
   706   4      25.718920544174185      12.602079918444639      35.202959502257293
   707   4      3.2089258692775275      15.350178247859583      7.2393100527962151
   708   4      14.787709739800221      13.039050111797522     0.39902442394690568
   709   4      29.363728884596075       37.88769341368134      16.904559874132218
   710   4      11.312524684508537      16.397759781386306       17.87466774116341
   711   4      36.165884257077742      29.851761399867222      2.4143513698802992
   712   4      -9.972098541871846      12.082101644216523      12.733515300420132
   713   4      26.965415409707273      24.306508044078882      44.950884162937342
   714   4      51.889617714716913       34.60912856034939      52.452739168204737
   715   4      15.868152025159727      42.685800842111391      4.2436527065131342
   716   4      20.199389784943143      45.010350288006556      41.304776903253064
   717   4      42.315088678031401      23.370304801851365      20.201342582389454
   718   4      7.5641210119853977      33.083075075438209      58.862629312097134
   719   4      49.615741099183865      18.431432639131508      16.370725529232669
   720   4      33.058589638455089       17.57256804676819    -0.95010562378754981
   721   4      48.985047565743287      45.514730173582535      16.385189132908369
   722   4      25.524188300887754      27.339595681400759      3.0838459595956182
   723   4      32.572507942423485      18.421310173218608      31.962813654939673
   724   4      15.125221665981289       2.375381469539982      46.308189000991568
   725   4      20.572300752554668      24.848114401372989      12.744204974299878
   726   4      26.462957603017387      4.1853452430971014      24.772785772652561
   727   4      37.216537404247177     -6.5995914035409839      14.176491123490687
   728   4      40.339546029595617     -6.7032353356684515     -2.0896484352572053
   729   4      24.881474121877265      27.618577223096647      26.193927523833551
   730   4      46.507710310695309      20.509327446652982     0.61919383602905886
   731   4      42.752461916943041      28.415362938784686     0.45252471927140053
   732   4      39.552111056413509      40.016923967410513      5.8509166876273273
   733   4      20.583565502602319      21.836463119725568       2.829634309105975
   734   4     -1.8806503094884379      44.197669257501964      24.469362714738526
   735   4      18.963543851841884      50.953967068258656      18.010606436829047
   736   4      38.927239845387106      34.718231188171387       49.33248005289412
   737   4      38.409226182381566      30.063680701305277      5.3546550704879161
   738   4      33.079848435381614     -9.6328081737749631      9.3090552919347349
   739   4     0.82878959718930834        39.0562141901407       43.17057630400798
   740   4       40.65413206519321      7.5343815380728634      5.8927598786340107
   741   4       39.86733297256103      29.255802705246854      50.877445717638992
   742   4      30.986369998111616      41.318870410434684      32.935990508191466
   743   4       10.25720532967005     -7.6458772722530268      43.366150121418485
   744   4       10.26002672301604      10.968112161376459       33.77938305182505
   745   4      48.236125311365626      17.906454847261667     -6.7321099733579759
   746   4      14.874773637326802     -8.3522694389486993      23.271139177116915
   747   4      5.8488166743467271      27.017436066688699      2.0603525734225254
   748   4      40.395973439072698      25.120365400174077      10.222952134721961
   749   4      52.596200011515542      10.824888359180328      13.168984935578189
   750   4      39.796996077212277      31.281420169769007      41.620759803464544
   751   4      23.528106449349362      15.056259076319451      48.483818679992744
   752   4      34.397972200654024      10.431015450620599      26.648685895962995
   753   4      28.502072890596956      8.8008056716254082      19.728458684745107
   754   4      19.960566519507875      12.195144235984763      43.030537392635082
   755   4      13.852822540316026      29.232995035506612      20.978129318601681
   756   4     -4.8152363135249958      48.271243158290559      18.798056487081162
   757   4      37.684568063396533     -6.9462304240533763      38.905757765135441
   758   4      25.206804952342559      5.3345403975573422      36.521402308742161
   759   4      32.082755851217428      44.125099310458111     -3.8366195251314843
   760   4       43.38624559370804      17.580037149757448      16.149317636578878
   761   4      46.099060860842407      32.502910052708849     -7.2185746572868581
   762   4     -6.6589821735317871      26.906729670323553       29.64057035790297
   763   4      42.210548864296314      28.708730481482441      19.047765106839449
   764   4      6.3744540349476786      34.282584298703824      41.034379267309646
   765   4      19.511555557658987      31.104333500417987       13.70004907340468
   766   4      36.520179036574781      43.670401061758277      22.746051951269418
   767   4       30.30319295600599        23.3406184113549      43.451591664336313
   768   4     -7.0044860565219977      59.423995406066886      14.448268574530308
   769   4      26.039465778495341      28.435356385288273      35.502043558388699
   770   4     -4.4747361275364135      37.443986779479914      50.466557773958741
   771   4     -1.3832040365507015     0.38250389910642374      39.922916982870419
   772   4      16.849132849760284      37.692664425119126      32.682904595929365
   773   4      11.906885988815729      47.900503948563099      11.183947559693811
   774   4      7.9062245761564069      35.510113308609732      12.934468516408822
   775   4      36.006359807182946      19.408435258522321      12.177310515894096
   776   4      31.355384435808698    -0.53636309522737824        29.7896461222863
   777   4      31.214398952957097      10.420788870704504      36.339860667126622
   778   4       45.26110809829877    -0.05382120158386991      37.064658132719948
   779   4      29.661186313834509      14.008372826433867      27.706019341210023
   780   4      43.022261976348119      13.886014433723229      36.929049332717483
   781   4      3.1686202558535892      22.014581811536484      6.2756121149905697
   782   4      44.790314995095386      12.477463475459055     -3.3935890256338013
   783   4      29.124629259613243      13.224015926055799      34.647985338144771
   784   4      22.444041053571315       45.85276772905884      14.712765767812337
   785   4      29.431794574551439      7.1531465167957471      7.8822443325322906
   786   4      24.371999789781093      19.735865352311563      9.7480121564208559
   787   4      34.790923666651388      48.520975711003842      33.970620798176348
   788   4      47.526686659302939       52.28771551044705       7.494550417714283
   789   4      33.362155379665516     -6.6415868246168914       21.69008714158991
   790   4      35.206311979720113       18.02313186562224      16.442542845535268
   791   4      34.457509253220174       27.96904429009572      10.137758688678417
   792   4      55.305141082140722      21.851119796192748      10.629881314758828
   793   4      34.170018536416194       12.35843593120984      19.309794033681193
   794   4      59.308324477182694      9.8106107353917125      26.572781898546843
   795   4      44.799147854583232      19.155347328179197      14.037825242255652
   796   4       27.23164211208212      35.937582968080484       31.43650981769472
   797   4      4.9439704495421903      39.554659845380733      19.891332127093957
   798   4      15.726736779560062      33.199730811344807      48.765721118091776
   799   4      41.254419724672175      31.792552355259197      48.682972872659533
   800   4      9.0540488451845977      2.3972534771169411     -4.3429344652918607
   801   4       22.99610817006036      40.465269477064886      8.3332816048846006
   802   4      26.659736614385711      15.881892726371984      33.948179103203486
   803   4      38.380453505674765      46.622495051196999      -1.378207877767629
   804   4      25.880257576871799      7.7779132405259377      38.949070122524972
   805   4       37.90136949816042      50.156246885177268      12.066328823408959
   806   4      36.220595193108721     -3.9183185069047735      7.6733405057895885
   807   4      25.303307375200948      40.355143266443839      11.417042453585459
   808   4       30.16575817318229      18.532159866157134      23.714504005414497
   809   4      38.420703765371378      32.530026555599406      46.385635386462155
   810   4      12.842580495371262      49.814300344048036      32.060413994277987
   811   4       6.184835369873432      15.705387751735511     0.96562288954882025
   812   4      49.831026727918022      17.326256681895977      13.506026791782737
   813   4      27.739110931980562      34.581219669926064      7.3302544049044123
   814   4      14.304928389062599      30.244217490581381       24.62033505974507
   815   4      8.6276911276038408      37.138805933027562      49.808075227738946
   816   4      44.296206845939174      22.217083919746042     -7.5689814752044722
   817   4       52.20119705013785      -2.198455710314049      43.222498731037859
   818   4      31.115188925081451      48.051534581470868      22.783223286776899
   819   4      1.7558050654120771      43.515341902450757      23.484321249076693
   820   4      38.905225948630267      20.821640430439107      37.215281301359589
   821   4      19.616218096131163      20.538339047794654      67.806744048039775
   822   4      45.086285203519623      12.769317386632297      55.917560569628968
   823   4      13.255313711103627      43.993599115292994      6.6595146455290246
   824   4      2.4823831861688568      28.405632803038255      7.4162803948981182
   825   4      31.217021015600697      23.151274575930884      38.420296661509447
   826   4      9.3582396897611861     0.53863606067392655      33.605795314956957
   827   4      63.668274356330777      16.168097891113952      13.561039574584521
   828   4      28.748594327888135      21.246009599173121      36.929442181337826
   829   4      62.679328333026994      24.803123204574817      40.476123394192591
   830   4       29.45086288705447      26.873205408681862      43.890506378089043
   831   4      20.961195148188537      21.116241797933448      33.728005379634595
   832   4       15.27157855587854      39.324437409501968      5.5480697322905668
   833   4      16.422213341920237     -1.6688405067694922      21.852302433565725
   834   4      22.191534633190741      34.182413984797357      36.914003821644577
   835   4      19.716411122828774      45.695876129328674      21.710117876219059
   836   4      49.066994480752975      25.821447330775065      29.603171502606791
   837   4      38.485761402544455      9.4559487864160214      33.445763382708257
   838   4      11.464811236686113      30.350717992175106      36.927872413019863
   839   4      32.318136317542688       8.491765665668396      33.337686425736827
   840   4       9.304273082921263       44.77079547521808      48.849625543596247
   841   4      52.885439317799374      16.840753770486604      36.302241666125994
   842   4      24.077095501117803      15.478110512310096      22.513747383667589
   843   4      9.2335912770053454      11.578032229720336      15.952212866609605
   844   4      5.6010174250124356      4.1145862711661234     -4.1182586001316013
   845   4     -4.9667243878073366      25.807708252026242     -8.7455192431969486
   846   4     -7.2573952312267815       25.46810546663205       17.04537627880498
   847   4      3.0471875645205158      4.9604172525605534      36.052331146838114
   848   4      3.9036472421082071      8.6050699139327964      10.045463071366445
   849   4      42.103627854956166      10.801767722385433      26.589815552110437
   850   4      23.367751944317764      31.468978266763788      13.682757143866803
   851   4      48.615334826725842      41.726480387613414      15.861790994777376
   852   4       34.02985095899389      26.774168012666234      43.094606607911999
   853   4      48.708213080031371      28.889718983172372      36.121504846024663
   854   4      9.4053003649651128      35.820852497947847      23.940895871210852
   855   4      28.306139299145777     -7.6986765394589298      23.967224942388551
   856   4      10.171802505804719      3.6193729918012245      37.937582033105798
   857   4      38.333748539167345      49.062930435396744      35.439696337402239
   858   4      4.8155096730646401      30.981969898770068      41.146030061894386
   859   4      13.963329830478706      19.772124968533682      13.153287923599475
   860   4      8.9812447397444455      6.6938407018259918      28.132743474767366
   861   4      19.824552933492605      35.819446138612371      27.895240581706684
   862   4      14.266506490475363    -0.39637630027759724      39.734221629839311
   863   4      13.179758165265925      2.5525463523219805      25.627907312307393
   864   4      38.907495132214528      39.876862446465466       16.87996729177301
   865   4      11.895855399531007      23.597103500183312      1.3213472362510283
   866   4      44.258527713201055      6.2852147503358644      1.2297170875455818
   867   4      36.510549622317598      3.0651792976408272      28.221539132566303
   868   4      2.0872930853530089      42.053019603624591      55.141199658477461
   869   4      25.598724912277007      29.686701570203283      29.414240974373225
   870   4       9.282457133601147      28.187419778792407      44.134559121397153
   871   4      14.497029139114145      20.422287693554811      4.9557268415879978
   872   4      37.432825438465336       22.63351846260019      30.079224956478182
   873   4      7.3237947711873623       42.17124923658956      34.727357033420297
   874   4      5.5927041317494419      19.527951491788158      34.267484917553041
   875   4      23.820141177851561      39.863095062554009      3.1439598077848538
   876   4      41.634027297448092      51.686800347141549      18.410774443481795
   877   4      35.218591746073365    -0.28169533170622052       29.37420562982366
   878   4      32.007206127192354      33.962784579015675     -4.1099897596631294
   879   4       22.05633056324162      11.081287849708003      25.651408245586026
   880   4     -1.9691137843138999      14.766685269583254    -0.94247458133368167
   881   4      56.110578835841437       28.04525260127156      23.217000549928116
   882   4      36.078270559585206      21.434171057528687      15.330471573263909
   883   4      42.793978735499131      38.071044473531188      37.218737389467663
   884   4      30.782612783218621      4.8329786434758297      1.1663098503720288
   885   4      25.937173643693548      44.416647582270869      14.236503885262136
   886   4      18.070405925713796      41.511307417519369       7.036570761435712
   887   4      46.894913978296849      8.8891456772188224      2.0827300833278453
   888   4      19.679391023576997      44.604833340701191      8.6991430414516913
   889   4      28.342910422247169      14.385455807461501      6.6619268798426141
   890   4      39.596153317972089      15.783755678527525        6.56415718318648
   891   4      24.806006490431137      35.076271509335143      20.578709263096425
   892   4      12.119196032201765      36.740039219362195      38.011846788197282
   893   4      16.173350622933935      17.203598592722258      25.324773565335622
   894   4      44.203121587699052      19.233046160793293      23.904055557325236
   895   4      4.6389814724764875      8.8779275818915711       3.900404664627299
   896   4      33.508827187682428       50.92019439189216      21.999038156986906
   897   4      5.1775901491400296       39.34805958120581      33.939754085153041
   898   4      25.657227610743291    -0.79037611021657084      46.280046014334076
   899   4     -4.9363574550867497   0.0098779076810565289       3.175616229288067
   900   4      49.398221936989444      39.768195306545081      28.887100570131899
   901   4      23.132851099336804      3.8559486455472896      23.371225519963456
   902   4      34.979379393227418      29.331512116734519      31.007573075199343
   903   4      29.912162406654275      2.4078985272816142      27.717552804543693
   904   4       22.46564223069743      8.5787187571949151      18.364922941672866
   905   4      35.515511332537791      6.7537307293660307      33.596018655613825
   906   4      12.471197115762344      19.934379762974835        1.80025895131199
   907   4       29.22941471422622      4.4361279207739752      46.678714187506749
   908   4        2.03787213056509      24.861380854042419      23.000723851127855
   909   4      18.044477198301347     -31.068875965202832      46.100396931140182
   910   4      30.168124081889435      23.163705027417272      7.6539430371553845
   911   4     -11.821308370078937        55.6266963531627      16.297899706294064
   912   4      22.790798767352431      41.269243711052418      34.764847724945085
   913   4      55.839321274902453      45.681230648983011      28.677407577911101
   914   4      31.578089738852348      34.844666520712217       22.33691274846225
   915   4        55.8405240092357      6.0462415812624055      24.959821250390856
   916   4      51.584230020913701      33.576323402434681      25.444270420052263
   917   4      21.063167947391268      21.412999922816201      26.245794298924455
   918   4      -17.72254110956494      32.134905984084817      62.240026665809388
   919   4      37.746422164661446       50.26184921827253     -2.4154991722931034
   920   4      24.034834740238189      17.922146589246992        16.5685085513486
   921   4      35.404057940835244      3.2792169893036109      24.874189436820686
   922   4      20.967785228809507      28.882718698020682      45.430084700815179
   923   4      16.094589873823832      27.283392806026939      33.683745890721795
   924   4     -6.1081793764514218      52.462593582732339      26.551653096585344
   925   4      28.546430294680011      41.519995751234156      4.7518717539333171
   926   4      22.057091165114368      30.307893918553457      30.714512960992032
   927   4      40.582393361834455      34.311120348118202      43.877341331991815
   928   4      9.7725801816101967      16.098991161979647      8.2615108697319073
   929   4      29.188881731698007       42.90844952088905      13.782656026747198
   930   4      11.233330705747454     -5.5630576619844039       45.91072866459524
   931   4      32.691321419298987      22.977611447470302      15.651355515459498
   932   4      37.109975157931679      33.273025205271331      52.555176056212076
   933   4      10.111441776541485      6.4368063186812607      39.094387652553543
   934   4      39.099710591927781     -1.8531886646635545      29.060131399213159
   935   4      5.7047275864047595      48.278373035257495      14.830531012422718
   936   4      47.894473575924209      7.8422900873705528      23.569142664038992
   937   4      7.5585571587252049      10.353718922201407      12.745552882483665
   938   4     -16.429841589659638      30.129959228873677      3.4456415578943154
   939   4    -0.78428483533910165      35.419259958085611      19.408994871084616
   940   4      54.363258163997642      26.980788708530739      35.108499404455294
   941   4      35.814583900684141       33.86876527322962      43.940392450266316
   942   4      33.318528889333749       23.53517108792617      41.159036131118114
   943   4      10.362606532352501      5.2543833839999845      18.599442714806873
   944   4      22.248807420000848       25.27627044364198      45.977254647124759
   945   4      17.045897559922665      14.327727138139331      23.147160744074306
   946   4      12.021318623509067      15.415954253936727     -3.5740573425283491
   947   4       25.33263423684032      43.150265408785252      4.2584106399506485
   948   4      5.3206540189361062      15.701825767973423     -21.200010098513992
   949   4       46.01540704702861       40.60070254561829       30.65040631974243
   950   4      2.8250545865176431     -2.3433458811927563      34.595514982298177
   951   4      19.446351833557685      5.6094768499172529        40.3633462844357
   952   4      54.441781152619228     -6.6207802266145013      54.199599485037787
   953   4      -4.147160480075808      35.831645237987182      17.763935316623506
   954   4      40.343901949022126      12.623014575663936      1.3807146848149248
   955   4      33.323224088707285      36.130169045089595       28.62758705118636
   956   4      22.814980220509625       9.470769500639749      53.361832613534084
   957   4      21.444741951699417      33.164149112750088      55.532091764829779
   958   4      10.691150761109961      35.085475741591821      31.168324488415383
   959   4      32.411159211714853      24.542905899631073      25.528471860269345
   960   4      39.861510688285755      23.369595314351731     -3.8075040176481387
   961   4      35.299482614506275      -5.548231726978023      26.313415764561142
   962   4      16.715724713003329      12.897005628801368      35.413249505401566
   963   4      36.192291303596306      17.195063517054681      45.687636411737216
   964   4      4.8199126347984835      37.129889424024164      36.845132359541232
   965   4      28.391342670787502     0.92048970542694575     -1.1726525632041125
   966   4      -14.56608881925467      55.236710652676194      13.732114719078748
   967   4      27.825762294877652      34.962460018403554      49.242385601492728
   968   4      14.282737362692361      18.405869876315908      16.656747854013755
   969   4     -6.3538996850922995      31.351303225592467      12.522967901754912
   970   4      28.152993214628289      22.396566998049241      40.413369740674931
   971   4      6.0323182054993678      1.5622815023828684       8.269029586532028
   972   4      15.257859089870953      43.271984132029715      36.135501422264561
   973   4      15.914834086945632      26.188960230942943      30.004561221461593
   974   4      16.852752146631776     -9.0514763381257879      2.2493250574589734
   975   4        5.67786076173069       32.46237731517023      46.184567355149753
   976   4      10.474851095994014      23.715811856594978       39.07024220951417
   977   4     -5.5025725311735787      31.561364974978293     -8.7777595611610053
   978   4      11.915105789063041      22.759392282144521      23.950802356733039
   979   4       27.70652574979238      25.212171985398182       5.598362806830754
   980   4      36.622854160457486      2.4151593792616124      1.1362265790324491
   981   4      29.759411977947877      26.249769358829202      31.152004491810569
   982   4      5.7807494145264604      20.451722062195582      23.546230977083745
   983   4      36.027441045577696      4.9282104343216568      21.753898059612624
   984   4      47.197457212120071      14.783367887421415      22.090182509942839
   985   4      57.968448968538787      13.005394114165105      39.772038560021066
   986   4      2.2858969519961092      1.4962129811481448      34.677908969676636
   987   4      8.0347271698537437      43.466456735334724      38.284269133850763
   988   4       8.832475895576092      28.941318207933289      16.974711377650227
   989   4        47.7832694563171      12.249976073064342      30.180654190898682
   990   4      14.034506572156261       20.76582629473145       34.70329867925944
   991   4      17.056149048774436     -16.597807869943924     -7.7194702126814203
   992   4      8.7094189944989076      18.873703576342361       22.84546745699846
   993   4      4.7445051117262524      12.805428629982396      20.531832345678076
   994   4      45.213279354080193      53.203362396533564      18.338067963082501
   995   4      48.264373914278593      15.807560920976741       15.63978731023389
   996   4     -2.9320838696920575      29.795788687261741      11.443842296994884
   997   4      22.519363584734869      43.931201879849226      19.841896833102506
   998   4     0.58162343557099017      21.566510795536431      35.908606508161583
   999   4      30.652698801549978      10.520756490724446      43.632925898945516
  1000   4      3.3242181994526523      23.932833909878024     -6.9013474559077608
  1001   4      18.219775894046137     -9.8224972885214843     -8.0157564642798729
  1002   4      11.945945778661914      22.996612990023475      5.9671496101202823
  1003   4       25.26715207032462      38.685097872745636      33.271078767995135
  1004   4      43.364238314838865      44.922222853061676      7.9755515321116377
  1005   4      36.264939300232903      4.8215251396687879     -3.4220702684916695
  1006   4      32.685006389003682      50.539821397856308      18.257180209420479
  1007   4      11.087039790330794       19.38492039497855      19.955866924258039
  1008   4      8.4428141464351132      29.812960835026587      2.5537681456143537
  1009   4      6.1951955101414677      5.5207362564735849      33.978531622066996
  1010   4       10.99156869396178      18.380502822244729      25.781026551037392
  1011   4      1.0755555938750592      35.109910742445685      11.549603404870092
  1012   4      2.4724965538378867      2.6178170966196319      7.6715832846002785
  1013   4      3.6234136495836173      28.412066457859826      14.250255710981788
  1014   4       35.57521122501673      16.151625723503802      32.993318951972689
  1015   4      28.119284354531121      7.1453004746761897   -0.059867817405598135
  1016   4      4.7074316573088835      10.220304349923726      31.445705033794006
  1017   4      29.799927969844425      18.481758164550641     0.79906934157171861
  1018   4      25.577952760027053       8.141034541551635      51.175868735720655
  1019   4      20.155838555597654      27.502808035092499      22.427585710869042
  1020   4      31.210781532808383      47.946743128215516      32.854953194086008
  1021   4      19.985395515575519      20.743600059670378     -8.8049129444976533
  1022   4      47.203439582037696      17.240493414859664      24.969901377337745
  1023   4      9.2954645941425778     -4.4096505286556242      41.693987220682594
  1024   4      14.136616735935348      31.018527909898101      28.343521792655849
  1025   4      38.362458685623871      33.436878473513936       35.03775804172615
  1026   4        23.9254215130712      26.380509528019235      22.757705080305509
  1027   4      45.556168143755215      10.043565730328737      58.633562587703224
  1028   4      38.195572172640354     -21.862198673387255      35.794000370599619
  1029   4      21.506558181124547     -4.5352296868525439      47.187415638763895
  1030   4      25.679034153884057      26.650232630044567       8.398198648387762
  1031   4       42.21250678106211     -9.1930583056208839     -4.2954883469982201
  1032   4      24.877353114219797      29.933339494231223      23.148219916163562
  1033   4      3.3315282048383379      7.7024195170064473      18.615956230812795
  1034   4      29.805684979337947      1.3924909787271331      2.6914929137937449
  1035   4      34.384352247694601      24.366268739013297       18.69895578077092
  1036   4       4.661541131899515      50.815281758820689      37.628653328987589
  1037   4      31.682695126453133      31.629702519700931      21.184558875072252
  1038   4      28.526126436961615      18.004585043157501      61.102992819789634
  1039   4      -2.049772398330532      42.984291656965425     -9.5383359210141592
  1040   4       44.28209807551945      6.7885904871579168      33.917440118403235
  1041   4      29.127351729348522      37.221915934040169      38.469339479652987
  1042   4      26.386997201149988        19.8561211074543        28.9708443107527
  1043   4      38.711572211306887     -5.1859996970469426      49.751038503228244
  1044   4      1.6244873579211387      23.660933358988533     -3.5402275435088222
  1045   4      36.180869618173034      12.145697203401102      40.848780516195873
  1046   4      21.243432262811723      30.872345116171712      23.699474163315976
  1047   4      43.954195263074666      38.582995179088989      11.781230748099118
  1048   4      48.988819654760356      30.188775590013922     -1.6492727223728647
  1049   4      16.952126063870725      7.2766416162264536      1.6485136628533203
  1050   4      25.902850600698233      41.789875316685972      26.948106015011788
  1051   4       13.96260552025579      23.166333783241178       14.61113962672106
  1052   4      7.9102279703275338      35.871104694112518      56.167855623897374
  1053   4      30.404223775477504      44.810507566012312      4.6409335049993139
  1054   4       63.65104522344857       25.22036123050124      48.119060169272032
  1055   4      27.951473934351618      39.358584574127207       13.67783147034273
  1056   4      20.642409464375419      -3.742800346195426      29.790789992702653
  1057   4      18.768605407027291      24.300987761263226      9.3617027880602688
  1058   4      15.826735989638161      30.253287874394701      13.735832406864812
  1059   4       46.47479877633689      18.021751458134847      16.073535091705896
  1060   4      29.120131905387829      18.684610798134475      19.975373339870181
  1061   4     -9.7037608467064267      32.899564148365762      13.262425868942227
  1062   4      16.006206691538939      37.500133041722748      15.500150378420308
  1063   4      52.847330712527494       13.91527227990397      -6.106305332529554
  1064   4      20.122007005203123      48.394734075992396      19.096111701951124
  1065   4      24.503381535072396      2.1294566711223712      34.559097628713786
  1066   4       34.22500153396021       4.977503241184225      48.480306626411206
  1067   4      43.652337346478291       21.63452702598121      32.749218797700479
  1068   4      2.8489340662366569      30.666581194411098      44.357223580918237
  1069   4     -16.105277138127814      43.842759719818844      41.171619135035876
  1070   4       28.15708243554619     -1.7318397359963222       31.12382633363249
  1071   4      41.570540404884198     0.88181014501416677      5.8591797040429272
  1072   4      41.928056373577164      16.242214717742812     -17.963063970507335
  1073   4      19.763916810792939     -0.3277284760200383      50.786698772116274
  1074   4       6.676912649875324      29.156978297109905      32.169347807122996
  1075   4      5.9820031117030759      51.935133661806368      27.089489358789638
  1076   4      5.6584988819826529      52.112501134371463      63.773496570996222
  1077   4      41.880173567879979       53.93954099580165      11.674752141438537
  1078   4      15.168198767270939      54.968540334589392      35.829398106925041
  1079   4     -3.5969370720132341      19.972700079813052      8.2468345810059898
  1080   4      26.837921492798376      41.417871624875993      1.4820516483384012
  1081   4    -0.12009921932416176       31.70081517999326      18.913017198360507
  1082   4      1.0343868974642931      1.7326547775117336      38.096057196012438
  1083   4      29.802510963855337      44.513578049013077      17.188995212638048
  1084   4      16.330855859133965      2.6824289168315709      15.271284865112666
  1085   4      37.211291398369781      17.009019957271594      25.518704822004885
  1086   4       32.05851531171394      25.360415085601879      46.101662695791788
  1087   4      6.8165777319162526      42.456831068773702      12.309336854868265
  1088   4      13.051035605689169      39.603763624217549      16.480088424977804
  1089   4      8.8673057197766134      19.207137459595291      17.161421673811944
  1090   4      48.281500596169522      23.246254405319544      12.499376020866141
  1091   4      44.178830676353805      37.262203779474206      30.616409921056448
  1092   4      34.652917455334418      30.881451742227163      18.924964874447319
  1093   4      50.591375334272335        2.99156203623519     0.36048545976567298
  1094   4      25.263029555415958      9.3202842231909369     -1.1802218284318944
  1095   4      25.406632348546161      25.080714466937213      18.787910554784627
  1096   4      27.781262116945349     -1.7261141453909583        51.9334192499634
  1097   4     -4.8360508957258075      1.2707779092375122      40.204231469663405
  1098   4      46.417166321251152      29.254488880367184      1.3476838303885708
  1099   4      22.180179448920899       0.255049455767907      33.798535173095388
  1100   4      38.245997709632036      59.136453130038298      26.509128502913228
  1101   4       20.79369583143189      2.1331351455065168      41.044864431621392
  1102   4       48.58496578371701      4.9128844190732721      29.312792870692469
  1103   4      32.850362676996482     -11.025054165888619      37.903498822586599
  1104   4      16.393232876308101      15.351031468913247      38.328639222175326
  1105   4      23.580677083747471      47.089202194108772      18.165221921388575
  1106   4      37.371023666181323    -0.28786276929790622      26.987637308969756
  1107   4      16.573949922232327       16.10839637687231      16.792762369060441
  1108   4      34.549549150070057      8.1654686985612752      49.941160227031865
  1109   4      44.969807383317018      35.420625549690058      21.542776566898091
  1110   4      32.755012014099606      40.433625353925478      -3.245246791798122
  1111   4      26.700956055323466      4.5843609086050536      15.225402240667535
  1112   4      27.236943472743629      25.281948175251635      21.219573800216686
  1113   4      22.643950078908116     -1.0876282750455692      48.587041245184686
  1114   4     -16.600748240438328      1.6841456117987728      40.799677885526897
  1115   4      13.123077273066636      21.118298878352267       27.09409198072894
  1116   4      44.909082424005014      46.999880404965786      31.063260725494025
  1117   4      7.2366483563046602      38.225241777409153      25.960561763386977
  1118   4     -16.106183392004393      4.0126088450631618      45.369217379289424
  1119   4      8.4916424196025666      40.445436936358789      18.575768637479769
  1120   4      35.831111942559247       37.56778470434935      16.605862337853949
  1121   4       5.166748247198985      35.999880441517149       33.41304646333387
  1122   4       11.89732578470549      14.107869572988792      14.764391683669171
  1123   4      17.388999582177295      18.688197490302066      12.757474156508417
  1124   4      46.092723596482131      29.381364906861819      24.876264361055522
  1125   4      55.450200988325768      22.360468283446767      16.995338005215462
  1126   4      37.930045660369395      14.615023704075217      47.856798966889578
  1127   4      27.246249901679196      46.849192781157171      16.863925638353457
  1128   4      12.247716758906105      41.263703718304185     -19.169364879636252
  1129   4       43.55088590830119      16.550096644403656      13.351305812057744
  1130   4       30.55643911036784      59.219720643952087      26.407120152195475
  1131   4      61.670890023173961      40.643076995788725      8.3092521173524112
  1132   4      15.082853944113019       52.28874324050296      33.103188020297196
  1133   4     -3.5303023372002782      50.014645638941339       25.09523327667296
  1134   4       15.41373335594073      42.895617154073626      9.4354075062713534
  1135   4      9.2901158895380949      45.428048849844146      25.250979673510432
  1136   4      22.848373580566744       7.104815087590703      33.917662513245212
  1137   4      15.876126040859411      38.527861530045683      43.749205305652417
  1138   4      10.915024540243683      33.624542721168794      44.664421226345034
  1139   4      32.687828645621636      17.157985692303463      39.329217148788665
  1140   4     -2.5759315114176733      45.038106126186172      46.125237424650543
  1141   4      19.621540577660522      16.151343965108847      29.945607349403158
  1142   4      17.777369733904962      45.599640537103809       18.60913077774098
  1143   4      19.686642896342139      38.844806837816066       57.95320247326503
  1144   4      47.380905855593639      12.837272535025207      33.921440627611972
  1145   3      21.442445478895831     -4.1158908223851283      15.853264291126516
  1146   3       3.888419022008375      3.8841809108317311      37.294025438297503
  1147   3      55.066654336579631      28.034920618042324      33.648675276942932
  1148   3      26.077984045284364      42.950283105304436      2.4480433513518216
  1149   3      6.4226801547042678      3.5581527212464992       33.70566063104306
  1150   3      11.645297321443026     -6.8404822863535273      44.465073790953802
  1151   3      30.019541203204206      25.247763455566687      43.113357771726392
  1152   3       17.69453574713005      27.050325857722903      19.752949832159334
  1153   3       19.61259079526841      41.046810120111374      6.0491970986747319
  1154   3      47.086994718576214      30.780689810444272      18.772223745911923
  1155   3      24.042581764992494      38.537381632677153      4.3112677064552223
  1156   3      26.075629535040953      9.9303090904487501      14.650751653024486
  1157   3      44.866299741221866      13.516307443671586      37.450772623674339
  1158   3      30.856796300583344      1.0438800797821992      28.606146417202545
  1159   3      15.801373767859422      27.968559380112264      35.334984718100884
  1160   3      44.359916900590129      27.251748854736743     -7.6413503987173881
  1161   3       33.38998426487781    -0.14377910562037383      29.690996646306896
  1162   3      14.588068978440461      43.835501608480492      11.024988217020374
  1163   3      38.221587239173978      31.796953620361368      53.394760640248158
  1164   3       12.88534805341947     -4.6971612207178364     -2.4957202955036148
  1165   3     -2.9135206037067043      1.3855692652350748      40.568531503791334
  1166   3      6.3006616235213206      2.6479312933505281      36.666935624354082
  1167   3      36.684755059246584      18.108324627283036       24.05874106924032
  1168   3      26.471007773936861       26.55602605997252       4.444984431643479
  1169   3      26.564018027505796      16.694819252498284     -3.3158044622110965
  1170   3      3.7999979204393228      40.614298756237702      33.797926253634948
  1171   3      2.8112267573520437      1.6814465414240611      38.683670222301231
  1172   3      12.482562148206023      21.835112405720761       1.409034326205413
  1173   3      27.545048717963041      19.527867991120686      61.199463770024764
  1174   3     -10.407791936508969      1.1288149034493469      44.471761762055436
  1175   3      12.161912006934932      14.301301418944355      26.025801650494405
  1176   3      41.200481170453273     -10.471236036909978      -3.365500864777395
  1177   3      26.914184195102738      40.289179745287363      12.383911733677568
  1178   3      11.159503004797491      49.464617210940986      32.720871242366968
  1179   3      21.887490678013005      31.394504034043589      21.832551028212777
  1180   3      38.268730008472176      48.436436605336894     -1.9557464252323986
  1181   3      24.032772351596286      6.9785748044601901      32.468180548757864
  1182   3      16.515930477846293      42.099032666430098      8.1597295239244492
  1183   3      58.523349433631005      9.3609081089199169      24.844017765034721
  1184   3      29.583084711909894      18.581558118706358      21.970810684583626
  1185   3      5.8806932054075887      8.9198290993526204       31.20563335425976
  1186   3      14.013505797943463      41.661952632120503      9.3518841632613032
  1187   3      6.4249077143253208      30.814183453015382      42.131667681695653
  1188   3      21.519506680183142      33.378837218128893      53.665878395332655
  1189   3      35.348694663280533      2.5541332031894983      26.689636237405047
  1190   3      39.445256734116576      35.748474230308055       23.93607058766025
  1191   3      33.184980557203147      23.526828400141678       17.51840804121171
  1192   3      23.107206864237732      3.4225549678448499      25.139394317149982
  1193   3      47.503667542895883      12.476372388365171      32.038286763967996
  1194   3    -0.18495792572498732      43.624838314457079      23.846997205646538
  1195   3       39.19037933948087      13.381261922687681     0.23746365368621145
  1196   3      14.501184944532259      22.512254193407284      18.893643867495925
  1197   3     -6.8157294377111137      6.3048586449956181      39.788754564371224
  1198   3      28.686913393011871      27.705251597148777      31.723084126172633
  1199   3      2.5826217310199175     0.46813878486793115      70.463881540751203
  1200   3      21.655801660355312      31.457499486865892      28.526698309168108
  1201   3     -11.285975875267155      33.990745962350921      42.851049518434351
  1202   3       10.40997157363446      12.897671913026851      33.622240298129803
  1203   3      30.610852029636817      45.193680671826364      18.868218746307516
  1204   3      27.505990430911975     -2.6789968932153023      50.440912959855659
  1205   3      23.748240409924833      29.656752793342349      29.924683245839098
  1206   3       7.625389672143644        56.5745944243018       24.00641958952296
  1207   3      20.777295793796245      34.176904477968961      27.690111149851838
  1208   3      14.899636213924875      41.084712960227932      4.7422855939069102
  1209   3      38.078272483962941      33.682810277677383      50.959973833065227
  1210   3      25.158542556009291      7.1157475692761594      37.348317045179996
  1211   3       35.95632814644739      2.8245504029391344      3.0208600445365175
  1212   3      28.471757945803585      19.532178736345401      37.150630738706717
  1213   3      37.596656121778032      6.3787959105872112      45.870915743600584
  1214   3       5.312949085521284      18.088924939744071      35.506054154014947
  1215   3      35.038324056588301      3.4413895197445856     0.46439007847202979
  1216   3      26.394742822659449      28.962171357446376      33.546470417667258
  1217   3      3.8269889053500914      50.080572058383545      36.101219000878039
  1218   3     0.62046521110330388       25.00473610738446     -4.0748436269714547
  1219   3      9.8098669607409921      3.5981609150825209     -5.4161229936190054
  1220   3      22.775416213754546      1.7980976237140529      35.125755935722971
  1221   3      24.578447847833363      43.672237702259366      54.775326772043933
  1222   3      33.681499958655316      8.0484866115701994      2.7084877515173522
  1223   3      17.574830464336657      51.145990768199965      16.691534590776843
  1224   3      45.910632223660684      51.680285948065332      17.701366620073365
  1225   3      21.661083971483801      22.844409649424708      33.213754423041195
  1226   3      14.129654881427527      17.696419672988537       12.94976733712479
  1227   3      9.6103169210432213     -6.1508665277263495      42.481417290031011
  1228   3      44.980525882162048      38.970896803534288       30.42625090126246
  1229   3     -10.168699480858647      23.059059712396948      31.329497105046315
  1230   3      23.056614467897791      30.211706461800677      23.714356546911709
  1231   3      28.145283971855402      41.181394011612291      2.8784358554429623
  1232   3      34.670694002541467      4.0220191905637765      44.697024368197688
  1233   3      14.133327287782965       20.37859785685929      25.553281369517077
  1234   3      10.846246794798461      20.297640219897986      2.8277715992934547
  1235   3       1.942179959296185       22.15775667322519      5.0142530053153473
  1236   3     -10.773936425282345     -19.153816688236816      50.667408834878195
  1237   3     -1.7855334688636457      28.624764153929469     -12.599802695276411
  1238   3     -3.0464600738287047      13.751145073028102      46.597835273999927
  1239   3       45.70089902998258      7.4676885930378196      1.4925344280073616
  1240   3      7.0675414381903492      20.786595730364535      43.190053387542427
  1241   3      16.851231670093728      39.836897466488352      6.2448297117883902
  1242   3      37.013064321358797     -5.5431103889313542      40.064247552364293
  1243   3      6.6058020307177827      40.417436453077798      34.763548175342102
  1244   3      6.8396577614414715      32.003081039758634      44.723508840156939
  1245   3      16.078586923067718      38.885631218765894      3.7949018454794179
  1246   3      14.009908748056327      16.967976408603754      28.385018881599006
  1247   3      14.490391865863709      38.782902553340243      15.704146859123156
  1248   3      27.935509787596089      2.0008095946176923      3.1548583703510986
  1249   3      5.5620719503566685      50.267229190438002       63.65176738301772
  1250   3      26.379900479401829      37.368966173508426      32.350076116865651
  1251   3      3.0686847163698689      6.6263365816827742      37.180937633710982
  1252   3      24.197225516638266      40.318364835663473      34.057190438753381
  1253   3     -9.3837099906137436     -6.2974753450601701    -0.45576431857167571
  1254   3      19.263047643107107       25.94332971413596      21.622029114744844
  1255   3      22.667597409451517      4.2430958524901978      10.961448068191045
  1256   3      27.335561780388964      9.7110796252715694      18.415689443892408
  1257   3      18.812174768802244      44.477488292414286      17.469483979139021
  1258   3      26.949672365704039      6.2144622320925125      15.922187920415752
  1259   3      32.857346459707607      30.999200856320943      19.912411789791026
  1260   3      2.2937689255611158     -9.4637964908749233      44.324563137250806
  1261   3      44.783038675567425      20.312955699563979      32.940202349437534
  1262   3      26.285542239552651      22.194241885166413      41.179717730114099
  1263   3     -4.4964730173158838      1.0640534539367281     -10.436533045045561
  1264   3      37.164932328838233       8.180809316067732      33.593597934875604
  1265   3      15.328938190270426      53.755589059007967      34.336384241585094
  1266   3      38.591950227470363      -3.619179464199981    0.033039515580067215
  1267   3      14.275106664552087      44.018785228790627       8.239052335306015
  1268   3      33.196743980164037      48.302796701399799      33.221138740473329
  1269   3      45.049968372018583      69.499703683066414      9.8372084989613704
  1270   3     -7.3187996026784754      2.4694557000689774      5.0634598115184604
  1271   3      26.387900719420585      4.5532183988406336      37.875095939237049
  1272   3      24.908767201064467      16.362882609348986      21.276074865178824
  1273   3      24.064970983142036      44.705230557586368      14.487346727128829
  1274   3      18.823819783651061      45.089399673134139      20.194545404718923
  1275   3    -0.91455280035148778    -0.66355541169493293      41.261029097536891
  1276   3      10.708887629688402      22.160998366037646      4.8020527751106385
  1277   3       34.42545981441323      22.591664384438385      42.177974235732869
  1278   3       8.396644808805064      37.040109761001425      24.936707373143218
  1279   3     -7.2905763109513986      -7.652584401898948      45.275744036818985
  1280   3      60.257660458773941      17.606722419464095      19.333727952291717
  1281   3      44.655457865568216      20.028617191827632     0.47762191237376339
  1282   3      25.550379377420693      40.282512287215305      2.2530514491503055
  1283   3        33.5165775597875      45.891996169755899      19.386865120026954
  1284   3      16.865365570454518     -7.2811928205139731      2.8908945017462706
  1285   3      35.701249125964964      41.704136628322622      3.2660549155033491
  1286   3      25.414175606975274      31.675686648859369      13.497610075180544
  1287   3      11.727575898924728       19.83170325405553      26.844359629897976
  1288   3     -9.1028603520200502      7.4597144338244536     -7.9166891252926321
  1289   3      4.5146129649205857      51.575398524969486      44.115453349917289
  1290   3      39.698111610514523      26.022846866923636      8.8894943599028533
  1291   3      14.492956916559443      16.158545200219482      25.747870631947904
  1292   3      30.989047221098488     0.55359424526626588      31.406123117816911
  1293   3      7.5134001419306307      4.9966230146333226      35.249396104069575
  1294   3      31.372874643144655      23.981495006344897      45.122034788627545
  1295   3      32.352879176640478     -6.6624895319188244      23.323818273691078
  1296   3      35.828325724501148       6.680346750810271      35.520403348826299
  1297   3      10.226415927273589      19.434624382406213      21.641763155246807
  1298   3      25.590212865025006      25.693646375621373      22.211190399496726
  1299   3      33.151578903256755      50.346794943488923      20.059809832918628
  1300   3      3.8316233532598569      31.010260671359287      42.651712708183169
  1301   3       27.16534062101854      41.482166124674599      25.523131127312663
  1302   3      7.7376324169406656      34.489037022573108      11.418910056173308
  1303   3      35.740922222722858     -5.3999835797497751      6.8164263306713169
  1304   3      36.856051902939946      15.892518983528552      46.808755170849047
  1305   3      18.568176559149332     0.91477191965189752      19.282368129967328
  1306   3      25.544558679750498      52.107363357074384      26.121173664120413
  1307   3      26.634946358152654       26.29533253897274      19.625325057803579
  1308   3      30.698675585920036      52.916824707836213     -3.2780872362190903
  1309   3     -6.5092687098682296      -18.64724829388442      48.546147667439811
  1310   3      34.063361172736961      18.106211953138256      17.755759257160243
  1311   3      23.464494024063885      45.340769326526839       18.96803865617963
  1312   3    0.023242267275570008      2.2451820343324433      15.238045903240845
  1313   3    -0.57534123696904049      33.520311886840517      19.173058920989803
  1314   3      20.078565230859397       49.49909178890951      17.415874848065005
  1315   3      25.563586939501555      14.425931787061641      34.684741589320645
  1316   3      14.157348496289863      39.718805894948211      7.2676532226370574
  1317   3      8.5502577402918867      29.873947979903356      43.755374794843419
  1318   3      15.578444818681016      17.503053623576847      17.863824499057845
  1319   3      25.541051263486587     -1.8525891940373387      66.451405388440293
  1320   3      23.974304635298953     0.67524884874949564      33.237368412566383
  1321   3       7.513808576739506      42.738796760946116      36.447179163041007
  1322   3      29.511499063292529     -1.1025548182498994      29.890579809020778
  1323   3      21.521527499540039      31.250223559952442      13.910480757824857
  1324   3      14.101561692620333      30.020174538582314       22.63360636019506
  1325   3      54.264491985168405     -5.9616002528366909      34.418472676808037
  1326   3      44.174281483691068      22.787172344898799     -21.783408754472646
  1327   3      3.0791463614757046     -4.3562967478771624      34.165179003393988
  1328   3      18.592783813413483      40.177515088691848      8.4447526127438906
  1329   3      22.178337067223808       40.54096023844194      6.4742159509894668
  1330   3      37.151862100014036      1.9988480004039237    -0.61834182116526326
  1331   3      31.391684340861509      46.599727990026224      21.579980771921502
  1332   3      40.272142643571094      33.411134068813723      49.301982932543403
  1333   3      37.915144103301088     -3.8646873166001745      23.041170363021557
  1334   3      37.265486712163707      3.3210854650711905     -3.1661564006557823
  1335   3      34.495614041830613      22.465629946156124       15.31381405602688
  1336   3      1.4905616156614423      30.193034943830909     -3.1687282218157122
  1337   3      -4.550821635025124      32.439960514101088     -7.2972215344038869
  1338   3      47.540459231617028       16.20918014680262     0.24725727439432638
  1339   3      20.583652606017296      46.908245315528788      29.900725407508077
  1340   3      24.953618882980138      8.8403668453212774      49.453211517114035
  1341   3      26.491403748522007       24.44809708132091      43.063288253686324
  1342   3      51.267382403123285      1.2921065162910221      49.568737602879345
  1343   3       16.37319998905722      26.998026513460758      31.548758205767474
  1344   3      21.662580296265986      45.217341792713015      42.266143190025431
  1345   3      7.1168245818226747      33.606653581743714      46.910407315493046
  1346   3      39.555046866075635      35.747113826621906      47.937253646276254
  1347   3      30.544976559693485      21.606996233572477      37.564267744418729
  1348   3      18.998621915545009     -3.5528517103512307      28.764297741124732
  1349   3      32.276525986382964      33.464381225593023       21.29428823007008
  1350   3      29.031615474971375      10.613576085836563      19.853066488637293
  1351   3      26.311348979540522    -0.37771391112963876      3.0299036128394841
  1352   3      28.562963828882072      41.187907552067479      14.135960165981476
  1353   3      39.745930100441846      29.390055304209685      4.0164446545328847
  1354   3      7.1447859747202243      19.173846720548507      24.088207937005912
  1355   3      25.786725041395002      6.2302068241623436      39.964081828845785
  1356   3      34.525640443474245      44.131821549592765      41.113725206080474
  1357   3      46.072906833956814      29.703722888207167       26.57946079909998
  1358   3      21.832378975248282      43.166229127647824      54.515867821262134
  1359   3      10.382857925928189      23.079092315984933      2.3725783189641141
  1360   3      28.492991442440008      2.5968036879920211      46.784708751196305
  1361   3      28.070382377132745      40.765816622888593      42.287188423369933
  1362   3      24.431635886631121      30.908401504225726      21.380151191189636
  1363   3      29.575796937966992      43.823435198556496      15.346747365062198
  1364   3      27.204015394804255      7.6731857810317479      50.322094662588988
  1365   3      34.570280766970988      12.509126627336459       40.22090093273723
  1366   3       29.32349463500185      32.179747483154202      13.088506750835011
  1367   3       40.05149432107001      31.600360412400146      47.356000318224865
  1368   3      45.588041443266789      18.062109130365229      24.352947022612693
  1369   3      -4.464985519674018      35.561851774417789      19.785797321511069
  1370   3       25.05687789447088      4.4103395306735935      23.533495275384798
  1371   3      20.938795365489966      31.027240028459168      25.601594287641689
  1372   3      38.696476276501237      49.852523922994273       10.46420567126939
  1373   3      40.317395187611311      10.604164014459846      26.601882603236326
  1374   3     -3.2368101313225215      37.580796909399247      51.672953516634543
  1375   3      37.177135490673535      38.760449595094435      16.429117113698787
  1376   3      21.310904952537339      43.517432572256538      18.381101653774703
  1377   3      7.8620277670817797      20.886369212826317      16.910899728682811
  1378   3      17.176926552078513      35.891593535622171      33.737025600619347
  1379   3      9.5270827946109726      19.528609268601205      18.947496752589757
  1380   3      14.026797586867696      20.027904273751513      17.610899687754021
  1381   3      40.078258451294282      52.925263733220376      39.925055269265314
  1382   3       12.01401458908594      20.893651236660371      19.330220210038647
  1383   3      23.782324272247955      7.6298475556272551      47.072954958272973
  1384   3      51.548966685734065      17.708730275542266      35.327328220010074
  1385   3      15.305388587167505      35.954155668799388      16.010651192244318
  1386   3      17.235279200973846      42.599542647648214      5.4857176425450866
  1387   3     -14.683376962186685      29.949419378630857      2.8147533673915008
  1388   3      43.197382752564472      35.640864638589129      22.506407236426565
  1389   3      47.283156618518362      18.918987342131636      1.1573933409675896
  1390   3      33.299164859268259       26.05222459943742      44.701192174945078
  1391   3      53.395549230148703      5.3313450919831507      35.074069800647813
  1392   3      10.955943391845929      11.611114533805937      25.878865716040139
  1393   3      15.010580310172477      12.136472669897238      1.9190025689325496
  1394   3      8.3744629905335159      6.3082189583091042       26.36249728264378
  1395   3      26.691054110247002      45.545089188524337       15.37985296522405
  1396   3      15.856934207741954      19.816546602716155      12.652493595863298
  1397   3      21.944740327339645      26.803556011547951      22.578282421822173
  1398   3       25.45443237570522      28.586785753412162      27.762076990517897
  1399   3      24.970009507783807      3.5128183111263107      35.842519409709332
  1400   3      29.346395798440319      15.745353232816932      27.915041910516745
  1401   3      21.349190088819476      35.685145393867529      36.372052605358839
  1402   3      2.0943666467552919      32.948603379137396      27.066972249748378
  1403   3      22.337410656858506      30.086092783425215      32.497084437686262
  1404   3       12.11719510757708      35.125293108558623      30.179251084532886
  1405   3     -8.1235085733973644      31.907329667407652      13.061744047558369
  1406   3      22.646639306142461      16.550207319208212      16.207027553874848
  1407   3      14.491738830567414      43.685798101143796       54.13386486292633
  1408   3      26.965815118421371      42.465492141375037      4.9180132345624461
  1409   3       22.00201370072023      40.364998574676548      3.8052948997615035
  1410   3      23.980065881551536      6.1720058300084686      35.067645755249565
  1411   3      28.628423865631756      23.531343332436563      44.742709803586834
  1412   3     -4.6369474998774853      30.402984235661769      12.040070025138691
  1413   3       32.57437515868596      22.597992517625421      39.504409342959455
  1414   3      12.954982881204181       46.17023425222601       10.94183535801673
  1415   3     -7.2839193514312885      31.486398326128871     -8.2690310255779149
  1416   3      61.395235455041131      42.147775539132816      55.889131378334604
  1417   3      26.353006517494176      38.604870515175897      14.261229806776612
  1418   3      24.221775421162686      39.558276441035666      12.723476933521395
  1419   3       32.52434485543764     -6.3405287357142699     -3.2283422992083532
  1420   3      47.454473835207146      18.452789944330672      26.544619454403591
  1421   3      27.827906033799579      26.120961810299686      44.497868815583615
  1422   3      50.647208430973478     -3.3467425408054559      23.003194531917639
  1423   3       34.50559474732917       29.67169762481522      9.6074706520013393
  1424   3       35.48336595749884      34.369152966661041      52.016169553804303
  1425   3      4.4094120726016186      37.733459849607314      33.201115426522854
  1426   3      38.077737366883888      33.433990998606134      47.967434216664586
  1427   3      6.5691494729349715      53.083505285976521      25.768052101085029
  1428   3      44.418124275311243      37.557551485323891      17.800523311669632
  1429   3      6.8050433778337363      39.971306503758719       19.38064225881482
  1430   3      4.0077027749125094      31.643720740495716      45.504570281607521
  1431   3      15.334182815186375      18.250223817583425      24.051507725798764
  1432   3      29.104071207533142    -0.48043550392945117      51.558589269391966
  1433   3      40.538362703063953       30.93177089131617      1.5253811795760137
  1434   3      7.3799690449152804      52.211488845804496       44.77611065395093
  1435   3      46.622063515680189      16.009736364638076       16.79452199719594
  1436   3      40.782396782516962      53.193963956534624      18.109108400642398
  1437   3      37.174281333031004      69.060699918279923      11.075933001267371
  1438   3      35.993250857474365       4.674216506245263      23.559658850043025
  1439   3      55.076475259922788      22.139829424802109      23.711642914076808
  1440   3      37.119061230467452     -6.2534771491285515      49.764531764545318
  1441   3       18.35659626101959      28.294146976599539     -26.849483660761848
  1442   3     -5.5392096275169136         11.136948434551      13.577865205167184
  1443   3      35.124146391753044      6.3223896390091054      49.602145282976274
  1444   3      2.2557633312408716      8.1107105632694285      9.6007931058929845
  1445   3      32.438104415937673       43.81150213616872      21.206423788147642
  1446   3      31.491086742800768      -8.584247616391675     -4.4946509226166267
  1447   3      13.455083430591849      22.055623510351918      5.3348161116013104
  1448   3      35.459946333631947      55.419339648465744      15.154138266104098
  1449   3       14.53837925151689      30.624148608199064      26.493271304080995
  1450   3      36.832065591186975     -15.616732010070393       45.43765070347176
  1451   3      11.475338637647031      15.183384526780747      16.245621514475005
  1452   3     -1.0629996955587449      40.112909568323623      29.922808444953631
  1453   3      26.871300212626064      25.885044041758899      7.2051781995153625
  1454   3      45.391979519149331      11.191362237110816      57.135044959364542
  1455   3      14.620244383454887       50.71463687013236      7.2403820923713891
  1456   3      39.429009191940985      23.447187433472852      10.207055444753337
  1457   3      15.932413835783807      37.130230542211649       31.31961543746554
  1458   3       19.93986681396072      18.996210062851549      67.049535343089033
  1459   3      25.832695635604875      23.947377250339073      20.088354534047028
  1460   3      8.9089573643832907      36.320428739075638      51.350627049472735
  1461   3      23.571690061844947      8.8894485888917281      34.263334541207236
  1462   3      3.4565093433348011       58.38292956021715      11.765870080872931
  1463   3      34.204797518847613      35.206049442186512      5.4888220211829655
  1464   3       37.42227135735822      48.026911444345622        29.0060340664538
  1465   3      32.994119373313723      3.9713157738667784     -1.6459015494090437
  1466   3      56.476666418923827      7.3779610181849069      29.161725730827236
  1467   3      1.7612786492833512      43.126014452673054      56.679632983341534
  1468   3      30.979668335254281     -11.283374853070555      38.195923829529335
  1469   3      62.278307852084311      24.396008634240189      49.216462804359374
  1470   3     -7.2157106666704927      27.082790906180577      18.048176072377327
  1471   3      1.3069754942373664      16.073838228518941      1.7477836827514328
  1472   3      23.132130631391149       46.68619323170585       16.33492833928663
  1473   3      21.873132598867599      47.627477594846511      18.735753824157541
  1474   3      28.266352466469822      14.920035738024568      33.949769451157643
  1475   3     -10.004250600111378      32.384604165373297     -8.3737523702425385
  1476   3      35.428814771101266       48.35941498907912      27.550244417885732
  1477   3       44.62586267822379       28.79476079641303     0.58831963048836899
  1478   3      5.6625598809731779      10.547659084116932      13.173096480768564
  1479   3      18.991381098214589      43.006461456982414      7.8117429050154374
  1480   3     -22.599325725141682       30.58849665085409      31.153517113813948
  1481   3     -6.4413966484597776      2.3708498843590009      40.137648684777005
  1482   3      34.848418081153689      3.4259294533629014      21.463925521400508
  1483   3      48.845634129022947       43.48397382018365       16.06229147706479
  1484   3      11.497535024651297    -0.71300035741658874      51.434370533968519
  1485   3      2.6208365987298525      52.189022693634094      34.824528368579358
  1486   3      15.611099880508942      18.733111838835555      4.9268548858144543
  1487   3      40.531153449990434      45.179449725317738      21.465488873351671
  1488   3      59.173115250696071      12.889167703612546      15.370877446257888
  1489   3      42.945225958264793      13.286078960527989       35.31461267499234
  1490   3       43.04882663267464      6.2604870670607919      10.983267895025543
  1491   3      36.181677408082827      20.612864988123878      13.697314476527174
  1492   3     -13.885568604389336      37.221723328930018      3.3044534648892001
  1493   3      27.429160786058606      24.330512612474884      40.347299892709323
  1494   3       22.17312791600316      22.087522162692402      2.2501926192251105
  1495   3      13.479292994896186      51.251004414495533      33.274565538522502
  1496   3      13.414800186085108      22.196347908897241      16.149009001268972
  1497   3      13.357809899898323      29.297990616908201      28.627453200063044
  1498   3      29.964384509821222      41.483549778368456      24.622340406651993
  1499   3      23.271336102268169      42.347597903761759      8.1469202247945205
  1500   3     -1.5324071789148652       29.83446986874181   -0.058239081923461306
  1501   3      28.968153317163992      45.906881309651894      4.1361025186331286
  1502   3      28.381018301725586      26.545389752163732      21.767572981579288
  1503   3      33.909774977944053       33.62040040068883      44.688072934336262
  1504   3      26.691120639049366      7.9299117259713396     -1.1348555779681557
  1505   3      50.178007224817755      20.087579305746882      35.082606146658989
  1506   3      42.966384648451253      21.135096225479927      41.620964963699976
  1507   3      58.766068019923104      17.540316927108833      17.233608283045442
  1508   3      16.446435011604983      14.228767054546516      36.820859094005506
  1509   3      21.547675622065228    -0.81795863318535356      32.374065202761109
  1510   3      29.596639758072232      6.4265952975902261      49.825186798160154
  1511   3      32.619919443687216      4.9542246974829736      49.698512289054406
  1512   3      9.3875499861138305       32.51590403193925      43.958977965203736
  1513   3      29.392028426615855     -1.4078925016214114      32.580130871684766
  1514   3      8.3466974155532405       11.06097479641817      14.300083626900934
  1515   3      47.040669301799035      16.170674219945578      23.270642210325843
  1516   3      8.2619651100782381      17.293656882021679      22.145447831821933
  1517   3      10.789374025850845      15.776433219682673       -4.81691629693211
  1518   3      32.462158625278626      17.774481464250474      5.3858744508698191
  1519   3     0.26344797881143328     0.14831368953585333      38.697748339605738
  1520   3      33.581348167863702      25.374386776425602       41.94907484957411
  1521   3     -5.0329577715440532      29.826774740532386      40.745776732351366
  1522   3      30.176094899036563      60.669499095745522      27.428159805716479
  1523   3      34.183512415449663      8.2030938008735959      33.594123281571797
  1524   3      24.008044962944457      26.448789149355573       24.63049949935807
  1525   3      7.7992777497222727      34.548726202510387      57.535423446034109
  1526   3      -2.573165572410927      36.359915639317748        8.72860529180093
  1527   3      21.094843093310864    -0.38248405995480522       49.44857042817754
  1528   3      47.844166634876188      21.627879975136743       13.19753398021099
  1529   3      30.158947500616382      60.450078377456599      35.378467569704611
  1530   3       10.21851220430406     -4.6811079578804033      -1.437598512574791
  1531   3      14.139906526289831      19.762641683618593      28.275405133770324
  1532   3      2.5961015526038418      23.547276680845457      -5.197926544620322
  1533   3     -4.7022787845856948       2.376986250193371      25.966161011664248
  1534   3      19.863010919334013      47.455999150097107      20.850391623680711
  1535   3      18.061029492058289      16.843254092746413      16.384759208173737
  1536   3      29.666938169002485      43.062072076217277      53.309563529463219
  1537   3      19.622666565136761      24.449289026827508      11.073081976640113
  1538   3      31.787776269637853      23.087938958832062      42.246931462670389
  1539   3     0.60010815630812175      3.2463348818460971        7.59939288746454
  1540   3      41.982936384559437      12.963270810206089      19.414390409668897
  1541   3      34.069785911855206      17.465689987503374      32.597704051600708
  1542   3      35.999029305747364      43.720159444873751      24.599060011797995
  1543   3      8.9954938240550852      3.1211386828804439      36.646688612153703
  1544   3      28.049406886260023      17.281463479994603       20.22736783468191
  1545   3      34.982562952745404     -6.5376705135850184      22.464635168042157
  1546   3      42.246886716233213      33.978507011219413     -4.5598560716391763
  1547   3      1.1471351076569094      1.3379288603219446      36.210748762991187
  1548   3      27.572776183173342      12.977005262868804      35.685855632493535
  1549   3      34.152412098597544      51.201880506392548      23.913613030249838
  1550   3      32.300165876003973      49.451960285241775      22.543254035686559
  1551   3      12.354198005397981      24.188776053640627      39.660719526976706
  1552   3      30.273110633510303      4.1760736227672224    -0.48925307537114232
  1553   3      5.4167495004935766      32.700166962367902      40.361465011488434
  1554   3      28.871477951226492      6.3025360659369349      -1.681163301717423
  1555   3      27.992869813656977      19.050406589724737      1.6690334505114262
  1556   3      7.0252371158776512      28.421434156444281      2.2173025545098137
  1557   3      46.824604431766723      35.499194985891869      20.904193910120057
  1558   3      25.768772549386515      22.875245476583167     -3.4865701196499144
  1559   3       26.21028637351106      10.817423717599114      48.023014125310972
  1560   3      21.326129813364243      39.792929478027631      57.644028886450791
  1561   3      33.728492671946192      -6.206544358289471      25.647072591739477
  1562   3      24.084719182840182      9.6375026497022915       31.81781210490719
  1563   3      34.546673261117803      17.445449928223276     -2.1207943091603645
  1564   3      12.405433670887897      18.802526160600685      24.500519174568325
  1565   3       9.070040875296403      4.7503613912284424      39.127608817896927
  1566   3     -6.9453691500977506       24.47360490663333      18.753359681056232
  1567   3      40.604319135651942     -5.0800524384359163      46.125061393238262
  1568   3      37.845422258362952      31.158749140224835      42.339030730306987
  1569   3      46.379299947660442    -0.68337830829584567      38.677335303860957
  1570   3     0.48515601609046766      31.849746807714016      47.634749207541716
  1571   3      39.637854981713232      33.327421612255812      45.275579170168747
  1572   3        35.5510487030189      19.941080689886345      16.350833339573381
  1573   3      -8.413505697397774      11.844334806750487      13.881487030107719
  1574   3       36.21144488132667      31.685065688804531      51.686625332465361
  1575   3       32.43747970428538      10.343313527909828      26.696961152217852
  1576   3      11.959724521364741      16.959889892938012      26.422373060043732
  1577   3      26.086442381889309       28.19789258182298      30.570757089548493
  1578   3      41.928580806288927      28.776260936790433      2.0900735636305132
  1579   3      15.164920624737595      16.925284134431386      15.506484641947294
  1580   3     -12.036624908125395      22.745970130520867      3.7114600170154519
  1581   3     -11.085782213086397      59.493478698909001      12.545059767961462
  1582   3      32.179957319800579      9.6414071885630985      34.871178252084384
  1583   3      24.182980884612352     -1.1681498061614961      47.229549624482253
  1584   3      15.350003553737812      31.674381386093053      12.409475231513511
  1585   3      24.289538450734398      14.896661938551267      38.807507832701482
  1586   3       16.65529315267213      15.455219972935495      24.562806878619142
  1587   3      70.499068830363882      27.257262278959228      45.835718215500961
  1588   3       59.73588896767923      52.184928752694077      2.7782087633086774
  1589   3     -15.649231590795223     0.52083967718816337      41.703650396230778
  1590   3      25.184048306286176      28.880895507891463      24.825573276489617
  1591   3      7.1816754330789578      33.502354761053681      42.389403424344373
  1592   3   -0.040083134196383187       35.77105917975112      10.129057554849581
  1593   3      28.774011696978661      23.939983841551385      6.6147213950950112
  1594   3      24.727484036503224       12.73371235426095      36.787160091277954
  1595   3      24.267920972808117      22.080276830726522      -1.062808290005977
  1596   3      27.024435450775716      22.682918980829452       11.88880873929465
  1597   3      4.2488833915017734        1.90344757893733      8.1033010540298864
  1598   3      -5.805461233606005      49.745036811127335      19.020654413992013
  1599   3      2.7683391446104468       36.74385200101792      36.399311721006192
  1600   3     -5.7205838152873563     0.04963866144184706      4.8458724278693435
  1601   3      24.349744400732988      41.549758198376828      4.2046031096056593
  1602   3      40.917104132024157      17.944750773390147     -6.5745205147853971
  1603   3       44.34177440156202      37.477757988379807       10.34808019950002
  1604   3      10.878630958167514      5.4099487084783462      37.644334026731123
  1605   3      27.661316903016754      55.771182288349493      38.500264230512734
  1606   3      31.881905316188853      6.9849783222121005      34.296493816725047
  1607   3       1.068205688270587      42.575846066193733      53.545202019160826
  1608   3      23.656168758337802      33.505758359151756      20.344078507441886
  1609   3      20.110332939887321      3.8445402895003498       40.82367774266455
  1610   3      40.337927039697533    -0.84313268796170138      29.872216791065309
  1611   3     -3.2917678815907436      36.666644685521902      49.070325200327929
  1612   3      25.391570236510269      20.509594962470029      11.148168588736857
  1613   3      28.753749443758796      1.1940907223511006     0.53296285645085473
  1614   3      24.381935883918715      28.233503634003238      22.524731979950847
  1615   3      20.301007086996901      29.329123314606317      23.420803144146774
  1616   3      39.632523749012485      3.1828738256708897      42.924179815742946
  1617   3      23.048358735061797      36.020938919416153      20.381142036696346
  1618   3      13.630148585428353      19.979283990799029      3.3577922770126385
  1619   3      23.394444160716823      5.1846441104449585      27.569413723912099
  1620   3      18.912603370851752     -1.6844601077013359      18.316186963805855
  1621   3      57.352323446536701      44.136926794254471      40.058849205319014
  1622   3      27.484242807184831       43.65012369605904       13.39658311093549
  1623   3      13.384721977552697      15.144277994549286      14.064259804399901
  1624   3      54.736649916848606      46.009638864826364      30.067476773779518
  1625   3      3.7725177400137588      19.440881609425332      33.579684646495039
  1626   3      37.748628984919939      1.4434093412887932      27.105562123416043
  1627   3      4.7592598944237077      8.3893864005597116      17.886375755337063
  1628   3      18.384310252167438      35.440927491271154      28.831491025284642
  1629   3      53.841987092950326      35.969064814927179      35.307728345178894
  1630   3      21.320511831701101      44.906204802843931      20.951633132310409
  1631   3       5.059656595335559      11.650696912079196      19.254102799031237
  1632   3      21.988507888930659     -2.8684062270558863      47.764685221637848
  1633   3      26.523290003819021       8.032715056245447      32.209691823803901
  1634   3      9.7965730202390233      18.185901188403314       24.31762502282885
  1635   3       28.71378080722835      38.959968682178591      15.534653062637137
  1636   3      21.404580789243383      44.412303471043963      8.2892035913481994
  1637   3     -4.6347312609854789     -1.4393549378961628      36.970736717983037
  1638   3      43.909502003586866      28.864884995631076      18.562504990413203
  1639   3      35.443988392327689      32.503103642806288     -6.0815351388536234
  1640   3      47.341545193489715      13.090487425865836      -12.77992352632176
  1641   3      43.373185586792012      52.398144245038715      18.608540667298929
  1642   3      46.186552031221133      30.858525694009153      2.3465926248962967
  1643   3      44.121712171388715      20.708028581259949      24.990464071293548
  1644   3      17.543961297976555      30.760225707201098       13.79704763675098
  1645   3     -4.3560020128467594      11.193836196366277       46.56642998550749
  1646   3     -7.8107209525754504      25.717758496417936      30.196376818221939
  1647   3      2.3370381757247225    -0.45110348527337907       34.60003690168562
  1648   3      43.569423002121475      45.129846545320973      58.612538244495077
  1649   3      61.495766449279635      17.543999647292491      16.879013153014903
  1650   3      21.963899793701501       2.736712046641455      27.504199713182615
  1651   3    -0.84893040464047564       43.01023824006834      51.364378074705456
  1652   3      14.169128208531554      27.052292793182158      29.939604727798887
  1653   3     -8.4101574639662129      -7.707673533584118      17.336880533376284
  1654   3      21.923164393579349      7.7953515114751273      53.772837142082537
  1655   3       24.45836968268641      11.646678459083875      34.025380765075809
  1656   3      53.258254419665242      47.776285217513681      13.719049823117832
  1657   3      31.968812960406108      4.0816406856937366      35.084944897932075
  1658   3      38.955742623058292      20.942138630860455      8.8757410053183072
  1659   3      14.287625912697793      19.465359026406851      15.009575896521945
  1660   3       36.73143215911886      48.831101369336274      34.712331121997281
  1661   3      8.2647032722739038      45.413306922347289      26.677295606376692
  1662   3      30.125097644156163      3.3064565283179777      50.884407276359546
  1663   3      12.950545804607936      21.332543513403358      23.275328110361023
  1664   3      16.893523462506728      46.916608694099523      20.029047289946448
  1665   3      35.429159955204732      5.3177326306226833      47.003660375071071
  1666   3      13.833906498086066      21.585101382175299      13.449755475546851
  1667   3     -2.2008792655651699      35.787289751300271       18.23165799175904
  1668   3      28.013768636671465      -3.597929287004848       66.38486053313126
  1669   3      40.229484700110163     -12.859982975536205     -3.7205362083277489
  1670   3      31.878257263576124     -1.6918072963078359       31.23732336114411
  1671   3      16.961403752146119     -10.302472760064044     -6.5939529652911979
  1672   3       23.86636228347809      40.349801061235148      10.016127559668023
  1673   3       35.99606530186319      33.245465616326854      5.6417973754253534
  1674   3      38.415261254017651     -3.0401818164713479     -2.9260438473338057
  1675   3      36.340871357042943      10.302841107262115      26.671887182299407
  1676   3      19.189419020731584       59.69448864899892      42.082933950323735
  1677   3      16.111996348254898      18.048572158031291      26.995761900985304
  1678   3      9.7865158280794002      34.401427381308949      45.885954993923527
  1679   3      30.620141917341204      26.568509718074356      45.424108396902888
  1680   3     -2.6243038577294882      30.687718255454303     -6.8311870940176549
  1681   3      28.990576484399817      22.636050358066104      42.257120781211185
  1682   3     -24.486562643464261      28.363668587085289      35.286827288849246
  1683   3     -2.2145210393791444      44.613264774598484      47.864551479162117
  1684   3      12.204678733232052       22.34421460156306      25.828388623983116
  1685   3     -5.3483809991487892    -0.40842258060160797      40.227563480622543
  1686   3      39.094928546703947     -1.2195197464874603      27.225743217666292
  1687   3      23.826537427069397      6.3412736254039022        5.95658260290638
  1688   3      31.409435485674987      18.142508528727742   -0.011902306169354455
  1689   3      20.389604569980428      49.943126492429286      29.195291009265365
  1690   3       17.99464153868794     -2.5457340577343719      22.521387459821661
  1691   3      24.060776597012524      8.7445717714267577      52.164157057461857
  1692   3      24.094756281422406      38.872679396449996      15.952900569608147
  1693   3      32.440236736888494     -4.8744910235722605     -5.6692313100722025
  1694   3      40.321115927223929      32.616895937593519      42.756254975725923
  1695   3      35.834075772627635      1.5648799885489417      29.431758411940198
  1696   3      26.598540511847535     0.10386336398660555      47.668990956281107
  1697   3      23.146531075177784      23.650265090076889     -3.0199239121780765
  1698   3      19.890548881312945     -1.8130129380823092      51.672853545096601
  1699   3     -4.9684743337897626      26.380286356983554       38.39650893158106
  1700   3      9.9225199524183267      8.1769975514345461      27.500299160313652
  1701   3      38.041761235252473      41.132524041087741      15.447716071892135
  1702   3      11.498769288565295      48.203820367038638      58.206959914113675
  1703   3      7.9764241498561326      1.1938201333949126     -14.093677702889533
  1704   3      36.952094542569199       29.57130333251537      53.057254075346158
  1705   3      30.480283871199916      1.6835650116945429      53.117475062640949
  1706   3      34.178385112661232      5.4278141571359342        33.7392938845598
  1707   3      35.655112898672321      4.4004696896506843      29.052166055865055
  1708   3      1.1702761842960632      24.431363304747762      21.405603184048651
  1709   3      16.805727913769253      17.044415169218365      13.295293315284122
  1710   3      7.7728294654664429      35.804303611904686      48.776257604536632
  1711   3      29.795950572712279      23.223087360690862      39.706522114820316
  1712   3      4.7061234614679979      38.536914236269212      35.676443308401282
  1713   3       52.58232129509981     -6.2205057919799538      5.9318703906149324
  1714   3      23.574325344194616     -1.9010579346071927      49.889477749831535
  1715   3       27.78159049444994      21.869661167819199       38.59191589735353
  1716   3      15.751805430656686       28.80250419474088      20.728801461056914
  1717   1      17.709689309657811      17.279313561121722      2.9827796043354873
  1718   1      33.116036207839365     0.25609959849034913      8.8781297532491354
  1719   1      9.0093815559605979      8.0591486091680551     -10.839355861025416
  1720   1      21.128404794603604      32.354349823498062      18.973419313600484
  1721   1      34.052129056055165       41.95901559322953      19.311636136333277
  1722   1       19.55212952832953      50.604164505993587      43.041561412326828
  1723   1      27.447898385357927       23.63157114471894      23.006677603984315
  1724   1      32.294738249589507     -6.2686999865843225      31.196739072454417
  1725   1      23.406624445491342       4.226958247150816      20.969777688002146
  1726   1      8.6958269911284258      10.888317079940895      27.640921406034579
  1727   1      31.778924244318727      31.739439759040216     -3.1966119778022151
  1728   1       11.14162255302354      14.737929000260351      22.894759466571209
  1729   1      4.7963423654944242      13.861154962567291      8.0366546219702695
  1730   1      46.314037019593265      7.7892960195812808      33.335180375140034
  1731   1      2.3077308396924194       38.57392259361464      41.399565109947446
  1732   1       10.69920379506806       5.707588828995406      29.361538907155609
  1733   1      47.116446517685553      6.0827240523059718      24.690090643969508
  1734   1      54.742731207546328     -4.4778773263758156      6.4932425332831381
  1735   1      34.899632477937331      16.057601286852933       35.28998704148249
  1736   1      37.104335385791543      -8.796980951832893      6.1769708431097108
  1737   1      13.376119080551984      30.059037709851477      13.809829762112438
  1738   1      13.384315316539094      35.362207156177291      -28.09648282532596
  1739   1      -12.84950292541123      -5.107462385755543      12.716676391461739
  1740   1       6.971655501647847      8.7440912213940116      44.289721342170452
  1741   1      53.322303192553356      15.299208436546579     -14.145776589208447
  1742   1      12.746738690757134      38.400016758042639       18.43133444049127
  1743   1      23.857686044807942      30.380238662330949      18.646385523432393
  1744   1      16.728349421459395      34.566068032534609      19.417317251757176
  1745   1      1.7741989794190069       26.85969786969574      5.5891659915694811
  1746   1     -26.371094689915129      36.916103080827163      26.206235846874154
  1747   1      21.348001281589298      36.461432750391801      29.652064109222838
  1748   1     -23.206315691768886      28.876240090790333      7.5437448097578654
  1749   1      47.644753874850053      15.493383589793519     -6.7963595238694996
  1750   1      14.972863719057779      29.205708914448547      8.0273882782157351
  1751   1      42.997194628754897      27.175369526409295      31.974329709231288
  1752   1      37.444065461557628      30.419254277021381      22.912484219567492
  1753   1      16.191267893301795      30.092434168828511      28.991272977921998
  1754   1      52.667600948464276      27.340380464057144      16.361603816263898
  1755   1      25.462505143689715      53.265225350963668      57.817014712009993
  1756   1      27.070115577610643      29.738689354796659      21.973999661944884
  1757   1      11.667972706823774      31.981831342336726      46.005367712410873
  1758   1       53.98107653125674      21.178427331361256      15.535646676994535
  1759   1     -7.2389148479741259      27.034215482016446      27.309057102129653
  1760   1      43.276485210312345      31.132924522671605      14.670480693590882
  1761   1      56.508016843793406      36.491960669728833      45.838823625506862
  1762   1       33.27187480042771      29.684234316166282      17.251798157361748
  1763   1      18.608010962502306      15.203177587305944      9.8719501067185149
  1764   1      21.038994516150989       38.68030755662631      44.605599345386722
  1765   1      30.059613471179372       11.25839908739975      38.341401433007697
  1766   1      55.176162639387584     -12.223007864677221      27.358411197954212
  1767   1      43.612161913918662      16.270565427716981     -6.1128261820417267
  1768   1      51.306089240184534      32.688018007860265       18.95896315055597
  1769   1      -1.405234184584653      1.1434215345945327     -4.4305058821798964
  1770   1      43.211234476463794      18.637990130888092      12.227067922646908
  1771   1    -0.62222667779878027      29.049904326419565       11.45858264360014
  1772   1      30.066297832594469      9.0099659108948646      32.416678712166004
  1773   1      26.618724212973746      34.687843779424064      42.676829228708975
  1774   1        26.8235871774332      30.509081879850811      36.040259068809888
  1775   1      37.930987802505861      4.3709707841195335       1.369299050154916
  1776   1      55.161753185877508      2.4070939025727616      6.0269461261780579
  1777   1      18.823475201764438      35.638722797916401       25.55450165538652
  1778   1      -15.02873482716144      31.678074864421333      13.918532101660935
  1779   1      1.3309709587409573      32.935077443156274       10.52375199190751
  1780   1      21.352815347928374      41.738275539762128      46.744769014744861
  1781   1      28.581579774006819      20.229242879641234      28.484484081444382
  1782   1      17.146514203509689     0.69375369748018567      14.028206093345213
  1783   1      19.241186215867831      26.575413038564481     -7.8599182745964384
  1784   1    -0.64060235407593036       24.92555027548411      31.622262962074018
  1785   1      23.527359434385893      44.283636920054093      3.2101055507989491
  1786   1      20.480103003104059      35.358059434567345      44.813122952859402
  1787   1       11.75086716013543      29.081385440993589     -17.812205069387375
  1788   1      19.313260185382042      33.272756162640256      13.045335024033337
  1789   1      43.783852404977416      24.946622463329192      21.091697275378557
  1790   1       49.80019220065418      4.1757476525012569       37.58502546472932
  1791   1      10.227688306103371      8.5355398085005927     -14.943693568229621
  1792   1      31.796232719304676      24.636907421254108      6.9298675795754354
  1793   1      35.639883282600856       31.34322109624091     -8.7372334560097613
  1794   1      34.568029992718891      25.472413419702733      11.131201379772589
  1795   1      38.134468025898741      42.024334173624879      22.909779779612776
  1796   1     -2.7806008005463059      34.936485778474889     -7.7517414038442842
  1797   1      36.207258378430652     -2.4077069251090699    -0.64623556102484914
  1798   1      29.523130792933667      43.416826436215025     -3.9311812031620703
  1799   1     -5.6049235737323198      8.8625524276967482      34.235920339810093
  1800   1      13.013634627209701     -10.349359625399101      9.5073128719002948
  1801   1      1.4464570476978891       20.13868232065084       31.86781927726669
  1802   1      24.679616298575223      18.176299670072488      14.439194053452466
  1803   1      46.903084866180372      14.569681655223857      13.937967785312633
  1804   1     -2.9992571395118817      8.4142627993169583      11.631727369848653
  1805   1      46.997301605982763      25.064633777247284      28.422005769871358
  1806   1       10.61934296008577     -9.8183688780626834     -4.0586042587080184
  1807   1      53.235629419773296      23.231908355724418      27.683167238097987
  1808   1      51.137006276991563      13.245602950521112      20.231643868538718
  1809   1      17.866364429284271      4.0224486491566109      14.169488264632649
  1810   1      5.4461698040978899      43.121824960055719      3.3109212832094639
  1811   1     0.68529129716291026       33.63582438661907      24.241652155551318
  1812   1       7.490019476272753      45.470139176955726      23.647624019179332
  1813   1      16.690030236692802      9.0514887230719587      27.163991763642084
  1814   1      5.7746406980226936      42.032682975055906       63.11601013770273
  1815   1      16.371274738762015      21.384312079224252      4.0618784552388219
  1816   1      -11.24955613629403      23.008469734970578     -4.2872712335332714
  1817   1      50.130206831682131    -0.44622898047969906      73.083480838979497
  1818   1      43.583553508429745     -5.5785877334667022      19.440473801553733
  1819   1     -9.5080057204368593      29.319571116744484     -8.6845878293607814
  1820   1       19.15468691762625      33.571351439472672      7.0383167744558968
  1821   1      44.357652530989675      39.446262967849471      49.311097039247741
  1822   1      32.958128780554183      59.159988761403426      19.194925360716475
  1823   1      49.975254746979083      6.8341243860534089       29.31738861996984
  1824   1      28.938615063032209      16.601203771360417      6.3722396150136023
  1825   1      52.608100983790131      34.177997039924371      23.246115423644053
  1826   1      54.317256455893926     -8.9196413520911548      47.173271606978993
  1827   1      13.238467794290697      24.417837649009257      7.4363685025120834
  1828   1      30.385318966111132      13.586989889881179      5.6163019700546792
  1829   1      36.057285615363881      11.211671779486299      5.6848624857473409
  1830   1      8.0132406599940023      27.573126768729548      46.095069234240221
  1831   1       9.486344594167095      53.383097307403673       60.13121448025128
  1832   1      2.3712011454189605      50.410233629255487      18.513166509394832
  1833   1      42.426915221407064     -4.0279787129354396      5.7798409302121856
  1834   1      8.9101847528134908      12.179868443198098      53.262306618852307
  1835   1      48.398449298813183      32.455518524640546      40.999413288447855
  1836   1      37.364647220002276     0.63624956616825501      37.612515456466262
  1837   1      17.907266722259035      31.619577792012286      34.141028903374334
  1838   1      14.089404130666132      15.745497827234852      38.000555692559317
  1839   1     0.24948523638028799      25.635077846683771      11.838528204673542
  1840   1      49.104667792892933      38.986431080492949      36.388043280426608
  1841   1      40.014960537124324      57.420617088518213      34.859154314669354
  1842   1      10.386069330771967      44.948851153197616      44.300382987528884
  1843   1      18.845664167403079      43.592972325607938      42.510836919128394
  1844   1      35.864860344795723      32.013067277002698     -28.304599054232902
  1845   1      22.089579419922977       52.84038451275741      56.388732850956821
  1846   1     -1.0763445546304404      22.607913440950348       20.52459323739269
  1847   1      19.667515739930323      44.688346359611508      31.836893075400162
  1848   1      8.3905611721895959      37.454706035639546      5.5603306860987409
  1849   1     -4.5448718130176964     -5.2241821464791789     -3.0100982615842313
  1850   1      2.6249046850960513      52.448099970709343      22.572621195938517
  1851   1      36.234142025418905      63.887069770001368      24.666466585420206
  1852   1      9.5114023553928781      39.312204177366233       49.50112145696329
  1853   1      35.947663307539429      55.429578587710061      11.994413035337244
  1854   1      48.480616766338834      45.059831227643478       18.60309107380046
  1855   1      7.1781814882217301      31.581403859457325      50.668208145028096
  1856   1       14.65254634296055      10.631530277746842      56.822552240461135
  1857   1      42.872280154462032      19.889104204525783      15.471970495197677
  1858   1      40.457124088933817      34.360365603458497      34.150804547539835
  1859   1      47.997859289920008      60.422263858422482      27.732426509875186
  1860   1      35.397932600455682      36.130238595850912      43.730315594198629
  1861   1      50.596930294934509      21.880407712713751      37.896227374411424
  1862   1      25.773669794141583       35.08983960621066      57.522814676982676
  1863   1      62.779899258889436      23.002828328287489      35.024706137270485
  1864   1      1.0087634279731477     -7.5107159390008373      42.323936309236245
  1865   1      18.215320666277741      28.567191165108667      33.401399826245807
  1866   1      12.239232392747079      12.686560954441289      53.494032145782185
  1867   1      12.443057878370979      14.245231213617588     -16.977541353777415
  1868   1      6.4074428210252155      37.127447988116565      12.341265878772674
  1869   1      22.381648879110237      61.038740847021273       38.71880158415707
  1870   1      47.323143325413589      21.755424545282523     -21.838293690875506
  1871   1       53.22534048451493      5.0634710618020398      32.050829862358015
  1872   1       10.91212095044971       10.80789229942263      36.110487152086989
  1873   1      50.135843770204808      14.983482735996432      14.269452358773448
  1874   1      40.519222254394165      35.568893910950109     -6.9449117953838568
  1875   1      20.671737763151558      37.077375099483298      10.474378027353296
  1876   1      47.957922120428584      10.193645869266465      58.731660474492351
  1877   1       19.57665495308505      37.146379978456864     -7.4137820416665328
  1878   1       2.098395178226689      50.237216445741645       5.742504142574882
  1879   1      23.278105200050167      37.960294928901938      39.697162950760607
  1880   1      24.292038037760676      67.805415572073343      29.279524421242805
  1881   1      27.859405285188014      16.136525047278138      40.796344025005673
  1882   1      21.155396763907916      58.458379826928386       2.793104179875133
  1883   1      44.533426949053556     -9.4887376796687732      25.198890411076906
  1884   1      47.784791760359994       43.74286769486099      45.047938617864936
  1885   1      5.7385778459189307      10.328592184442169     -1.8276055200912185
  1886   1      20.959783600506825       10.17645262803596       55.13943735018632
  1887   1      13.948347990096217      18.424207885610109       34.44904520850087
  1888   1      49.282177874804212       27.28193681435846       34.53242735951288
  1889   1       18.30830292568044      15.307899253630479      5.4264615931403259
  1890   1      2.7267731170564335      39.243764332382952      20.693141403248436
  1891   1     -22.575716491081764      27.553225331000142     -11.011362882984404
  1892   1      10.002273028073247      27.364592576078181      18.141458205565471
  1893   1      65.785215335543384      24.604675210601687      18.087465528352773
  1894   1      12.227002249378168      4.1116308168111546       8.149719703953501
  1895   1      2.4603256523822004       39.74798032232281      55.420418164818074
  1896   1       32.43931831094104      22.278003073055647      26.126330843668701
  1897   1      16.836668671477305      30.863232364462863      5.5423208770879997
  1898   1     -4.3784125690722133      39.113577111653441      35.928403964051839
  1899   1      30.548543088495808       39.92878146387104      4.2481793531143639
  1900   1     -6.6179056824490718      11.850407465576353      37.949480824160609
  1901   1      37.073768611475359      1.7121685129305944     -7.1130692323367972
  1902   1      42.443941038037401      22.177582809283383       22.40763944059854
  1903   1      25.464634807832493      19.616376784412676      66.196843796718142
  1904   1      41.254078109274268      38.002917911909222      22.831833260201847
  1905   1      21.520888091729333      5.8438326154711557      48.455943556771651
  1906   1      20.841470162352746       37.15106512410523      47.599969199291252
  1907   1      12.097508489019679      55.554437351709581      61.966877583685594
  1908   1       26.29341336546123      46.992409230962963      29.535891414468427
  1909   1     -2.7572058011316076      35.410534315769574      24.058019830114372
  1910   1       37.80261111070525      44.134101881299486      15.637335970188767
  1911   1       19.37229688578093      14.367974233992186      23.723485222198246
  1912   1      23.188076785705167      36.660512332832596      43.522323739490879
  1913   1      29.891224714695241      44.126492848895289      11.747630459303242
  1914   1      35.955212905290317       46.26139433907629      39.471395130186323
  1915   1      18.298662591666673      61.434796813463144       11.95230035748722
  1916   1     -18.909193591642897      25.830432009882497      12.637585740576691
  1917   1      45.511766808564424      11.963094842476712      60.081534667028819
  1918   1      58.201852176612988      36.915696750149827      30.760803558019497
  1919   1      27.298349269816391      27.461847671465311      9.8930009621437804
  1920   1      7.3261531710844121      -4.352049185470694       42.88527652398696
  1921   1      21.163693421850887      10.628770618603296       18.91718375254306
  1922   1      53.948191966831843     0.65690055943822956      48.516729387678097
  1923   1      41.406518960202455      21.725736408627029      25.851001270338102
  1924   1      28.909071721649656      54.281514879125865      9.4530678800444683
  1925   1      16.698694173313758      46.078655876825636      45.901308255477957
  1926   1      35.310007926017761      -9.802552257312481       9.126396871404971
  1927   1     -3.6141964725099274      43.934049506198178      50.530098683518503
  1928   1      15.458665087115131       31.74127628305504       15.69573124059688
  1929   1      43.482274863353389      37.394174856754347     -5.3653905046040098
  1930   1     -21.263336308894555       29.41893402964601      13.319232564098257
  1931   1      48.306335348510636      37.706632343047879      48.765427283007369
  1932   1      21.157093440071041      26.844549258074569      11.846044698114143
  1933   1      26.801620600778929      21.856094988000279      35.450666604659595
  1934   1      20.342643268071161     -1.5806337555655519      14.555534635002056
  1935   1      6.4818357972288707      20.559050462039835      12.538386043578978
  1936   1      14.437925284358405      20.584899748336383      43.535823772156078
  1937   1      15.941596395807284      3.8920418254551699      44.588260649746239
  1938   1      17.999656242564686      24.849256856498911      30.001678127215712
  1939   1     -3.1700538143247314      20.257507429951875        22.3374971615509
  1940   1      37.642534592010001      15.069129545640049     -15.250031518811463
  1941   1      10.891515921220403      23.416440442363431      21.838859202981041
  1942   1     -4.1056529093610248      38.853224171074061      56.190892098346588
  1943   1      27.036875179299795      26.775310946666259      25.836153373798275
  1944   1      19.608689470813353      37.471152189345794      7.3023124559552066
  1945   1     -13.650171810269258       8.252567707650476      6.2493433291793696
  1946   1      57.284890100532856      47.492079967046507      28.924446906131863
  1947   1      22.257320412233554      20.659778828520928      45.192260918810589
  1948   1      3.4504078978973221      21.437365277712619      -7.303917839787827
  1949   1      25.601681800732724      64.669185715267787      49.131619424093941
  1950   1      30.133802468279718      56.785784986215994      18.140962659027394
  1951   1      48.255334553001497      40.318199634832261      26.945038898407002
  1952   1      14.984933533548283      11.411895365235633     -5.7171923041176145
  1953   1      36.947220278403712      35.516128828538726      65.556470050959078
  1954   1      51.669260087556104      8.4973508665767028      31.982550686654186
  1955   1       32.80482835520494      23.945867177297195     -11.956523661136675
  1956   1      18.238096530452712      7.3396853475736545     -9.5317995436604992
  1957   1      22.253815906302567      49.089188344443897      8.5458474425399391
  1958   1      49.930343276231568      16.273666283529852      17.412764699445471
  1959   1       6.509282908061544      58.114114777867471       10.67228193447621
  1960   1      46.382060717640165      28.121178730844342      16.276423318538633
  1961   1      56.606435831014245      12.453853938089795      41.572263940681744
  1962   1      37.699116952852741      15.429505484725198      27.436161152631886
  1963   1      52.082861624272049      26.289658616869854      13.317058984409153
  1964   1      25.598775553580413      5.9717304391746175      29.957233635487547
  1965   1      4.5047993972168126      15.956217000095695    -0.82307129025274739
  1966   1      23.555027992243957      29.250618466999772      14.629690364880213
  1967   1        37.1950350250344      5.1654784036833865      33.326567448172803
  1968   1      15.624569642222344      27.962647363523157      43.841408461308873
  1969   1      36.952911877663659      34.148118406545493      13.207763616292894
  1970   1      30.539530625954256      18.324277457196363       26.13610100420042
  1971   1      69.135506014006367      15.968294921869518      27.679086319884192
  1972   1      20.945549758369673     -6.1236054193468199      29.355447562396275
  1973   1      45.064128532915248      19.192925495236135      5.6975281760528382
  1974   1     -1.9222092782733713      -6.391882568429601      41.443749923160176
  1975   1      21.124883937211475     -5.5669634901656728      39.939538036483178
  1976   1     -16.672862185244572      20.726125501778878      16.073430332101271
  1977   1      39.589352945039018      36.617163113825448      1.9137707907152699
  1978   1      33.408794029167645      40.209442255800418      1.4966812465214661
  1979   1      40.747790563996645      62.534388948568392      22.210237168626804
  1980   1      27.632804515718352       4.694662720667905      44.679514643349179
  1981   1      36.363687380778693      35.767925123510587      7.8257938420241393
  1982   1      21.772606102441951      39.237937341700821      35.823212898269048
  1983   1      11.887018429656694      15.915507999949515      7.1482731231681651
  1984   1      24.640657800651947      23.497878380391576       39.09765666420428
  1985   1      23.054706470490313     -3.7181506284884143      30.777273525194904
  1986   1      27.388061640863945     -9.3621200181552364      5.1311822318941251
  1987   1      37.626268329066356      30.311163086466333     -2.6561449206099219
  1988   1      27.555888676903461       21.53225545555069      14.706021518733552
  1989   1      36.804397753628287      1.3684236735683772      14.547147282795223
  1990   1      1.6817165196291057      29.115486453521779      48.585532307072668
  1991   1      22.947299136444681     -0.1117560058954755      29.558291934815056
  1992   1     -3.8052453688651435      55.836195048016364      36.237340931239778
  1993   1      23.867840914241548      13.040908975584589       1.178406871394315
  1994   1      25.731796536352263     -6.2057539916320481      15.544256935579588
  1995   1     -3.6238019565704169      28.780694172194877      3.7906690892229062
  1996   1       43.03021108805293      52.013571647959381      12.448780034613755
  1997   1      37.057040794238517      27.298662178400821     -25.801220158788801
  1998   1      38.516529164021648      8.7132494858086709      24.839305890748353
  1999   1      13.621665689094261      35.628627672197787      36.623877272125242
  2000   1      32.914117827400275      25.726044749558923      19.797519207433645
  2001   1      27.641998391241444      8.6828328226172946      12.247551885019121
  2002   1      51.072077281464018      19.152177238701785      18.169660474213519
  2003   1      21.635629998534192      20.692328028501695     -7.1719139381953232
  2004   1      13.115302606084521      46.696465250088821      17.233021357945358
  2005   1     -4.2646467550226879      50.385612001759874      35.350521012677447
  2006   1      11.534436145816748      38.165315435911353       15.44356287610962
  2007   1    -0.34611203933295831      9.9692750306373199     -18.282852783759669
  2008   1      10.330079216315571      24.895221620953077      9.8875635131225721
  2009   1      26.940724976166969     -14.149252079872969       47.10203389901573
  2010   1      44.302825859927715      21.535617367125376      13.297188755123273
  2011   1      21.574206925765345      34.220168201401329      39.159686387228945
  2012   1      41.961433984031039      15.758960399670849      11.669448278258304
  2013   1      5.1430272471385434       56.06456825493531      57.318595598740607
  2014   1      3.0269849710612546     -6.5292375587442795      36.365130642151108
  2015   1      41.625252707547141       46.02409987307059      38.625517767848017
  2016   1      19.183595346489241      25.156542351942566     -11.109281988879189
  2017   1      45.590090994172272      32.196961859950491      38.985671522082676
  2018   1      20.757898581851091      62.459042443775587      7.8861374699140763
  2019   1      19.742032479539162      31.950742573559857      51.587698039679836
  2020   1      8.2753869869303287     -5.0202924453285931      33.088018324914998
  2021   1      44.524881457133226      53.953667833673521      15.957401735382749
  2022   1      19.753749623039766       19.08914224226621     -14.570552720297654
  2023   1      29.421695312255878      42.529384440392988      18.445910958520116
  2024   1      33.815642697852816      10.356692981056536     0.30739721170865503
  2025   1      45.512734074635461      11.393888262475343     -18.668881381773673
  2026   1     -23.033885405404437      24.674385188844468       9.761018061473937
  2027   1      33.815866344521979      18.012600010178105      14.533422201650314
  2028   1      21.746530475545534      9.0290443247685523      16.075517859165178
  2029   1      24.321820934610678      38.797145167776094      7.4285037412605552
  2030   1      7.4992990780639088      14.997640971916915      28.283834825143703
  2031   1      22.339038723152303       38.35713820959689      22.453283602310961
  2032   1      21.101275903257505      25.669602590462251      34.177440491462271
  2033   1      2.1909047835222402      47.244582964861806      2.6402851234215636
  2034   1      58.290071306942949       4.895745177796119      5.1519767211587837
  2035   1      41.520365388599593      29.192748628869822      12.850447176000584
  2036   1      49.876162244301675      17.408895934031008      40.323417062260198
  2037   1       49.55070249906953      34.628685509746454       52.70192036497609
  2038   1     -4.4030880845772131      2.4236891480698208      3.5813074521324193
  2039   1     -4.8769305985692251      8.5895631020160508      -9.289710454461737
  2040   1     -2.7021378672234952      9.0247068091454405      4.2945812865597572
  2041   1     -7.5608119035964236      41.286523137822854      27.168331537466599
  2042   1      13.342871415216372      46.534170701783317      6.1102146260185233
  2043   1        55.0873335496468      23.886619364096294      11.787737702355663
  2044   1      47.583313922879491      44.536013610575033      5.1291861502507858
  2045   1      25.938671175143931      -3.044410815574687      12.201424917779944
  2046   1      31.224741593348462       24.26438119377223      23.545961580557716
  2047   1      32.701046450183888      6.2004327018266787      44.601822291965199
  2048   1      1.3656345770454332      24.223999364287682      40.727173509215568
  2049   1      44.866088467871798      70.887705492976636      6.9150739722911414
  2050   1      13.277358482731691      27.083524063658189      40.454466478006147
  2051   1      20.375041226084175      24.370198293746096      46.906418015390543
  2052   1      32.236637874650363      6.6649788513054853      31.395374903615362
  2053   1     -1.9467846108525468      6.3956764335038612      28.674413632427143
  2054   1     -24.725531290922422     -6.5761285221407526      28.369479083501385
  2055   1      46.863418560356294      12.085641927811409     -4.5042739769098636
  2056   1       14.72432644251035      38.666781293907825      46.023615241660806
  2057   1      32.448257407391523      16.712048376521416      8.5073269658681774
  2058   1       16.56781033489057      34.521473755820786      11.263651629145162
  2059   1      38.048728348955819      13.042411520118351     -2.6186923876330215
  2060   1      16.208396566976777      35.818436973209749      23.388655057879539
  2061   1     -19.359948488591282      8.8305161930233602      -12.72416594543478
  2062   1      38.441608780214139      41.529839830746326     -3.3322498969105001
  2063   1      65.216724046618822     0.72819215035464924       45.17252490261378
  2064   1      12.519824291915475      8.4619156943516529      9.8475984298945001
  2065   1      12.314921165569382      5.8599911767489861      4.1583259969326534
  2066   1     -11.117021385513784     -8.0478722495255965      67.467100761982181
  2067   1      14.956813103410049     -10.121480978538136       21.81610100861953
  2068   1      39.705018445837851      21.206547658906349      12.286231718682842
  2069   1      43.726077615034605      41.410959649883686      31.681554807135111
  2070   1     -2.4046678508875754      7.5083515148029116      21.684130950070198
  2071   1       19.58069951697777      22.136104399905957      35.379031620003971
  2072   1      22.003189437212267      8.5696946052694223      25.908974705144676
  2073   1      24.740542365065206     -5.6570602169305291      25.340593205408705
  2074   1      17.135525305564801      53.414700930103891      40.892055229637428
  2075   1      25.953351290961454     -2.7224191570771303     -12.333994779932411
  2076   1      40.484127762126988      20.399512008825702      38.842593841486433
  2077   1      61.284640069965832      8.9748508058755956       25.70792567913503
  2078   1      26.849905111152125      16.489637422934212       36.42374887465018
  2079   1      12.839031405400437      35.207481849839318     -9.0002327123975814
  2080   1      34.255966166689959      55.028241606268644      21.168231762115912
  2081   1      51.838405667181789      31.222941051943749      24.713726150272162
  2082   1      35.086849969971077     0.29025161579426151      21.802072829292513
  2083   1      20.587625037864363      29.296261240416953      39.145956390460057
  2084   1      37.475195370202229     -24.022513887088536      35.342655135003234
  2085   1      32.302055193489174      34.150016292952458      29.329182850902349
  2086   1      5.7119674388141295        39.9164172965137      22.057313207994245
  2087   1      32.699657867684969      36.915891995716734      57.248857077987907
  2088   1        1.27763510171585      35.723902394904492      20.781732548822458
  2089   1      16.590019897648165      6.2118160726103548      25.180604731214885
  2090   1      32.280089618305887      34.946565554990165      46.789061858946233
  2091   1      63.656679107702033      24.170693643977724      30.473652468053434
  2092   1      34.169538893838421      17.479241380701936      1.1100603585852322
  2093   1      46.458333298293276      48.882852791577342      31.452881403071604
  2094   1       10.94282300994273     -14.161342932721224      22.596370527817363
  2095   1      7.9776007651926069      50.093662745545309       22.45328732122276
  2096   1       13.98525444559221      45.246427039037599      36.108479042163154
  2097   1      20.886945360558421      32.220581814818004      36.574191631032029
  2098   1       19.89616054054591       22.06528146698237      17.185288627704693
  2099   1      29.165551985397119      36.644536197484953      48.395993822749155
  2100   1       20.23806714886711      10.736056897994915       27.15388266214871
  2101   1        34.9862912750473      38.280888764969006      37.182848881574976
  2102   1     -8.2409912087632335       21.58283799407112       54.26449482583515
  2103   1      63.550097407765698       25.19759975260234      38.271811924368031
  2104   1      4.0270266039571236      25.359289862942674      2.2340375544865272
  2105   1       23.38269394104633      22.084875682233474      25.824762550753402
  2106   1       46.90262165708404      27.497092274301476     -5.9958265886836459
  2107   1       1.262886055383013      6.1453209815426719      34.773187733823463
  2108   1      25.918281847993814      38.234509667131981      10.351570434281795
  2109   1      3.1811197029582825      33.604908348085026      5.6840875361225329
  2110   1      7.6459951025435382      26.904672416075485      43.006691464532395
  2111   1      42.077047930071664      43.285336051918719      16.083336697623633
  2112   1      11.123205130731339      22.889349238002207      47.899289221430969
  2113   1      31.466384908287164      12.220421178150772      10.178279013778731
  2114   1      38.107976500625597      17.018505821680773     -4.6973696814527059
  2115   1     -5.9065589708526032      30.518583529858617     -10.868384188502739
  2116   1      33.533771861768763      38.405545661830416       -2.49983384308833
  2117   1      41.272087600505103      1.8703046655455917      26.481834415817733
  2118   1     -10.364750261811725      2.6404337726228504      34.988307781417113
  2119   1       10.56152157918674      37.315246445447002      39.657494956783395
  2120   1      51.719957425472323      16.868944873220979      11.939291292719185
  2121   1      36.204774300156942      3.6574524452655615      7.3588503836782362
  2122   1      30.144303855683763     -1.1429415050365959      8.4220335737246135
  2123   1      9.7232777511155355      28.124568702706917      52.547156018031728
  2124   1      49.056539876036247      19.967111817184289      41.743099799732398
  2125   1      42.939634111333561      17.970754877835198      39.797298249527898
  2126   1      31.195621254599786      24.183491876491459      30.451736425829289
  2127   1      41.173170073071255      49.080921065297169      43.747935339843416
  2128   1      14.782027630801291      2.9476416484691348      13.359088969258798
  2129   1      4.1090775398653445     -5.3982175560809589      22.931438678238951
  2130   1      46.325953899311273      8.8518429339586078      42.561798462077441
  2131   1      13.058642631233633      31.479745793149633      58.976418521290739
  2132   1      13.586365363924811     -16.749778694409411       30.46382043916212
  2133   1      14.007629761760869      53.814113595145095      31.706191806706617
  2134   1      22.222124649514932      35.380540031320692      55.827235664436067
  2135   1     -10.276765692426206     -3.1263762905117578      31.014850621140248
  2136   1      43.029657587421575      33.050711749445156      47.851962673838621
  2137   1      9.5732495750681998      45.153046318199557      37.217150974702541
  2138   1      38.554841521825324      8.6652729816307463      28.160188146947295
  2139   1      47.817245709957191      20.333631389190622      37.024977512137795
  2140   1      56.535802694042225      50.169861129874263      42.397256223985714
  2141   1     -7.8753315145650147      9.0227688741183538      13.086236781820997
  2142   1     0.36428425798343167       4.871475955314156      48.398111830052251
  2143   1     -6.3147742791442072      38.422534370265005      2.8027287567034347
  2144   1     -9.6246254758192649      63.471367846323631      19.419802651736603
  2145   1      16.034530407293062     -14.415624243432715     -8.2130187830151513
  2146   1      40.032765244652779     -22.817164621766779      36.961895743951168
  2147   1      -10.15845380027538      6.0542162922823453      14.885919990360151
  2148   1      12.776945059003804      54.816657627793141      35.366878493994172
  2149   1      46.440788413666283      19.070707488975422      12.084817989482383
  2150   1     -5.0189238492353914     -8.9685200425763565      13.999907448893879
  2151   1     -8.5647090126693275      24.534923438086047      21.485089053139937
  2152   1       1.987146322864761     -2.1985363250482655     -16.556906520230278
  2153   1       13.96570756700477    -0.71073902314297754       33.42608148928413
  2154   1      32.863540020339315      10.282928005432868      31.558312667660058
  2155   1     -6.9577531655374178      31.199500513187466      10.141122383027433
  2156   1      24.587891589561728      8.8312260233595925      59.122150364809265
  2157   1      1.6643002124750259      26.019449756346191      18.860817677939242
  2158   1      4.6073189804217431      20.175994536056454      5.5591631140970836
  2159   1      28.664630524003741      -10.11649405633713      24.633575054799032
  2160   1    -0.25300928059988698      28.922459676156471      2.6949287193648579
  2161   1      54.815052992363569      11.993657134709787      31.155691354460057
  2162   1      37.720084302532499      24.965092197981903      29.034947629437337
  2163   1      30.027113493466349      17.078777653205528      2.7508553772606037
  2164   1      28.650844164405743       27.77065932911589      41.825669949756076
  2165   1      1.9455470680022333      46.088585504035706      7.1625734537334527
  2166   1      12.854854262699456      19.194168559539875      6.2817113652951928
  2167   1      9.4057932512534013      31.229482301503733      36.531514115268251
  2168   1      10.989396077916407      40.959099612099983      17.200850482996444
  2169   1      8.3806391600989034      18.685124537146997      14.860767970862806
  2170   1        27.6426573857912      38.588039880666173      67.308857589650216
  2171   1       31.68871350325297     0.48855500332716434      38.734395412742565
  2172   1      29.042827444258336      23.981996089146399      20.046190536048943
  2173   1      19.817729766601381      46.655365471570946      10.173737145924301
  2174   1      14.415835631048234      6.3848625728552726      22.793658255431687
  2175   1      20.529854190848884      15.717220731444202      14.316949437841915
  2176   1      51.070568494721414      69.191492943940844      56.479343942754667
  2177   1       32.19825436466926      8.8824353580611888      37.891453615398774
  2178   1      49.355940337028535      45.952240535326951      14.188014051628445
  2179   1      16.696811212552074      12.522907869886865      24.578710173871787
  2180   1      12.312970910932117      32.098543201593444      38.303049225138345
  2181   1       20.26238587807509      35.657867907175202      21.597704755180583
  2182   1      20.165858525531025     -6.1017100906722668       3.268028828297286
  2183   1      43.464074018930887      11.461006846647459      54.860466281797741
  2184   1      22.934060884835382      7.7130787230326225      29.536126853947497
  2185   1      -15.81202500005889      11.979773401263737      36.711434437946295
  2186   1      33.147577122264856      31.137422302898933      23.069838585435406
  2187   1      10.743260687272517        49.8507157239751      12.201765223540306
  2188   1      48.672057991187572      25.517687598586733      23.977458005866591
  2189   1      45.603922894471594      41.656797301169441      4.6183468345232361
  2190   1      23.461733304194887      30.233960897862303      60.224510189145811
  2191   1      19.655459624280162      13.341285198649796      51.439963463683547
  2192   1      9.0411014746580598       27.06405339265357      21.850474516951742
  2193   1      25.658065451321846     -0.7747859488194897     -9.4128737746449929
  2194   1      21.146633136994936      9.1698697726220644      32.639134695605478
  2195   1      37.518713852420696      53.327054465431232      26.643074141508919
  2196   1      26.493342083406336      29.456359345248934      3.4694264792305756
  2197   1      5.5704738690072588      5.5558705746287647      23.163261650027064
  2198   1      19.253452450999013      31.933681104014646      16.043965001110063
  2199   1      39.569999923677749      38.055028305225058      18.335283242351267
  2200   1     -8.6336492557826947      23.243867732727704      -6.090753030001367
  2201   1      24.367005408708103      16.501042298577079      24.609548272594399
  2202   1       29.57737769060514      44.790419959154562      6.8407145941632548
  2203   1      23.791356818858709       40.96963699675171      43.460759172746279
  2204   1      5.4387021400836462      50.292790232211068      77.578769574457752
  2205   1      49.336956047293711      5.3083021258862289      43.581716348573025
  2206   1      29.954438753901332       32.57431537339211      22.821871015095848
  2207   1     -2.4650631380273955      41.010051938167216      20.494790571613521
  2208   1      21.554801512368122      25.314278268404045      14.805227569099666
  2209   1      28.524669338262822      20.321940856495274      24.058716833109916
  2210   1      31.083024463200346     -2.4193221676301859      -4.298897068005469
  2211   1      36.713588559701179      57.471505839537159      1.7613792310082419
  2212   1      38.845715990459105      31.489494483698891      33.646505081489849
  2213   1      28.844205154342678       34.27260570280081      9.3493528093823883
  2214   1      18.965131191677219      22.994158204652901      20.706807472841231
  2215   1      5.6952443584254748      54.686347153086736      14.852790175364943
  2216   1      29.572021441742624      9.1297796926412236       42.13547913766007
  2217   1      45.096401456404678      41.392867016313247      28.597858378307432
  2218   1      24.115792762786786      19.627576188190702      21.944474826287824
  2219   1      15.987668881105607       20.89836053247943      23.013673661556634
  2220   1      11.465228623582535      41.462696205504734     -21.425766384683573
  2221   1      46.169510879512458      48.758303996449314      19.522313420387022
  2222   1       18.59030534581267      18.478661285964353      6.0016950419179116
  2223   1     -6.4010986503526652      35.319238326820056      17.137318471143111
  2224   1      7.8527899577462703      40.350004832237147      61.051481675240055
  2225   1     -16.377196996115966      54.946179428927763      15.098214145611809
  2226   1     -10.351335692689442      45.029052584999285      55.602941230184456
  2227   1      23.425914146950152      37.223395697939267      33.175849427686686
  2228   1       6.080236532569149     -5.0345878343174588      27.730450145826119
  2229   1      23.924288294281986      25.820015779692859      6.9458983504771199
  2230   1      39.937535344145353      32.455612521733229      36.655609647040585
  2231   1      31.114191044751891      44.776696417577668      2.2632544454821435
  2232   1      25.872929030158584      40.830353187709889     -8.5237498635722364
  2233   1      12.681472006750287      14.059374470985249      49.651560934795697
  2234   1       22.84665549038176      38.975375458978675      1.1608989495109905
  2235   1     -22.194132194217424      -2.680066539002774      32.823128213426834
  2236   1      47.883235695344709      18.903449819029177      17.899238553738826
  2237   1      5.0473607874198656      37.841709775120911      44.394623986377511
  2238   1      2.8371406011249056      31.221933261930275      39.764545780738302
  2239   1     0.95095901900663926     -11.847579783913988      33.969606304044447
  2240   1       11.91357425015795      51.241683968046814      30.418274239669607
  2241   1      27.068952464665568      40.012675886411827      33.580181227814293
  2242   1     -9.9892745588293632      20.499635332687564      51.666048003221292
  2243   1      46.821608878962778      25.698453766354461      6.9249431666252388
  2244   1      19.336901066976768     -8.2900063727960234       42.22006889712533
  2245   1       17.42571162160743      11.192041806544729      33.868477869213088
  2246   1     -16.909716399753684      30.603821521799951      49.911353177263308
  2247   1      22.964230391294539      33.169430169555056      25.906051891563358
  2248   1     -14.305723527875204      52.867214828561167      13.703582445852767
  2249   1      38.813436174245155     -6.2929665732763764      33.119554736815985
  2250   1      21.294410650952877      41.002533418009925      32.757439748456036
  2251   1      19.476194141071787      8.3440276957746171      28.949015462044027
  2252   1      40.381922514352354      44.747414045355896      24.556208566164056
  2253   1      10.848807658144157     -15.622661274967744      32.341330910006235
  2254   1      9.6201416395062882      24.575154118506813      40.989270238237566
  2255   1      1.3280722406027243      29.092813317895942     -5.9980718531804005
  2256   1      8.6892517269605154      44.097842345790482      29.597150826574609
  2257   1      47.744594419611758     -9.3237804457346449      15.835380707654586
  2258   1      52.972658471762529      21.953717217611338      10.119799181848036
  2259   1      17.676414795586997      34.350530790045802      48.220567846869486
  2260   1      8.2342001838111294        40.1227371265839      42.814730817176994
  2261   1      21.368497730788786      6.5960931560584308      39.943563647805256
  2262   1      8.8696772371262416      10.575554038310234    -0.66699028031462904
  2263   1      66.392820011927469      40.446694663296135   0.0063725511176360309
  2264   1      40.540334533506574      29.527627336062555     -5.6685305051691603
  2265   1       36.46985906963382      41.218603528520795      26.189309386151489
  2266   1      7.3695349391091804      12.434119590047841      38.248628680314681
  2267   1      18.177392473968197      36.812189724895006       15.30084459921725
  2268   1      2.9547530548199412      8.5125740310824902      5.4753797027015487
  2269   1      10.490616396124492      37.674617232571599      22.739827627144468
  2270   1      31.525185983919489      36.879893047332644      27.255219977092842
  2271   1      29.312003641400945      33.114070090609523      48.861039654123303
  2272   1      5.2473321811295124      27.672343083304579   -0.057128858462414105
  2273   1      41.631801512664317       45.39924341362314      43.083558322435501
  2274   1      52.534490745493891     -6.0203233381049603     -17.052952978405607
  2275   1       45.06720414252942      21.097703720047917     -9.5035427892682733
  2276   1      32.907841361008181      14.961205150981899       38.37181950186411
  2277   1      28.756901696077065      16.576619204570658   -0.087790187468791317
  2278   1      11.904336764126354      30.066544244385351      24.774632616165384
  2279   1     -11.435573116568655       9.065180548716647      15.625351312372135
  2280   1      1.7774651952776983     0.84537292736887459      12.973064258877866
  2281   1      40.536807968325398      19.280850021975521     -0.2370055545044896
  2282   1      31.969634042466119      -12.09460823787269      52.924860472310023
  2283   1      14.400350735786066      42.604437975697032      38.196867963187081
  2284   1      58.276270695529796      15.232444710728009       19.06398002889469
  2285   1      22.775352103203172      16.384083189009221      50.397339430071142
  2286   1      19.303439221692265      21.721277898274945     0.97875662770136007
  2287   1     -2.4772224978270536     -6.8684584913715092      24.617694221695348
  2288   1       45.54282144977838      27.039415568037121      25.334760621456585
  2289   1      54.498757750639093      21.206206800550987      29.793489193959751
  2290   1      1.5182916611466959      46.634873273230014      10.653000789954085
  2291   1      8.4955088586501848      14.950253958546041      34.418114767088618
  2292   1      12.234749355539837      9.4853608532561626      42.521069460669906
  2293   1       39.91437338734822      35.021460645640957      13.756750349920397
  2294   1      6.7772949811339105      19.891224988570791      9.2813173498501413
  2295   1      10.202086816094271      7.9448931486542218      22.169933749338295
  2296   1      1.2527139996080325      59.793379265146314      13.341366922841628
  2297   1      17.059395277581238      37.557915690533356     -9.5769874790294232
  2298   1      56.864541801786849      42.775515922566228      58.972726601857069
  2299   1       39.30116955894276      21.704322335446061      28.760168526397404
  2300   1      19.831391197211683      35.345707659562237      3.6976336476973892
  2301   1      27.297338239040798      75.326799464371135      34.917653909341468
  2302   1      59.150728346545137      2.9546343021488419      46.288779643667667
  2303   1      12.665146161890624      48.242000380438689      41.359457897219357
  2304   1      45.378000407814113      4.6864356911978335      33.970996173009453
  2305   1      50.041255701035077       23.95956167865203      28.954516952324312
  2306   1       28.42725954475101     -4.3442637891769316     -11.257129490989595
  2307   1      30.635482485543957      28.479521555279241      37.387743925956642
  2308   1      35.293101716418427      49.175880391349587      50.229070090000455
  2309   1      49.525569425932417      20.713786305114592      15.422169860409106
  2310   1      15.215150874964838      32.724414355395886      46.517333497403506
  2311   1     -2.1232552178871948      45.727816104045573      15.919354893224996
  2312   1      16.713102395586954     0.89118241280035571      57.828160219756775
  2313   1      47.119422185143996      24.627306842967041      14.176504306810566
  2314   1     0.50930025362384801      14.285902422508373      33.630068007321967
  2315   1      38.998309310333241      7.5186094840410975      17.904774873539989
  2316   1      19.823006607032628      17.263355321376675      44.296569181868563
  2317   1      18.850439595710029      41.423870032832262      17.255801637890489
  2318   1      5.8102408229279758      36.239335561559692      31.094705297345332
  2319   1      27.895875553241932      43.187712443643051      23.074747611599189
  2320   1      33.183981390745068      56.266518021511864    -0.88474518659980983
  2321   1      14.960084162488416       15.82455528506434      4.3081794789751156
  2322   1       15.92419593037345    -0.41195778232335867      37.976507615887684
  2323   1      37.662513211074192      11.346132631125721     -9.7993705993850622
  2324   1      32.904631102610004      30.248522675038881       79.37313140182863
  2325   1      10.932622302488243      45.862435846110372      23.129924083263347
  2326   1      28.748797475774051      5.5674616122214227      6.1055595738036166
  2327   1      7.2221911259974041      25.294938829405176      1.2040850274467791
  2328   1      13.063702613103185      38.556424246096434      52.873574735138419
  2329   1      32.915572463980958      39.881182752272878      6.9983314780193853
  2330   1      21.647861546861566      21.390873212855901      28.455546903420622
  2331   1      52.567127679031877     -3.6107759500128891      45.098541318193568
  2332   1       18.98252999500313      6.2649075874681852      50.708748099233397
  2333   1      11.355066586083451      48.552823549308421      19.507820780312258
  2334   1       33.59453375254499     -7.3574250372285004      9.9956096657800462
  2335   1      46.620289180569948       20.33849683614363     -1.8420591953289009
  2336   1      40.881491676076266      53.975449219737271     -22.010748192783247
  2337   1      24.825464235542185      39.721091840951217      26.510981647063467
  2338   1      12.658451729357918      27.126625487840862      10.034785052971751
  2339   1      29.256422947992654      27.006491661509216      5.7404226162658416
  2340   1         36.465683420424      5.6955334930877362      43.187442918287289
  2341   1      31.840390700307655      22.299753176299333      9.2445257339835667
  2342   1      40.070571211186248     0.45032646826060591     -8.0801206644953769
  2343   1      18.634760841064281    -0.19674923702276895      31.062985747950332
  2344   1      41.974753492483977      4.1901561261108879      37.483653928011535
  2345   1    -0.99521834176681301      45.947702783025619      1.6748789710655796
  2346   1      22.349800396574214      52.206322826951627      42.317788287621894
  2347   1      38.382347777321222      11.989977697659894      28.354572749625319
  2348   1      39.009583841724307      -8.929116187725926        52.3336705401355
  2349   1      20.278425719784575      14.985132804154688      17.337251239347367
  2350   1      11.607174181472375     -8.5606159625776481     -7.0739971462139604
  2351   1      38.754786185206918      8.3819595993354508       43.70637911428306
  2352   1      13.949392396694066      34.288062688847802      9.1865804043452215
  2353   1      32.812991700155145     -10.404687836349526      11.483848748810889
  2354   1     -5.7783580927652158      18.613406758398053      22.018336770186249
  2355   1      2.9534541173924889      14.110808703226477     -3.9634789504222443
  2356   1     -6.8709576943035477      23.855073919045466      60.916271709621199
  2357   1      51.069142830590401      26.530969361225466      30.817152712601871
  2358   1       50.47306409303944      23.219478106903157      13.339211225824963
  2359   1      47.902247865010068      27.824870474251785      30.453075121256372
  2360   1      11.260976367067446      56.247104845484238      18.627914791897812
  2361   1      17.169788170520711      26.026190000517282      9.9305152531198608
  2362   1       45.23543078802269      48.980513030543321      49.674789952532556
  2363   1      14.843602756695359       22.72778035139698      27.467538982925554
  2364   1      28.127864603960877      17.166274675871389     -24.590883989181261
  2365   1      46.215304138320946     -6.4013983219251989      16.691450605841201
  2366   1      44.425770652106934      30.922603580548543      6.1229508124658834
  2367   1      4.4266709349763573       41.79582972875766      19.462254020392169
  2368   1     -8.2358588920608859      -20.09091563060684      30.140782675871144
  2369   1        21.7190455802609       15.87767091938812      31.189297432342659
  2370   1      23.536713585359344      6.5848371264457821      17.999975029194395
  2371   1       24.51339363557506      39.626575442197989      31.220273067908213
  2372   1        47.3970870058833      46.472408364501774      24.658882507129064
  2373   1       9.413384905051208      43.027875478695933      24.950690484224882
  2374   1      48.927710113017255      13.629891548543256       23.20932164260326
  2375   1      43.976481097881738      22.043288914313319      68.165375963486454
  2376   1      28.043537325088248      37.244644127787247      29.661551609695138
  2377   1      37.110086178226325      9.7200229619793159      8.6713089691104948
  2378   1      40.124586954225066    -0.68994447401180614      53.760175422266045
  2379   1      22.570200742219203       28.26504069644238      26.506901489148412
  2380   1      25.574200956722972     -2.2369083626828954      25.243336540795688
  2381   1      46.800795312910125      30.876860899245521      13.558786215184552
  2382   1      24.434952770116055      25.416440096756446     -21.214427562615914
  2383   1      16.577082648647039       33.30608027667666     -16.937960008575825
  2384   1      30.708516324863957       21.35707924763032      6.1196700551521577
  2385   1      28.571184200637262      67.046111961331675      43.725086514348504
  2386   1      24.283138902990558      21.701481763818126      62.473953386723913
  2387   1     -1.6089889095207293      12.065887846862699      54.950378758456679
  2388   1      39.908703915118217      55.092496247838845      11.460057122719505
  2389   1      35.568000842950454      6.8945240287574903      31.087626629315391
  2390   1      32.489191818127622      19.310008970887971      40.488541968035356
  2391   1      19.267684379195444     -9.4981499227171522      2.6667225936852659
  2392   1      6.2989734122843783       7.858780486383484      34.099181573214452
  2393   1      36.722457682714541      35.778667683884038      49.313923401939498
  2394   1      23.088978949157589      10.485609528444913     -1.2297031718328513
  2395   1      9.1200889913653924       14.04895795977191      25.097268114576483
  2396   1      15.772301220392023      44.314159962951756        18.7032461157361
  2397   1      39.112328781212057     -6.0756091997039929       13.07956876835097
  2398   1         34.208068612664      48.645585769856872      36.216186059293882
  2399   1     -5.7327372731953625      33.596947467532431       12.30660803109453
  2400   1      25.415817658228761      32.485880050214774      44.594944734262974
  2401   1      14.700784430874394      22.590420872243694      40.302481687448783
  2402   1      21.601952916862849      4.7287968974874266      52.974137314966001
  2403   1      14.410025884321159      27.925478660363165      24.657035535183343
  2404   1       37.07061829804703      19.695853779428322      38.255892961184287
  2405   1      5.6034006752896435     -1.2011912401299534      43.640193034992492
  2406   1      14.947452096248327     -6.5543050031949717      24.848825658783895
  2407   1      14.485626838598147      41.152757123875332      17.628368248335448
  2408   1      31.471836755041004      44.623590358331938     -1.4463607292541039
  2409   1      30.123471769707493      43.256132199893052      41.013101429114045
  2410   1        20.8795513194455       4.725356909183974     -3.3580569543861607
  2411   1      39.583555078165759      48.780826439235334      33.313456356482988
  2412   1     -6.5487131557410416      41.812009484112032      23.577197515498188
  2413   1      35.706899294793814      14.263580311404981      19.547530054325723
  2414   1      32.781541078201052      15.105126046579118    -0.66105636044849514
  2415   1     -16.788887743005645      36.150008070235394      43.817149182039238
  2416   1      16.056590124405346    -0.02848045872895108      41.175772147101512
  2417   1      41.352022438636652      3.8445686542958604      9.8032325977843371
  2418   1      5.4623465847006099      37.134158444727106      20.083300936177764
  2419   1      20.814597163282755      30.843826867293213      55.670959236853804
  2420   1       1.091815616103974        18.9875356151455      2.9380225345972044
  2421   1     -16.362191890789674      37.658359027808622       30.31868216350184
  2422   1      12.743019158509982      14.785273365864841       19.03820983995681
  2423   1      33.706853682637401      52.664849338165894       17.81123241827645
  2424   1      9.1937989622704652       31.44473623162153       41.06550922723963
  2425   1      17.254878493665245      16.216137145923479     -19.523276610894271
  2426   1      14.029455384777654      9.2219925296508194      45.485546365729739
  2427   1      46.058160058415552       45.52562225974291      32.604146331385877
  2428   1      13.374377272834106      1.7351055121546046     -3.8012134572151619
  2429   1      50.652379289325559      39.191545716008079      30.869818485832564
  2430   1      37.798000524539752      9.4644530901642661      46.784037730832338
  2431   1     -16.082347801895956       39.92636029950755      21.246007161851786
  2432   1     -6.0442808086589066      19.863346752782785      8.2170718200799406
  2433   1       39.25083384372742      16.523925910164774      24.701952309979465
  2434   1      11.603440477279621      29.882381620357275      20.717280202832843
  2435   1     -6.8705737464994705      26.978862598828897      10.258048484678898
  2436   1      42.032986200499657      38.196581752808576      30.021323259096608
  2437   1      26.110526154727321      18.669808019897417      8.6214878399445336
  2438   1      22.998963389978865      32.508755991549023      30.819607720156192
  2439   1      15.046499603193384       9.004998383837524       40.95460512906827
  2440   1      31.569942682331291      6.4049838133257966      7.6709199933758772
  2441   1      22.743306687064937      46.183626478913226      6.0673929223056362
  2442   1      33.376606225057458       14.73116797205785      11.429410447794648
  2443   1       -6.48680940162666      5.7220999836071975      34.506006040035338
  2444   1      21.554755515141306      21.631834608246336      38.490597259863513
  2445   1      27.546282190732683     -18.871987067553871    -0.63416654039231168
  2446   1      31.344063196519802      31.176450050785459      11.242062349399566
  2447   1      18.051377493814318       13.77352817489504      43.572948261752458
  2448   1     -4.9124212257969528      25.496573258836968      16.542455023292959
  2449   1      42.328751995632047      10.474302966777746      24.278234880826687
  2450   1     -3.1014275489693741      41.067619683259565     -10.356356383325988
  2451   1      16.650114965653916      46.814307277801127      16.822761471779348
  2452   1      27.157342648343633     0.64189107580212501     -17.202111832860194
  2453   1      35.004238326080397      28.075657504283956     -7.4646650990529126
  2454   1      43.370921303099315       40.50768432554289      17.737562252840153
  2455   1     -2.6417041455392578      12.551476312946328      40.111790253660182
  2456   1      53.944035949355055      14.790175898548556      19.556531083820797
  2457   1      4.9989675148515058      21.125705817888377      36.118246715024917
  2458   1      36.794825165054469      37.543861855961708      24.313608759910487
  2459   1       7.431193281016272      7.7116511857628405     -1.4672262154193552
  2460   1      8.6711255744453446      46.749792190938898      19.057490147032613
  2461   1       14.62168522369339      10.154778676315226      14.845595648338021
  2462   1      31.723451273819784       22.70355568739425      13.560054104127486
  2463   1      53.206867833222795      5.8418923334554851      19.556238259390909
  2464   1      5.0191352884877514        41.1954304876623      44.171410146071878
  2465   1      51.958254373088089      9.5832552786391876      36.232777535415366
  2466   1      9.3030352585356475      18.399541383077079      27.440122858481786
  2467   1     -16.687951098777713      33.346228179051195     -6.4742076501156358
  2468   1      19.021121110840628      1.0896104603863284      39.894638657496259
  2469   1      13.800071762663165       29.48524652785601      37.226449204380117
  2470   1      16.533925826370435     -4.0430358573632814      52.330966269129902
  2471   1      30.915177056882289      26.209653916070973      33.176643288344287
  2472   1      40.833913867943679     -11.754744801731277      38.268667628128718
  2473   1      42.150218937483665      -7.254008335395941      48.199338111946766
  2474   1      49.951677821456876      34.296991124741723     -12.590236228787328
  2475   1      51.142964993947004      2.8740029494472741      46.753188662785476
  2476   1      41.786589487537036       23.76111757689528      32.776998089492878
  2477   1      44.506337451652335      49.698365916441084       22.84003954941927
  2478   1      25.635585425624573      20.122702038283581     -3.2241844137218529
  2479   1      31.970864589044158      1.5715197745531881      11.753673060970559
  2480   1      56.257237935255397      22.117451690755892      26.769006995402496
  2481   1     -7.3918076880350059      2.8037202951986573      20.724539597933912
  2482   1      17.881618594964827      43.191582488749397      26.734867065654097
  2483   1      36.869445821183689      53.623099527588586      17.554010943484922
  2484   1     -24.886703015736177      24.024772754833851      35.149564430083032
  2485   1      25.680923908418521      13.811599932174353      22.952082294703263
  2486   1      16.453121898452842     -12.592467853196029      44.292479256447251
  2487   1      42.162928696380703      23.549256265995702      -3.413219121437872
  2488   1      20.152222799755343      22.532951466159417      57.288783754438008
  2489   1      10.277183807456595      25.845020678479624      44.462184132118978
  2490   1      8.2047250901004052      53.680778503806515      2.2624811888513952
  2491   1      20.136323306708466       25.33095946961852      18.682034926306411
  2492   1      32.755112721115282      32.337396074339914      4.1201196011762917
  2493   1      44.829959907409453      48.736799593629129      16.541943563210019
  2494   1      22.662257411814675      6.1566359050684536      23.665581258481993
  2495   1      15.801397237571845      5.2649715026399129      1.6150908646245083
  2496   1      24.570206493547527      20.229454115549252      4.1420055700435956
  2497   1      21.435274003731866       5.549545309188086      32.824586607974986
  2498   1      50.790612028088354      41.038776781929364      15.471300286915776
  2499   1      22.664292962758623      23.906283276911548      11.988015657076504
  2500   1      55.620038587867889      13.312981941845466      21.814114836308555
  2501   1      20.159837464885197      18.392450777035787      29.796781469673721
  2502   1      31.610785440842772      52.890025943450837      27.891136309614801
  2503   1      78.334540806153711      33.274663590586378      26.627886983292331
  2504   1      39.863644492182857      28.400738026557629      24.285144227534648
  2505   1      30.427488418161303      61.823879699241232     -16.112459632081794
  2506   1      39.692666013609205      25.806006292449236     -3.7927578090860865
  2507   1      37.352859741707313       17.71106949753451      17.269863059208244
  2508   1      20.905614310651192      3.4308327767721836      17.346598082879289
  2509   1      21.965616129391563    0.050360891683352553      41.895184386515943
  2510   1     -7.3971263890371146     -5.1109777660974673      57.346398781002435
  2511   1     -11.583874122058742      20.753301388211252      54.728113725299636
  2512   1       9.164780730528161     -6.0572010095346434      1.1623411820044958
  2513   1      50.570001299016106      47.664296636959108      28.743072215182885
  2514   1      41.332118771362587      16.598064681943715      8.0478152396477647
  2515   1      65.494482728144774      27.410743659554921      5.6316264465058019
  2516   1      31.149224364819638      17.475865660545487        19.6556165909026
  2517   1      6.7463551785729621      25.753709010707244      23.765622213528168
  2518   1      16.707999633190493      31.142225977619745     0.20281014084241483
  2519   1       12.32053642075172      18.239423562576491      40.762589294987826
  2520   1      23.856826073485543      17.875962390843384      10.940029642517253
  2521   1      30.493470577160814      51.593354759662034       18.53878227621232
  2522   1      15.994505674487367      13.610512285611035     -8.9503618078433078
  2523   1      19.478383998450884       30.36623863945541      11.532975118599934
  2524   1   -0.078033112658145873      33.925050313651944      29.140399733078873
  2525   1     -5.8110175663978598      27.404358239381477     -1.7355135750712847
  2526   1      21.598563960076959      19.163686731594407      25.658172988558551
  2527   1      52.252091073281846      25.355755285170336     -2.9332827560647519
  2528   1      38.747403018450669      34.424754031698143      75.638139685953547
  2529   1      8.6399396047540744      16.256909348151453      6.1615495438816872
  2530   1      7.2011895597634021      36.543910780284634      41.408701608986014
  2531   1      29.229726355246662      40.469925557309281      21.717892961222187
  2532   1      6.1202569777053553      9.7357976576626744      5.5068915362133719
  2533   1     -9.6757129597383464      25.393296222759872      17.233465585400129
  2534   1      23.165932548737896      6.4653572511581556      -4.635129542511879
  2535   1     -1.9008927215444551      50.424638288484992      8.6836977992395319
  2536   1      23.744193574694616      14.530468248716828       14.26148729369911
  2537   1      34.412132640262961      14.205731587485786      32.376594376295593
  2538   1     -10.875201222078838       35.30367009459691      36.477002336103659
  2539   1      17.359983956208943      18.357481876189603      10.311607573138943
  2540   1      10.300652053504425       28.17255789557321        27.8812052128945
  2541   1      34.318238430122435     -5.2437887156646772      50.151311588936544
  2542   1      -14.50010619687515      45.339030650195284      26.786141851020115
  2543   1    -0.42742126019456012      38.639388030070521      9.4048362340485188
  2544   1      17.569556408987765      31.536223187449828      38.893939339078422
  2545   1      58.522056643973109      13.740918288063146      8.4717918346617704
  2546   1      11.557980417337021      41.486120948140638      47.423886682519985
  2547   1      41.553100291650452      16.853305138384666      28.538067814579698
  2548   1      55.055035894063458      30.644471491818912      47.492804129369112
  2549   1      1.8333781228439636      41.348818676387353      24.271587945142304
  2550   1      21.576191171524982      33.072114717196747      58.098173384109963
  2551   1      31.644447343367681      16.796374834198762      23.465394368381752
  2552   1      14.095149874297276      25.915210250064984      33.495281369472821
  2553   1      31.188299957607271      10.795971962047165      13.040469712895286
  2554   1      18.374318460517472     -33.202861896471966      46.947693234097265
  2555   1      56.086117010146985      30.332928019571511      4.8633891087105106
  2556   1      1.6569647881647758     -26.181750767950515      23.655602801851746
  2557   1      31.562759287791948      12.094523459605071      45.190375016858056
  2558   1      14.244685697212162      14.788383578025863      46.870218270716116
  2559   1      5.8401143419950197     -16.532358512479355      69.694185065321079
  2560   1      5.5702809002911806    0.069816709666054008      38.417281213648089
  2561   1      10.149355292292842      47.936267237447616      16.360444361440628
  2562   1       39.86691522882586      2.3121292027262759     -1.9101920468641398
  2563   1      1.0127429040136222      18.193408810569167        48.2204514321269
  2564   1       31.63040715319169      49.429646020640888        1.35806339481728
  2565   1    0.068880909063549003        47.7395719107327      21.360008749305067
  2566   1     -6.7593121102730622      36.215454199857682      25.512017084507402
  2567   1      29.926315610800351      31.915733427499831      19.622430533116912
  2568   1      8.4130474115624096      27.113686189551892      15.397332662324922
  2569   1      38.844299564213181       37.64731605217775      26.663081152877201
  2570   1      17.599589197257224      2.5259634203960952       28.23341730230128
  2571   1      48.016853540019824      7.9929616785955684      44.991938943782543
  2572   1      16.209797984158094      24.980047582960335     -27.522532348588509
  2573   1      29.083254965023993      35.230067798689952      51.292765026243124
  2574   1      48.531129678745401      -11.28098676347933      28.753643828642915
  2575   1     -9.1792422880959954      23.686418852229188      3.2097110499415349
  2576   1      22.064330039131676      45.262721484596135      12.310565026183575
  2577   1       6.122840020838817      39.676069564614401      31.581366157068654
  2578   1      37.426200777685175      21.214349530561126      35.393612303847512
  2579   1      17.233526296709183     -8.8672713745837513     -24.695946562250235
  2580   1      35.109742390073201      25.929798394321654      65.844225917252103
  2581   1      15.071269200168301      33.487991407679672       34.62783068964886
  2582   1      10.840932695094944      10.647394515355222      50.977813530539393
  2583   1       36.15460027729759      16.079249498985451      30.610272667624237
  2584   1      34.780569340720746      11.819881593522581      28.822661476239695
  2585   1       2.536745495111473      45.179391209644749      16.822793495187994
  2586   1      29.856662127857923      11.332845351534282      16.799772282218409
  2587   1      55.417851533366381      13.624145295904919   -0.060374448917388718
  2588   1     0.21221912900306833     -7.1027236530947979      18.259600719090589
  2589   1      11.037237966953809      9.8416022678295096      15.743404407791688
  2590   1      43.691093195730161      31.397605155172833      31.434664732184778
  2591   1     -3.9726963494900094      33.043241328650417      17.680177889655504
  2592   1      55.256509783380338      18.204826590259259     -16.124394997196621
  2593   1      23.049021961694294      25.554071163827309      48.114160966921936
  2594   1      -8.302720957757856      30.406072231583892      55.395766856487448
  2595   1      17.218073127332644      4.7469858438291048        22.2057533487909
  2596   1      37.759767772111687     -3.8833907716653973      2.9475894416020143
  2597   1     -12.898551646598102      42.135738234159831      37.347329725745631
  2598   1      8.4129384576672344      34.110236642261746      54.642995240739019
  2599   1      3.1666265558500739      16.520362533281936     -21.449545962776753
  2600   1      3.3828900882268984       52.43074996998979      15.230787464086291
  2601   1      1.4833668000793341      43.397818480950086      59.765963418522233
  2602   1    -0.32181743612922231      16.048677983498813      20.592327190945639
  2603   1      17.050240970734475     -7.9458147829289452     -8.6322469871237306
  2604   1      14.355156858404785     -17.396531477464166      19.986469494016493
  2605   1      14.336635771639004       24.33576511924031      46.042110043561891
  2606   1      33.078409543403929      41.608849859373606     -7.6632717814671603
  2607   1      60.085892152520948      45.516065735842865      26.362463160942269
  2608   1       17.62445994757207     0.41920084080793102      22.195849417664206
  2609   1      3.7449424015964836      18.010713288405121      38.377947014295223
  2610   1      58.942503699225554      10.969810602066332      39.316719477983135
  2611   1      11.391768373131354      38.351620865992793     -12.257651706099946
  2612   1      49.979611979599731      9.0499903327138949      38.785484288847343
  2613   1      48.963654191330491      15.893390812853392      25.957447516449243
  2614   1     0.50221815151218907      7.1338345460963115       13.89844386517327
  2615   1      33.555787683665471      35.386741535662985      37.962952482784239
  2616   1       48.49028661503435      34.370787612810119      7.5874291318833809
  2617   1      6.9468455545247068      10.788581100903949      24.586236560842973
  2618   1     -1.1732198586712037      43.976029493180548      26.762490636047438
  2619   1      10.048885034350471      8.9521012043747152     -3.2967866796577354
  2620   1      22.177629538364116      11.551562457431537     -5.9621616801477737
  2621   1      37.987667407732928      14.148620732812748      11.932833427130692
  2622   1      48.642226420563198      10.423623580851087      2.3905671992923856
  2623   1    -0.37056618649968215      27.635373781981169     -2.3713361373209327
  2624   1      19.296781881514189     -10.504327396734778      27.499442889284769
  2625   1      7.8789370644201213      9.7383190650458857      17.026034459521085
  2626   1     -5.9503547458933088      27.024682984639128      5.9480126596210061
  2627   1      39.933165733759601      17.966566127614133      5.3594032826785147
  2628   1      2.3197567234200354      13.520849845381115       5.944674443805062
  2629   1       12.57642543923696      10.860162027440206       33.12910533113341
  2630   1      8.4371902799476572      18.113441435317981     -6.5158701537652322
  2631   1      38.292401220378785      18.680244643467518      27.055171729962026
  2632   1      8.2606161831289135      11.791423013777758     -3.7772314754370004
  2633   1      43.942003655800711      1.9130829276231212     -6.1748843760697421
  2634   1      43.771008982614653      25.154119631564477      29.216625965417304
  2635   1      15.345754671386382      14.214415108872279      34.093044134960699
  2636   1      35.123989359471828      12.438122942503384      8.7742904588713984
  2637   1      3.3269323729282476      30.705250036348595      29.041789258147464
  2638   1      31.279938003465471      27.545047061367569      29.879073361506244
  2639   1       42.24543153138336      30.993601313174949      19.899779715539939
  2640   1      39.485641342791808      37.624107092712741      6.1661247150386993
  2641   1      12.818637359249374      41.026563136693426       14.47208817345922
  2642   1      21.907782774487618     -3.7703647188609577      27.404970852488162
  2643   1      38.259913074748908      35.060066301447485      53.615051527125495
  2644   1      14.536981260161113      7.5353121939881644      7.1496207810737378
  2645   1       24.66548723896674      5.9862985077649151      50.906983028498409
  2646   1      46.801319994458986      42.879417282282596      31.047981648046235
  2647   1      18.922123000518727      43.394647673660792       14.70912704978244
  2648   1      30.336358368073224      17.164976313744678     -10.131298742990372
  2649   1     -6.7479481098515999      52.647288716704232      24.083637857721598
  2650   1      18.837541561121952      27.988275094063418      44.951774838985365
  2651   1      17.808472873787604      39.203690905703695      44.961585495428238
  2652   1      22.487753833102321      69.745347038202397      10.520406971629045
  2653   1      39.752086927041574      1.4190691291291377      7.3777944433745626
  2654   1      47.455879443894638      20.260513887305784       7.931492310027541
  2655   1       42.86124524728821      23.383080758265237     -9.3293481504984666
  2656   1      16.203140204597592      18.190542553727273      -1.419279436131391
  2657   1      33.973652666508258     -9.7579311590976889      16.713891404196183
  2658   1      46.595690412352212       51.57448112744693      24.036113161719797
  2659   1      32.843750694827961      10.828066705725067       6.908703838317904
  2660   1     -28.978662273816528       43.78846610990405      48.674861709193081
  2661   1      59.115026205472418      15.187886860776089      62.038032795363605
  2662   1      3.5706119339698339      10.293304766497851      29.450899564442551
  2663   1    -0.04909208147971874      42.478550793916902     -10.205006156974999
  2664   1      37.335556595609106      20.119435008506446      41.737467429232851
  2665   1      41.312003705203857      38.328323057979439      35.364441997642075
  2666   1      40.745206605764174     -9.5935309011006868     -6.1780942613081056
  2667   1      41.151298216480569      10.647304250162046     -7.7739744538010394
  2668   1      26.471142773603095       59.30965279159453      51.649101746964078
  2669   1       24.87750069514248       19.20677606888815     0.98307643209813222
  2670   1      11.124645697608972       64.87299736367352      10.225588949698563
  2671   1      20.016582631998673      23.591659549179479      26.717230753337432
  2672   1      54.759959843608875     -7.6833085936256698      56.304378675660921
  2673   1      -19.83228322428366      19.866891936600641    -0.94924867448086059
  2674   1      17.152633040353468      44.477436808754767      36.974725351852598
  2675   1      39.508257349375505     -7.2170629687743775      40.487744942569421
  2676   1      26.983531079991291      13.421653069759566      38.542889682894945
  2677   1      49.706127504710743      19.450454966772078      12.319683956327399
  2678   1      45.149169707854959      26.159841798577194     -13.970155339973356
  2679   1      12.105187651001353      4.1236518758145033      24.315662290651815
  2680   1      36.307697625548535    0.041577595995841772      31.941924585726451
  2681   1     -17.467149435582314      46.414291000647609      34.663005004689985
  2682   1     -1.5493380681251434      49.322213384663307      12.930495651275073
  2683   1      26.257411580185977      36.529649177886292      1.2106858588003115
  2684   1      33.234659310692436      37.741784359059977     -8.6131588318836201
  2685   1      34.470738932156586      57.964655883872766      24.664624141807721
  2686   1      32.635785537769976      13.471796455799925      18.126943478088144
  2687   1        60.5666955804721      10.495406806600803      28.529972727530552
  2688   1      21.869337612299265      13.320895645631358      25.662182562872708
  2689   1      18.192371532393619       30.25034069768256      41.941060269538688
  2690   1      43.599180733338358     -1.7807504707133412      20.780316171613254
  2691   1      52.448079619124009      1.3738563418729119      32.501613307384446
  2692   1      9.6694068817313941      33.893221684352426       13.97653857837054
  2693   1      37.236386557814043      47.120202982018995      9.0698698438119614
  2694   1      45.403894285256044      65.418902600066758     -1.8174406851647382
  2695   1      13.119212143795471      10.190148148728827      20.188144987552246
  2696   1      59.946878470312299      70.876046573255863      37.557994573747543
  2697   1      38.335835513979852        6.55174664910232      37.406376817893324
  2698   1      31.577498751845887      17.284675411037068     -2.8355052022243723
  2699   1       7.749731849741714      50.418086522057251      26.512582558280894
  2700   1      14.327286448378223      56.435947035932656      16.857113006684042
  2701   1      7.8504649773922042      22.866962968297582      4.5327220684078942
  2702   1       41.32227836736925      23.194697920347888      16.091767345396505
  2703   1      9.8052685473162455     -13.995613923694455      18.811783297774706
  2704   1      16.835279601225857       26.25857502727477      47.374079141408437
  2705   1     -2.4831484519241522       14.34563787136395      8.4426855498729019
  2706   1      20.628023210487157      28.439262766638972       20.25821473825718
  2707   1     -6.0412835169800321      33.794952574524601      39.198560716358713
  2708   1      16.798458526112817     0.16386919292106039      5.6619461962226563
  2709   1     -2.4782223663645704      21.202691763123273       3.102285261015771
  2710   1      35.531712075646304       49.90429776711408      11.277446396539448
  2711   1      36.199337883006557      13.383606442298873      48.878549472226126
  2712   1       9.235437492115075      30.846865432579925      18.442640391059069
  2713   1      11.602754581361371      45.093589812703627      19.681782712725269
  2714   1       20.25346892543946      29.023643622395756     -1.0812234133409442
  2715   1      14.698346383546617     -9.2529637989581168      1.1151420211588301
  2716   1      16.415059148512906        16.8398781545215      40.496914146159419
  2717   1      38.740432701008068      -3.172941027469764      -7.700790338009468
  2718   1     -6.4054721237671091      22.027430154651764     0.12373380409967003
  2719   1      56.816888371191041      30.166316852488819      22.796077762230301
  2720   1     -21.650888098392645      7.8915560551386061       7.878150250523098
  2721   1     -18.337764468086316       49.63052947571834      34.351773344973331
  2722   1      33.575599721497369      32.136423246950258      37.243470986522389
  2723   1      46.815400675937468      31.494489626813802      24.012427514848998
  2724   1      24.045718833267927      10.817197374397251      24.580830271789459
  2725   1      33.156231655762305      25.135643537038753      14.870053127559496
  2726   1     0.78346736291387742      27.071121395583134      27.777214974566377
  2727   1      43.436213514904942      16.233049709361612      36.651857940293922
  2728   1      34.744961597395609       0.844706276911105      17.431741204804947
  2729   1      3.2923702649331203      53.103433119806851      6.2005615894847335
  2730   1      6.2454271155382841      9.5582658115862369      2.2735875170609225
  2731   1      30.239647699409876    -0.36912750162327157      47.315392258482504
  2732   1      39.339852570249569      6.0352849155487638      7.2487663280381778
  2733   1      26.979238268094004      46.104875545071181      47.304535028413092
  2734   1      29.402688222091356      12.472540434052711      48.617734512716126
  2735   1      14.459252058366504      44.356917750843259      14.400272085135271
  2736   1      19.306312337970144      4.6185650387664161      38.106142746484544
  2737   1      23.917209211714447      1.4937601034591623       23.06422527400667
  2738   1     -10.680014786433109      41.369394733977778      30.137060804555411
  2739   1      46.940599523775532      14.380012180261117      29.472589669277948
  2740   1      48.350147564228649      28.637646580327228      24.519891283422485
  2741   1      17.876628820321091      31.221742404972733      21.120899171699591
  2742   1      45.729156667166414      28.743725647065443      22.084104559457849
  2743   1       18.46539473176772      17.537641019161814      74.136458963948655
  2744   1      63.294641201247998      19.599313932530141     0.58832783366879882
  2745   1      1.2545238499090654     -2.9457303830629993     -6.0209874418790257
  2746   1     -16.258238947932853      43.757582084893194      54.180393480794983
  2747   1     0.36322039241365789      30.740835744299986      37.434494635672685
  2748   1      30.046648021102826      8.6986213565665782      9.5901796935876309
  2749   1      52.143342025977041       9.087506699501267      14.775528150889457
  2750   1      43.719004711023871      34.561516422786873      9.2806404146387269
  2751   1      9.3827041105568476      54.693865481553928      16.420930538445649
  2752   1      14.684002595192501      -2.700508622535398     -8.9732268395895769
  2753   1      45.800802009779488      14.454749127853358     -15.057683927554944
  2754   1      44.810112334504545      18.564246665062861      17.860193099219192
  2755   1      33.523739247204972      2.6207656738092129      54.036035723796111
  2756   1      39.623141344216748      8.3125604870382777      31.700005326576392
  2757   1         26.770656538367      7.3422896375873625      53.165623237781233
  2758   1      56.694372413854246      16.255333690228305       9.627651743815596
  2759   1      24.476673842358185      4.0096864895665787      15.071837729661775
  2760   1      45.184482174263863      13.030317978719095      16.440948539281408
  2761   1      45.722963043872021      24.849706612563676      45.704696291803408
  2762   1      16.206470505933414      51.970427775226213      53.514442520784954
  2763   1      57.283531710159473       36.78620039460818      15.012647887361648
  2764   1      5.4736219265453308      34.480522705486209      17.711879968747375
  2765   1      21.319288534731456      14.229996517209486      48.144729941557046
  2766   1      16.806348133144301      6.3638632240688633      28.799207066294016
  2767   1       45.18219040287449       23.40523466997038     -16.499455990598847
  2768   1      -1.386354992961722      2.8794554011908895      29.498739587928505
  2769   1      11.599012210350876     -4.3597715458280799       41.36215032164673
  2770   1      16.341988716201115      26.733386932692071      27.867613767864555
  2771   1       36.42049661994546      4.0192037920066257     -11.688549474102764
  2772   1      35.364078404515702      11.486819579743569      17.493481571624532
  2773   1    -0.51430114829542162      41.341882234133479      55.616311590231916
  2774   1      36.535995473037353      40.164805343319053      -8.748067381431353
  2775   1      15.151398447745985       45.13792636334432      22.152548504387489
  2776   1      27.295967720925731       26.91002187689141      1.5487643053778875
  2777   1      56.760431148721317      21.199972525473953       1.560976875922363
  2778   1       41.86083912324959      11.879968697334904      16.424783729876168
  2779   1     -8.9493117320067537      47.542929773239337      15.808936970294484
  2780   1      23.475265087906056      28.101720371232442      4.0872578351659756
  2781   1      1.5537504112680574         32.622532422953      43.623297835689684
  2782   1      31.840511107696987      52.623388183914436      21.933453828084303
  2783   1     -12.839477739719101      27.415949272591565      50.946271375651534
  2784   1      41.960661307220299      15.220764429536782       33.07518435902594
  2785   1     -1.1833576929117937      -9.993508934751814      41.683655812488567
  2786   1      39.562964366729283     -21.897049250174646     -14.959819370849644
  2787   1    -0.50752785985931115      23.658514571001039     -11.864179345101238
  2788   1      23.351106318060708      25.909935324045939      20.083162754988745
  2789   1      44.182292080320224      2.2972947867356202     -2.4990744756280585
  2790   1      22.709618471899436      47.367235426612289      -13.52553132570098
  2791   1      54.228534978903419      34.554615299242222      3.2687098884152612
  2792   1      21.404241054966256      41.443389155349735      73.647288545514741
  2793   1      30.579879064617138      24.676278279504153      48.039928784689813
  2794   1      35.083950459543907      15.594540711170474     -4.4329927439857162
  2795   1      55.873255720518721     -11.578072063406847      37.160812640597811
  2796   1     -0.7707012441327995      5.3088948305982013      31.711043518152021
  2797   1      20.705998386851036      67.337118620703947     -9.3830957577656839
  2798   1      26.858876340962503      16.465246631886956      60.606134687144007
  2799   1     -3.5034860031740833      35.805783959682536      15.526387905759693
  2800   1      56.031114564163722      23.289075625524454      8.8374652523401025
  2801   1       28.42952732615397      20.074079513538745      40.775175294549129
  2802   1      41.220767569117477      29.911275892431661      17.052620450907792
  2803   1      19.357707123094119      21.356264231971696      31.967146680517406
  2804   1     -16.008661802855507      23.221453577943269      1.9097101280774968
  2805   1      37.182727525833236      19.247854443153173      46.434206116508037
  2806   1      10.151791211449531      33.057137300596857      58.704160773846098
  2807   1      35.771212523835644       37.45106475535691       18.93442109035616
  2808   1      12.224706206670961      34.789860334278714      3.9341217502242252
  2809   1      33.642987772411225      3.0653312831735455      39.379032076464718
  2810   1      22.046134474626925      26.389356646741689      39.127973867434157
  2811   1      47.321034870064899      53.637358478954845      58.180770650061923
  2812   1      32.495496886837593      42.580010249378006      34.314569494927682
  2813   1      56.333810091943477      25.160720215400211      27.484157796124354
  2814   1      4.4019246349336179      39.047946551039757      17.692428353831595
  2815   1      11.715132249313754      23.566814579611421      13.695727099249709
  2816   1     -9.8211763258096774      32.634582943967352      15.635216727571835
  2817   1      43.340920339244725      17.968364416050981     -17.452997583972806
  2818   1      34.632760339081926      41.595331327628941     -1.3230244479160662
  2819   1     -16.954430281348841      52.578791789940389      42.026917565242066
  2820   1      17.433669669101182      9.5850854861903674      1.3584724304449889
  2821   1      18.114352878624356      20.882184265470354     -10.226263522893772
  2822   1      23.749100193214041      32.493969273463414      15.748447790052452
  2823   1      17.305445881271325       11.42449550670254      5.1522695513078238
  2824   1      42.325018141675166       4.699048959341094     -6.5735974366123404
  2825   1      8.1976283801096628      23.209050192947672     -10.335937357984054
  2826   1      25.941978480927062      23.642039973658061      5.1468494951716393
  2827   1      45.161331804941724      14.458993214925552     0.74991444809600882
  2828   1     -6.8087658645252906      39.942483270423921      5.6834652719589638
  2829   1    -0.87952849176333547      24.298435669811475      17.562126217073228
  2830   1      33.836204971708554       24.00919879894823      46.945706140309419
  2831   1      62.415349569284928      20.265769854940757      36.975993158769484
  2832   1      50.957010715406767      27.201723361426506      22.470898046994417
  2833   1      15.536112729523765      42.942999708652955      46.619833379789164
  2834   1      31.786142928910099      16.657859400862119      30.669518165141689
  2835   1      35.147498365368875      18.683076854714933      43.937208565433103
  2836   1      28.105472115105115      49.864908386850537      27.266126297324998
  2837   1     -2.1005035417165177      57.593065606402959      15.818469762056564
  2838   1      27.022837718576476      43.760132725910346      27.645611667978063
  2839   1     -7.6212309385050698      7.1456327012381227      21.917992601005295
  2840   1        16.1291557190887      16.706112408058779      7.3725971280816402
  2841   1      19.642952959152833      26.825178262538831      24.572079720564787
  2842   1      13.005069219988705      24.137166657766294      3.4327307363898116
  2843   1      12.130658918201757      32.197418205076247      27.502578133744379
  2844   1      45.287655535180875      19.555336719764963     -20.500569110182425
  2845   1    -0.56404566765214603      61.749762618596613      48.693436534866336
  2846   1      -2.992626580619413      22.979141471670523      48.933661861835958
  2847   1      20.848174134745133      36.644587177930475       18.41871672625199
  2848   1      36.767665202072195      20.434896496351595      30.684005760416358
  2849   1      13.527833391191386      24.385237499707966      23.891211559145493
  2850   1      39.343715664639412      12.654713645088773      3.4763146352555832
  2851   1      16.680568257823492      17.234010435789017      37.020859873805477
  2852   1      47.883440300857941      39.611096740196452      44.854741916097169
  2853   1      7.3844236089345818      12.464015227552718      11.556668911758495
  2854   1      45.842171029687854      31.856875306903529      35.756653773455035
  2855   1     -2.5122460953352839      23.925748294820796      11.211786217807623
  2856   1     -24.115113856190437     -12.748442124513307       14.01839340420749
  2857   1      4.8314279314181956       2.434373350113785      20.334880471547354
  2858   1      17.651459260440049      59.196246723539183      14.942587625599607
  2859   1       51.40469689547821      63.853275942876202      37.229254339025637
  2860   1     -11.831434039628755      43.421011202735855      43.069044739793583
  2861   1     -4.5122670819106219       35.79819541106108      6.2931009394962736
  2862   1      27.642176027635134       48.55980059673977      5.6831069399627507
  2863   1     -5.4652526446395449      45.600374397369656      14.202694807303924
  2864   1      17.444980297170758      23.122280107145443      44.341491908813978
  2865   1     -4.7754606230990433      54.231429886444573       25.82862815875788
  2866   1      32.280130106461897       39.67986289399088      25.395067018835661
  2867   1      7.9906470153448073      23.779970790291696      18.325156966517863
  2868   1      28.935059739294712      41.508351707497638      55.896339548160007
  2869   1      16.625293296052313      56.249831876304107       62.98563861681194
  2870   1      46.331300260548744      31.808263480217384      10.366746410956548
  2871   1     -28.634560987285486      4.5378492022887453       29.44220076823844
  2872   1      45.819488299197509      29.448687818457529      33.240139447806925
  2873   1      33.713386134256126      54.768167266361999      37.747091181091342
  2874   1      39.914346405845308      28.185527215297665      48.669328656294397
  2875   1      6.9000722604348006      -7.126299098046986      39.324588526317314
  2876   1      48.438126096558278      13.562807277214597      16.502538161725319
  2877   1      34.381864385003738      24.326893376982564      24.329078518847581
  2878   1      29.703602878815659       35.12269731613906     -9.2383257334339479
  2879   1     -5.5152193071887021     -3.3982371029590666      30.915419031160617
  2880   1     -1.6557177504178302      54.569786246110553      17.799225524442235
  2881   1       26.81232539751927      24.391478569697504      17.083181551259742
  2882   1      43.580731987594405     -8.0300733341418322     -6.1003440444598427
  2883   1      48.701668638214933      21.610500425977527      49.368968421773673
  2884   1      5.4713126973564314      3.0406541217898866      39.719492944167982
  2885   1      17.079100088689415      20.440630446211614       18.94749387885237
  2886   1       29.65608664433708      29.561872494320834      74.280266449937074
  2887   1      36.177921505143047      26.042297186323776     -5.0283411308440211
  2888   1     0.39369114555781937      11.181532585895448      34.568186902927067
  2889   1      3.4765015099175063      10.942029810304103       3.343940419802756
  2890   1      4.2549495332738454      11.040072594453999      33.615449030189311
  2891   1      51.135708212029719      23.552180321064828      7.9118445933406214
  2892   1      23.380541449285868      13.578625021793824      17.493605109434217
  2893   1      21.678405612477562      28.732797368394245      43.048557574325912
  2894   1      59.488518260890771      29.412211264491575      10.855698795966365
  2895   1      54.296998448246107      8.9783320336289272      38.026339583954872
  2896   1      36.483196771086249      23.083186005801394      9.7199707010839731
  2897   1      8.2315677705150634      30.352992494676499      33.349521675904931
  2898   1      52.445364537924974      28.186696525499986      35.747428525643052
  2899   1      19.140198460399311      6.8392460386556033     -6.4929448810050578
  2900   1      43.555451894757219       14.24455175510016      14.159361816043248
  2901   1      1.0307782759037465     -20.158635654470508      14.714821712592258
  2902   1      20.472649236165857       22.04381605520993      24.013869565334812
  2903   1      46.780279853289066      18.528156079470243     -4.9524308861609647
  2904   1       -2.02050205761575      41.563212488020028      48.703200860528987
  2905   1      13.866571256274865      6.7451388212919099      43.147632823671138
  2906   1      5.3864644848172976      37.709980183774682      24.600481900738068
  2907   1     -1.0220626529970307      34.432932426571334      12.530529142138128
  2908   1      20.745112322602441      10.702974419785352      23.677377370486571
  2909   1      16.765095743157421      14.522089860987247      18.343711075522787
  2910   1      28.822821479102647     0.11638088683992097      11.029995567089269
  2911   1      4.3899120587013334      14.374551358694474      51.033965539821445
  2912   1       58.70373035594185      41.016481231563574      20.229293359740783
  2913   1       52.58065519921626      7.7181397505543803      40.311109078770222
  2914   1      28.776439860325592      44.893172514829168      30.768186523099999
  2915   1      12.507166065032385    -0.57309522634950016       38.18946423484077
  2916   1      46.235484735847422       36.23769646780886      31.154474078519591
  2917   1      22.999490469795422      30.158262187157678     -2.9317936864737573
  2918   1      56.616775861380098      34.298986974252905      39.196410398366062
  2919   1      25.519590659880006      46.478075938353165      44.408644876783704
  2920   1      11.316819686897544     -5.1073275747556233      4.8299251499649856
  2921   1      5.1286845564860046      17.624599255033981      50.795657889071215
  2922   1      14.705292220822422      1.3709416265577283      16.410054830877719
  2923   1      36.609529134236141      43.795944432332881      20.318213850679061
  2924   1      34.545105489948156      12.514481074661859      25.618350820732491
  2925   1      38.275376581973568      47.377788304400212      20.957046186050579
  2926   1        4.58595011057644      38.670733601865663      38.614749096374702
  2927   1     -11.492032861246267      47.600696461576845      24.827443053521023
  2928   1      39.197558168112899      25.999436609956266      12.143574651763837
  2929   1      37.526257941997443      28.958497402664808      31.356556759886566
  2930   1      3.5452857138114324      26.148872296134311      42.301124849942227
  2931   1     -27.455793539854906      25.229399655496483     -5.0654446633371606
  2932   1     -4.8302712522974014      60.051621328854964     -5.3689660567252027
  2933   1      26.718946643572476      3.2438075231703971      66.013796160026601
  2934   1      27.548791047395326      32.325856061931631       7.247336038931028
  2935   1      23.641104696343564      32.425566752873046       55.75555254707205
  2936   1      35.059838864781142      17.459387609846512      26.715134436034901
  2937   1      -1.292227401894573      30.801307508417835      5.2582409534443162
  2938   1      32.070243217255069       30.18221402956685      39.746176890812066
  2939   1      38.685195514431591      8.2234686417992648      4.8184364634716239
  2940   1      25.717553705425001     -6.7498759217400632    -0.52749788398839126
  2941   1     -2.3580368485929357      46.118991060106296      29.429065300175345
  2942   1      46.029638746896971      24.723975043106854     -8.6473756805527024
  2943   1      47.250381125077261      15.288620727202543      38.238215218497444
  2944   1      18.662138013381995      14.323552252454775      34.795718459271768
  2945   1       35.07845808577013      18.532344823606071      21.343294695187428
  2946   1      46.735592816841454      39.686977710197205      32.794147405665413
  2947   1      32.422201886803187      40.084855491492853      37.742248345572889
  2948   1      17.319273323178589      2.8294928156331012      47.486021400737094
  2949   1      14.422322764318041     -0.4636622893704424     -27.528994643524445
  2950   1      28.441963974258549      39.455807185919653      37.964366218882098
  2951   1      35.621753167856831      7.7174126953778934      18.043957747376229
  2952   1     -9.3987071943608615      28.688673111149011      19.608223952816754
  2953   1      18.868029814066318      20.734151550266827      26.807705341012632
  2954   1     -20.415531848499633      5.4078675302337444      23.453530750181724
  2955   1      41.410894675693335      15.148986940385935      5.2439517328253062
  2956   1      40.671416222276555       14.63301558929623      42.416753071121043
  2957   1      32.485095028161652      29.373674387682421      54.431845722083224
  2958   1      65.953805649936513     -28.902023970452099      29.304265087334105
  2959   1      43.144026139837564      9.8770412837640293      58.691198955150327
  2960   1      30.450387933452959       23.75504632095576      16.337455963684288
  2961   1     -18.921372067218581      5.3561911973059591      33.142511635000091
  2962   1      53.375543606826689     0.74013173000089083       3.030735797190538
  2963   1      6.1051716994132708      16.131653676114958     -23.324411531441616
  2964   1      10.344790866611055      21.696235463649892      40.513140617015658
  2965   1      28.922339280293318      15.005295613472265      44.211071910584977
  2966   1      9.6817780491656791      29.391480330503637     0.65231862074267877
  2967   1       31.40795328726756      5.7334697431184507      3.4990261251411012
  2968   1     -20.649197957497655      33.974390424084689      30.505238207166897
  2969   1     -4.4505522949630967      43.544240956739003     -8.6210248574794015
  2970   1     -12.616915534083889      49.569246985013628         54.514150239787
  2971   1      16.595252658903679      41.189085953523595      36.458451018927384
  2972   1     -18.808167662246316        30.7459464337547      3.4857968261601067
  2973   1     -4.3976841828147739      46.752090181645436      46.757601941768975
  2974   1      19.775999867325108      28.979096528461586      14.664277992474059
  2975   1       11.25250395244751       19.18859938154613     -0.1733395586044143
  2976   1      53.338134666777471    -0.23693808703167554      16.782472776279292
  2977   1      32.227505345927796      -4.116733240337525      16.611172025864057
  2978   1       21.55074293347025      62.794010939501838      11.001647081310422
  2979   1      43.500683152772304      15.341701260016317      17.431279358047131
  2980   1      44.442700502526833      10.342726320032249      19.878749337625454
  2981   1     -4.8295099440535809     -10.978856488995339        39.2910375563618
  2982   1      13.591346118306483      32.148526270828469      49.347282755781016
  2983   1      -5.604000935693044      52.462177700492852      28.721031050008751
  2984   1      26.099001454768732       15.61839617145492     -17.016216295928913
  2985   1      57.980498637373188       47.81543001644301       73.68100131954823
  2986   1      10.476726018649007    -0.27988129125137373      35.485013351503724
  2987   1      13.979481491390173      4.3114983702753262      47.018520959530441
  2988   1      49.810686940874625      42.154066874134344      33.642658034316973
  2989   1      1.3398971234739672      16.629186659707194      54.959377134082835
  2990   1      11.481766955340904      44.919474201935124      1.1664635488205648
  2991   1      1.2965767909205936      31.730448135816566      31.145510273507011
  2992   1      19.085526827949419      37.745119283157663      31.850550725567871
  2993   1      51.730721401063974      52.950326791239803      9.4987361195248692
  2994   1      20.531722060884803      42.256510609383682      35.573818212665877
  2995   1    0.080107542008840738      73.547717831210434      52.142166793929583
  2996   1      29.253308253162583      24.319193855127722       36.95147716437198
  2997   1      52.333427617454277      12.575315675175196      11.578466622008445
  2998   1      40.173442193821629      14.513993874863576      30.470822299766898
  2999   1     0.23613625347429748      2.4028218853641001      40.547464684318975
  3000   1      11.405816380643305      1.4787564139468627      49.071518051683135
  3001   1      1.9503468822751215       23.17636808407546      34.762913893383065
  3002   1      13.581166912351474      31.014774217658836      54.588450525596414
  3003   1      84.402523022686424     0.62432713061453415      45.951874560562942
  3004   1     -4.0387823316096494     -5.7362475732823546      7.8257561495254473
  3005   1      26.269917504816831      9.1619834849774158      29.334598998791261
  3006   1      15.109232904755235      37.509608012784888      13.189632436535936
  3007   1      24.041490413255495      4.5583441859769929      46.827400885661845
  3008   1      11.765851590191428      23.890787388800497       18.26207565784982
  3009   1      42.571063044992336     -12.211492735117407     -1.3852419455267007
  3010   1      45.029545796619161       14.40533897024935      5.3837320688737096
  3011   1      53.867351810337581      33.762578627989285       26.02695801618199
  3012   1      24.862373200095803      1.0630774902967464      45.015562705727397
  3013   1      14.847443398629002       9.043270047493472       29.91096096857903
  3014   1     -16.242360775656444        55.1023732668788      11.944373627895054
  3015   1      41.940299577261015      46.980237894540124      8.0510111345315529
  3016   1      5.0032867835335537     -7.1827716835193156      11.282851744876103
  3017   1      16.611093092840015     -7.1256679006350181      59.945414411022455
  3018   1      19.280577546709651     -20.155056244678249      2.8659192971305538
  3019   1      44.624932299546295      4.3068191162421607     -9.0155112298913895
  3020   1      22.232868064379101      12.131607082067019      31.655264410625591
  3021   1      29.918201866199599      8.8670324136564211      6.2989905746231729
  3022   1      18.291406140177084       52.79073761220171      19.329025679008673
  3023   1      35.123158537568656      28.808694715649295      19.891779954649614
  3024   1      27.165363323689569      -8.144552074186441      28.620202968672384
  3025   1      36.218882207282192      22.162792688584087      27.817636949221754
  3026   1      10.060077340074374      11.452073860360802      22.703477844978533
  3027   1      15.179884308479854      1.7708249942526861      31.168763033817122
  3028   1       2.524390574618161      38.885454965306138      27.643152582117359
  3029   1      34.717274338510464     -8.2330769174173533      44.160941702857819
  3030   1      42.461881674962022      19.988489639520544      2.5153190691270977
  3031   1      27.417790887912766      11.978439785105168      33.166680349805802
  3032   1      28.500281807924562    -0.99287945630920227     -11.112469242918731
  3033   1      20.573245689558362      21.479811000786839      53.957319407510681
  3034   1      39.176257223513666      43.237334723671793      37.629561122465539
  3035   1      10.191780524222313       28.00276274107306      7.9190797277583229
  3036   1      54.910774094111396      14.439239715894558     -4.9196864585015243
  3037   1      12.369074815559211     0.85644395321221167      24.007026182572844
  3038   1      14.979671855600088      14.337265550611892     -26.705323073373837
  3039   1      22.222784704174099      19.667351352152945      15.745719478412941
  3040   1      22.861472153163842     -5.4023317126390848      48.996110984503048
  3041   1     -15.379479771015701      19.993595828672319     -1.2822212881356558
  3042   1      17.146162174815117        39.7864838260205      14.550586608748876
  3043   1      15.372510589244731      44.920181741000903      26.404779467869552
  3044   1     -21.167924253944591      31.606443588473166      15.674433960834218
  3045   1      17.144343647371301     -11.371435623594829      1.2053040688351018
  3046   1      29.132755869776432      47.729965126212981      24.246819471712108
  3047   1      35.448401359462622       28.32747280074917      29.004100871190392
  3048   1      30.660831952769513      21.247601805232307      44.621514416699064
  3049   1      28.600288146765848      4.2589306827273399      75.258261740430086
  3050   1        25.9780448657142      37.095014946120209      21.251027061447733
  3051   1      36.107033887683542      12.471618922234745     -5.5766275413163289
  3052   1        31.7339545578266      13.907609669549769      28.971073740929516
  3053   1       9.553366097193198     -1.8370360344828434      47.528837716310697
  3054   1      30.616568311249075      14.357637831814223      25.576811116666114
  3055   1       23.33495447317814    -0.76998168531244893      62.548575471307892
  3056   1      2.8699419834798658      12.070778396067613    -0.66212827243243133
  3057   1      2.9939040333501539      37.913757738970837      46.948169734863662
  3058   1      27.153798824591409      6.9737590326959964       19.31987480505828
  3059   1      11.012478768239381     -3.8247693192286847      7.7325616205409702
  3060   1      28.694836764216934      65.803946214933418      63.206864641225941
  3061   1      14.623170234365981       41.40642106686348      29.037491686459724
  3062   1      21.190610972340142      12.705722007990294      15.022127200563498
  3063   1       24.58199148197971      13.785152817372261      46.813021268714905
  3064   1      19.238659204213924       46.22861495224646      7.0309018901587805
  3065   1      28.935724603948145      30.757462179108295      32.394972624084588
  3066   1      17.546813201239434      27.754634406081539      38.558029211299434
  3067   1      40.992474165454851      45.712432637674915      11.615664334852285
  3068   1      5.7785889648066258       4.185400289642617     -1.7947825191477702
  3069   1     0.38256638846796409      50.640351992753629     -15.498618501466479
  3070   1      26.991968523136926      17.549650829329018      29.388400736861083
  3071   1      45.157103676361629     -2.4840832348622373      7.3579784219446731
  3072   1     -11.156517942840816      27.122943180743974      26.286895979713069
  3073   1      26.736128910079398      35.830713354068067      25.913916245599001
  3074   1      17.450415338956002      8.0507519495644448      31.701936065440098
  3075   1     -6.7612015896562818      61.059975295919109    -0.33964129044909985
  3076   1      25.325788637604887      35.345636140089411      30.075594425279952
  3077   1      17.263053077317299      7.1330096783771486    -0.72324336232674069
  3078   1     -9.3432776349889828     -6.4451406785376921       5.517953885102286
  3079   1      57.721775900584205     -6.6273912815001017      45.339769274686482
  3080   1      48.714380727028399      18.391495958439471      23.716580081858787
  3081   1      25.140659405214716      35.687259064742555      18.365606350950522
  3082   1       20.09762198263439      46.405672890936053      39.492252294946262
  3083   1      11.587824495855719      19.399541499437579      13.187363618276228
  3084   1      54.804115597023078      15.784738444307619      37.511411509090216
  3085   1      28.031743438465831      24.728171991384205      32.049156644946592
  3086   1      48.927746462861421       70.78374926121819      44.802593253475493
  3087   1      19.962866617759193      31.155525619443875     -3.5997947688165115
  3088   1      30.144438281172484     -8.6979845763188504      34.714541832350506
  3089   1      18.099463415614931      60.943340702200594      8.5681441607676447
  3090   1     -19.846717512152264      21.462273647548916      8.7031067260592732
  3091   1       26.32975852113622      15.039561360443408      7.6342154884003959
  3092   1      22.143522046108391      1.7574616496462452      39.092643695485883
  3093   1      33.302801133536057      20.416385575928594      32.901862159709232
  3094   1      27.600926011757817      13.544107905852684      26.515226998228513
  3095   1      8.8195593557305205      28.011234365530743      25.130825744504929
  3096   1      58.398145290701294      33.083867875618203      48.714620793650923
  3097   1      1.2956923780570657       42.70537912964619      21.297563880156748
  3098   1       59.26027621092765     0.37187468094841675     -4.8198571581020788
  3099   1      6.3103638302592104      44.839942943178087      12.020256946880369
  3100   1      32.061054483191533      46.141896024012766      41.396296176668599
  3101   1      35.611449381361496      17.358664701844098      11.197970323130884
  3102   1      17.247842937727604      7.9849989680812712      57.545882234342272
  3103   1      17.437687303583708      25.324519991981056     -14.841278110809711
  3104   1      17.760097630319553        24.3056523999383      7.1911172326611643
  3105   1     -2.7207724832679836      33.923883324943439      47.513525761461175
  3106   1     -1.2210045768392497      20.991494639989963      30.117111198388496
  3107   1      63.443797434027779      29.194684582676185      52.090998819992777
  3108   1      30.717664916862617      39.015134458027283       18.47211977308806
  3109   1      35.323752332751155      24.183545722970262     -8.9806134654876804
  3110   1      24.408372871407241      58.254178592600951      55.026289480441477
  3111   1     -10.587350380977309      61.043431991394328       25.17010466122073
  3112   1     -1.4758548069581474      12.815099263581558      20.212543655287575
  3113   1     -1.7223906135164395      30.545585889778145      45.796295273908839
  3114   1      12.283743002959364       31.67217375874047     -13.791380385526267
  3115   1      52.462633046471701      4.2067623222153827      1.0552560962912541
  3116   1      11.203141308724737       53.36314995564117      20.712868356418888
  3117   1     -7.1114490456565997       20.42185872928561     -15.716611291937733
  3118   1      33.893201679543743      24.885449570389234      27.475405937375825
  3119   1      50.866347954154897        26.6724165565197      8.9168893774346003
  3120   1      40.420064394286811      34.975308103454303      21.122023204786295
  3121   1      17.670812247007508      82.920891201502371      -12.27939366306069
  3122   1     -8.3466754308249698      10.696080208731626      21.250901595072104
  3123   1      24.468724644000392      28.529739211144925     0.78760844680357356
  3124   1      4.5427380795690464      55.545154913279809      11.631172932172573
  3125   1      24.296291811393569      26.766919332265239      17.091835641298843
  3126   1      26.046286474223606      32.982639567391523      39.983191453618147
  3127   1      79.651587895616274      29.724627198617995      14.206897758056314
  3128   1      54.616222548341483      47.086873831689161      27.044291354936281
  3129   1      27.156941995164789     -17.222307223705492      10.948067687010967
  3130   1     -3.1081311654732677      4.4084895446111974     0.94247226916377935
  3131   1       13.80953245740106      15.215521669087098       43.37374077213083
  3132   1     -0.4077517650386569      37.509784015057299      6.2986763347801853
  3133   1      42.064659250339069      40.275056734776584      37.829202728495858
  3134   1       -1.41505794347429      45.235252089221028     -8.8594533838463541
  3135   1      68.599637733807555      18.531728203427949      61.140333036480719
  3136   1     -10.645909187035638      37.638827043792148      45.783641362719457
  3137   1      26.919902761273818      54.668820069779741      35.146757493365364
  3138   1      3.3054451249343515      21.684106030518347     -2.7703425418326937
  3139   1      13.994125315827805      25.288891203151163      15.568671518525719
  3140   1      -7.477863054925864     -7.9253093394939826       20.05942724297261
  3141   1       7.476826227776308      30.514570377348633      30.005918492767378
  3142   1      23.767463452736202      -21.77730607229331      9.7553442902600089
  3143   1      28.899740177724965      3.4151289110572649      29.583392841979713
  3144   1      24.149817010225949      10.231525546258904      17.962154634308074
  3145   1      13.444376937626183       34.09261463237965      12.441912748602325
  3146   1      19.873389410945144      31.439573374215644      30.880043059700565
  3147   1      51.670383093943052      29.699448386420592      12.335668199004195
  3148   1      44.022865199808571      33.833466680702642      33.618711417748166
  3149   1     -9.3277873650998728      22.964355502148504     -1.5966034255375812
  3150   1      43.119601639788833      19.304805196631555      46.654663104576962
  3151   1      50.134844237529528      23.882201569429384     -1.0007105791397841
  3152   1      -16.39347608282004      44.065667235075139      38.781822106055913
  3153   1     -6.3775277458294806      37.000507925929647      12.711304231837273
  3154   1     -5.0162019727392622      6.6375075776028449      18.782844852767141
  3155   1     -2.5440213710036819     -4.5097319840372432      22.175413012363759
  3156   1      29.321879645107895      37.913054900877867       12.46626506280972
  3157   1      15.075308618168524     -8.0874541976410033     -5.4011312053741625
  3158   1      10.322106901187519      14.061282923722365     -10.883302770564148
  3159   1     -21.063077588480049      18.026173428123286      33.532797659825036
  3160   1     -3.4222212390903568      27.848262572902772      12.872740418123223
  3161   1      42.340645790346684      8.6779757494197405      64.683746287317121
  3162   1      23.039450798992192      31.696027996628864       51.08258573512687
  3163   1       5.874456423915194      28.411099404265585      13.462714966205276
  3164   1       23.30511398599943      34.944354668370487      3.0375979099575883
  3165   1      24.651152272443898       70.39017188237932       8.201068817339161
  3166   1       12.09304603542363      7.8272309589056492      39.462297709322627
  3167   1      30.828419568127369      18.641174516848469      12.595954288377012
  3168   1      34.068054118040827      28.986140126428417      37.029533219360509
  3169   1      31.745404055441124      30.572896030658871      34.911020913537769
  3170   1      29.540471968291385      49.356615194560455      21.554403269697882
  3171   1       4.975911163126729      23.422440547089412      54.612052453247074
  3172   1      20.339366967003073       13.93161092808587      -7.359095240065697
  3173   1      23.102144095418105      24.036945213304392      23.077391511383794
  3174   1      42.491641399234197      8.4939652757744675       27.15507332845311
  3175   1      13.367226541186698      27.068403369963761      21.694309459755544
  3176   1      49.665280221420318      17.260017855240992     -5.0436663478524055
  3177   1      12.605596182088103      33.487089071287819      16.945969739591249
  3178   1      42.523569631170311      8.0157214423271981      1.2629798728055821
  3179   1      14.964141506233632      30.897691476918979     -7.8322191535213701
  3180   1      9.4365355736611232     -7.9887815199000478      34.475618064985028
  3181   1      15.030471382344251     -11.700592005566303      6.3264341863584956
  3182   1     0.99793279037311333      36.472709703860367      38.730782620686462
  3183   1     -1.8591326975028577     0.74315752339632057      26.613618027993674
  3184   1      16.702847191238341      12.390295072126193      47.903106996296515
  3185   1      34.428310806203385      34.856874150878156      27.023206509723533
  3186   1      34.317853947362337      28.513317274563143      61.298638593164398
  3187   1       34.34907597526454      15.085927901854275       6.475511264688433
  3188   1      17.425624275464799      16.334735927667094      21.709923324916407
  3189   1      50.442169808822406      3.4878152410261656      30.092321475904807
  3190   1      8.7310833775474421      33.760519837899039      24.863786882541163
  3191   1      50.734774196440767      13.277302938051843     -7.0434928665815928
  3192   1      10.620187111131429      36.074174782812989      48.482792251704574
  3193   1       62.36618648197188      27.004635489732479      47.538073357585283
  3194   1     -13.925108070632636      26.689050585120672      8.1311912893796823
  3195   1      27.942996048909951    -0.11542489601438349     -3.7072371345192043
  3196   1       46.68928332995668      28.766419156597678     -9.0657263216670483
  3197   1      11.277141651091904      36.265749973777723      33.179824155834737
  3198   1      30.981485176172804      29.342049910593961      21.502607877838859
  3199   1      10.097304375656044      1.8920124452872751      39.630679432321053
  3200   1      11.753374218263493      4.7971563007035174      40.415031615216357
  3201   1      21.646013663893829      41.459784604748215      15.984776620035888
  3202   1      23.633022479604026       23.43181434198009      42.277135335465871
  3203   1      18.578401105517393      1.6380810018292633      2.3262155589611777
  3204   1      42.053341084532711      50.909127816235589      16.133276841808129
  3205   1      29.975425421338741       1.152253895170599      41.399619134570599
  3206   1      31.535875130867002      34.262153499249173      12.833937006223753
  3207   1      49.161251128707995      4.2834371915631131      27.146215019388819
  3208   1       19.64845511220819      34.235725255685331      33.584497807887502
  3209   1      39.772888788473779      16.517727334171511     -9.0778470427065105
  3210   1       9.853435841093976      21.078629818702787      24.196990142272657
  3211   1      18.728865856640255      31.632660843355264      27.373474843081642
  3212   1      35.326253648547194      46.483418685736922       6.169811893061059
  3213   1      21.181764211384277     -2.2038831770106544      23.792064730088562
  3214   1      52.409145759787904       16.16203775763142      42.146704485964577
  3215   1      22.466997222849553      20.231879384326618      35.419969194769081
  3216   1      27.111721703279791      25.081148865515253     -1.5559022619718756
  3217   1      12.829888224126481      9.4243034376888168      4.7816185603315606
  3218   1      24.330042722889726      42.530238079128729      19.024644740787426
  3219   1     -5.5813269420366121      35.362333596846625      2.0428864072548105
  3220   1       5.659388836780014      23.890139239537209     -5.7544283069033249
  3221   1       40.92506257453126      9.1858663752503311      46.253729233667904
  3222   1      4.6177378139100522      2.1879868934090378      25.553256384767554
  3223   1      10.659389444091689      25.601933858776103     0.85223700957074211
  3224   1      15.866533856873687      9.2188863211504746      23.376489613467051
  3225   1      8.8308760468094256      53.684245422648296      23.766263103342027
  3226   1      29.256045679341252      29.231367776335858     -3.9959286969570083
  3227   1      27.398573295434126      3.1681946264390106      40.337440403237473
  3228   1       0.182368690745321      12.401605177051007      38.376162981127983
  3229   1      20.536761313986194      19.412950464347141      2.8251339321934683
  3230   1      71.703673178430606      18.067389397808647      18.669622165243325
  3231   1      24.053675354474905     -36.761482043267982      8.7864727502914111
  3232   1      48.778876458046483      32.054620034975841       16.54353213171489
  3233   1      20.634436820390228      7.2335846469497955       18.95963498720068
  3234   1      4.6402250610483575      35.096164371073151      38.323547533390972
  3235   1      51.935472766342166      25.204132787850991      25.106019316313368
  3236   1      17.213232714449045      22.578602651180109      10.042936458323544
  3237   1      34.353922912723149      24.922919725882057       4.025845578185657
  3238   1      9.1662388446147443      6.6648713301211657      8.0892151977949531
  3239   1      23.416860936032098      43.395913802942033      33.875318198155021
  3240   1      37.142867264205712     -20.976921769730236      15.130919334879547
  3241   1      5.5090708011492167      3.6066693405264241      12.611609397524077
  3242   1      4.4174527475925807       20.56690638776394      25.466370631535987
  3243   1      31.769453343472538      27.902981223531722     -5.9837918034726476
  3244   1      25.376015349804845      31.830721609662216      28.243834168398102
  3245   1      21.019650809206091     -14.305588263908094     0.72573533152788994
  3246   1      6.5098224880787834      38.025425018589146      50.174329969577499
  3247   1      27.085226116779786      9.5803756452298305     -9.1673574740606778
  3248   1      9.5645397852664935      10.900634429927441      31.544562653906805
  3249   1     -3.5815085921787473      10.399740294570032      1.3741172660536809
  3250   1      47.864533224007147      41.941385191796201      62.470729165865471
  3251   1      7.6573129063655339      5.5726969904555572      31.940942542498391
  3252   1      41.960014388161142     0.80187692501386032      1.6614835899697884
  3253   1      29.411300348843366      43.055922476267611       33.00027878159549
  3254   1     -6.4065301282942997      4.6498208808542927      49.863303277032735
  3255   1      9.6203308448073486      8.7305573708458191      53.518349987056091
  3256   1      38.992638801580391      11.735354026807199      18.446463380575487
  3257   1      23.823060828616129      38.284762748802571      46.365710238360265
  3258   1      18.002487559122304     -1.1032323397515003      49.334482224497911
  3259   1      40.240165546614847      20.907422815447166     -3.8884995975791616
  3260   1      10.975438833351779      39.621127022695866      7.1090439911984085
  3261   1     -21.788392081598548       48.65490490428602      63.938759382205177
  3262   1      19.616652580917549       32.64582798016842      23.482343257634753
  3263   1      34.175924560465241      -3.385375328257259      8.8408721157066701
  3264   1      25.337207769421184     0.40202765714072641      10.300210574797358
  3265   1      61.030800865342712      12.345342522379898      12.967874778193504
  3266   1      10.362574445230415       10.92982033429587      55.684546147086785
  3267   1      2.4738815304887134      30.043216056506058      5.7976929918287041
  3268   1      24.152030934237775      35.108991523235737      23.004832490399437
  3269   1      57.991124509465124      21.545389471669484      11.161188312725381
  3270   1      43.910102214461396      23.819255337226231      52.593262927264504
  3271   1        3.72090726452263      30.361135585966203      15.482184804088686
  3272   1      10.219542003025335      31.476999465245243      3.1338768187215034
  3273   1       45.29098836212664      53.008412206064563      6.9075839791260156
  3274   1      16.084057371992664      23.128392973062105    -0.46875883094992921
  3275   1      34.257967236785341      21.571880355595734      4.5263837268949159
  3276   1      41.930734477227944      13.108200688785137      26.267562513783471
  3277   1      4.2991590820448984      47.226367197437696      23.340826057675567
  3278   1      49.962380687931194      12.996314619158714       30.00076998146945
  3279   1      5.4510601505222356      21.933214069806407      18.901338206041633
  3280   1      28.643087066525467      6.1748476519372861     -7.6728853060677542
  3281   1      33.035247987330408      -13.83464668507289      50.332119854880098
  3282   1      14.999444171796162      11.400290827496711      35.996575613806861
  3283   1      37.377607690077582      18.097929527252685       13.51864070100406
  3284   1      46.721323528815034      32.515129830532764      32.405034340122562
  3285   1      28.878886894276771     -12.311634297916701      36.335941895220756
  3286   1       5.663295599961538      35.832147538778344      55.683492160959794
  3287   1     -2.3973184527307789      -12.07338441002276      46.090012412076099
  3288   1      15.880058798630628      10.588180364536889      17.755721423869478
  3289   1      35.109717541501965     -6.6172784479010724      15.615527481982047
  3290   1      51.195035288965109     -1.4123512446531594    -0.58261437557178297
  3291   1      56.700077998321312      19.702838600919229      -13.57942863251942
  3292   1      13.149741941224638     -1.7758073688900671      45.550300047395794
  3293   1      54.579188731958006      24.571536615717665      30.288595509802192
  3294   1      24.939216940200087      12.270856643317341     -7.8693064070444994
  3295   1      43.736633979229929      6.9748712353114577      31.649416577217274
  3296   1       32.77825693988548      9.8299891305158216      43.147043440110942
  3297   1      23.436609610495786      33.094989257448319      42.041633287838579
  3298   1     -8.6699544210185024      17.539282501827092      31.466697679447581
  3299   1      42.969301569169801      43.115966425446821      60.792934131108659
  3300   1      10.069104605455783     -7.5839307090100938     -18.357577588709685
  3301   1     0.40769555112743011     -13.615227915334401      46.915085295904866
  3302   1      23.110523224381488      4.9258157032794738      37.590532809370949
  3303   1     -2.8898901546296694      8.4571114436998513      8.1391223803579695
  3304   1      13.274619124149377      27.655011382210009      54.515975003804577
  3305   1      24.873914647482632      18.486420041186033       39.06124231743086
  3306   1       36.47719067295435      46.568859777926029      17.812742140939438
  3307   1      36.583778379772141      34.270616765439222      24.360961688125752
  3308   1      49.699703870113701      35.437006575849033       17.13411189439876
  3309   1      53.521878377309108      25.366505849505973       36.76770369507225
  3310   1      37.185577495042509      39.976582075827501       34.57021253530425
  3311   1      11.242957576712634      2.3980275852360537      26.883617966338587
  3312   1      25.752755843123321      14.632314577157477      43.148273724179482
  3313   1      29.499093202298184      24.783407314905634      9.2879943466429342
  3314   1      21.615172420281439      41.931058779046388       20.91348575420233
  3315   1      17.223541136645316      3.8968905538807328      32.106821260385757
  3316   1      39.447247050121256      13.789976722988671      7.7238176891515113
  3317   1      21.443881808186578      49.481370551981165      3.4672187001279946
  3318   1      10.325755078773135      24.868590438813211       6.038602659025206
  3319   1      46.048088940401456      9.0937934365572612       24.60813533103509
  3320   1     -1.4170258606987158      65.547620725386238      3.3346918507447625
  3321   1      16.565208681829855      40.140878713636205      32.067256772436231
  3322   1      10.880309381422029       29.35234774754003      15.818987558198929
  3323   1      10.269610887953759      44.865437442789457      16.745001224291446
  3324   1      12.198018746496835      13.057368033266355     -3.5895248594131095
  3325   1      8.0531933534507658      69.258285706851112      -2.463467526888707
  3326   1       32.84302605465809      39.564277152603218      32.725204714257089
  3327   1      25.561109576243325      16.297292345534736      17.250990371573437
  3328   1      36.563826900014838      30.873099884628402      17.496094765813766
  3329   1      31.620447254338384      46.888740089959526      4.8894377370906783
  3330   1      55.868350717797597      27.804766981485038      36.709528943195814
  3331   1      43.839213665264161      71.057855682132598      35.145470402407021
  3332   1      -11.97313674989074      34.653566736911912     -8.8018393595248181
  3333   1       23.80842441840133      26.494304439153836      32.394077563057536
  3334   1      4.9256973840305589      46.552199998132195      1.4202650585902381
  3335   1       26.50064295332875      3.0061497778247439      5.6371743350503021
  3336   1    0.093087222253573979      28.962247262195621      56.493632744105128
  3337   1      12.206907686065195      43.507502551288205      29.944391988398319
  3338   1      41.969303143880303      37.234328381093491      8.2963351229767337
  3339   1      11.091815746261423      41.131568142620679      9.9024958230902449
  3340   1      33.838441457718638      8.7965586064668226      13.589740805373868
  3341   1      22.563939601250844      20.175623423241774      32.232192200474145
  3342   1     -1.0576333055364773      21.795395207711376      34.058886726410506
  3343   1      38.431091937093278      1.0996420368064297      2.1601256754083789
  3344   1      31.258470915601794     -11.685132263042643      15.782715879388293
  3345   1      13.196457385423351      12.146083248676646      23.718094661835821
  3346   1      41.397234667885606      16.844614035764582      14.738808752114553
  3347   1      7.4045967288276078      20.530870606322388       21.50072994304697
  3348   1      53.004638573316953      45.099893474136799      41.597958732129861
  3349   1      6.7774281614348366      19.881941556305037      39.778623495483224
  3350   1       31.62017626728445     -2.1501659211677753      27.904391166662421
  3351   1      35.205515943493552      29.209862183027504     -23.558996547250256
  3352   1      31.192495590922917      40.394454007034554      47.413814199297171
  3353   1     -14.388570317946266      11.975071353542518      12.477090451574568
  3354   1       18.36137628403733      38.512646603437197      34.808889126397858
  3355   1     -15.737048498504199      36.479564853567958      21.809926921813503
  3356   1      48.479604557749184      14.973375768896627     -2.6154193305897468
  3357   1       43.20947011933476      21.456395686693845      30.363927836387415
  3358   1      2.1155958819659793      55.216601553141309      17.007348887980964
  3359   1      22.799665997375936      18.946640035851857      8.0949508059126885
  3360   1       11.99838891267439       43.46524434890059      12.561263332155134
  3361   1      4.2441042473187496      54.950644152365584     -3.7727061100640906
  3362   1    0.069297893362471663      30.783279353201305      28.182957728706633
  3363   1      26.222077659866287      34.461091969713536      33.136424699452853
  3364   1      21.358419901638047       48.50738064468937      46.263835978424368
  3365   1      3.2164049833517034      8.8167947975617516      20.684118302351049
  3366   1      26.128939279282754      34.746533062753578       54.29362952477571
  3367   1      41.636165166925132      14.454875762624324       50.83066716814519
  3368   1      28.185701210629006      29.537365817054425      29.160339528709688
  3369   1     -11.120800666432652      12.768037531556487      14.761784378107395
  3370   1      21.329653285541447      1.3725541428774655      20.429801243596817
  3371   1       34.88010050473715      35.609643629972112       30.36561320459295
  3372   1     -15.434439125706261      34.647777618304474      33.854741104953568
  3373   1      40.326883004310716      11.246864918725676      33.066023366049201
  3374   1      14.630937819844979      45.730546640351243      48.375157334621385
  3375   1      44.702345618199587      33.092795738164995      21.741651322137436
  3376   1      30.293570254282479      31.971163763847262      37.547772704290161
  3377   1      2.9681961503644412      46.573059243265639      20.350215631349364
  3378   1      46.041383144918051      33.591298027252272       4.316691685473411
  3379   1      3.2164821507359647      34.037687734968273      29.569315114344114
  3380   1      8.9377691151255405       33.83908163391412      30.016036082050956
  3381   1      14.979226630695983      17.966201578628585     -17.749866277637153
  3382   1      11.305821266537805      21.734822987175757      7.7898681023004883
  3383   1      65.177839630015541      20.562665395416509       34.94072872960367
  3384   1      13.606367277522487      50.667407639885766      2.9128098357105023
  3385   1      16.074083418273759      25.172007579080223      41.500931246592629
  3386   1      37.133029007872594      30.609196146723416      7.2819543898106875
  3387   1      25.956889835472516      19.400160890882105      26.623439240811109
  3388   1      17.449220168601325     -11.108183541394322      9.9003534371961948
  3389   1      18.463093489323796      16.549592064853144      31.993493971424673
  3390   1       8.539480587307736      19.749716386133159      4.7911693827151041
  3391   1      30.184326064841059      8.3551878441685048      70.246884158418325
  3392   1      15.196769251922738      9.5008727031943039      11.292140094083843
  3393   1      29.904945038170023      35.849325676934434      72.298582631000841
  3394   1      44.663702692117347      11.074477671671689      26.634123518129794
  3395   1      34.882928945602416       42.82921647298555      28.764406791784911
  3396   1      7.2689107700342834      25.285873232855423      34.662300617150848
  3397   1     -2.7194402659996086      33.534305336376875      43.747782611116399
  3398   1      47.009082866598071    -0.83347547620025708     -13.192467108054776
  3399   1     -6.8955319594774327      43.695749966671265      -13.57725581637737
  3400   1      18.047809498576484      12.016392924412214      37.172384409239136
  3401   1      40.364090525164031      32.434738625267848      29.188992180591693
  3402   1      42.140941320047055      23.985578586118194      8.8355061765137446
  3403   1     -22.453352070040832      17.205989283809181      3.4524375109837351
  3404   1      34.331390699862467      29.085165544169953     -4.4101702979383877
  3405   1      42.057665594304353      8.7704845914345224      4.4696393603548863
  3406   1      26.754124025606973      19.980194658748562      31.328034733478219
  3407   1      22.251867997265396      16.065245617027859      54.710650904085995
  3408   1      5.2724371837526594      24.448351904360557      16.482522516729333
  3409   1      5.6871368927329984      55.484636956704549      4.2669627214962977
  3410   1      20.814941623736328      3.3392340532058244      23.001851562607449
  3411   1      16.965641435415378      7.7236243792815475      4.0218855732205734
  3412   1      4.4492061137247765      64.788491239757334      54.192418418107003
  3413   1      56.755848062399821      40.038585376596778      16.266289230710711
  3414   1       27.31305019670317      20.359866534372845       20.44824260152425
  3415   1      2.4086164949810711      44.253765963581941      25.698689960465387
  3416   1       3.261934199482285      29.804293435794058      57.767800848519947
  3417   1      19.757594700816586      24.110889315690919      51.787083881568215
  3418   1      7.9870606960833843      27.410227683921885      10.395143380781413
  3419   1      44.325995716776504      6.6329311874323889     -1.1041769611900256
  3420   1      61.757698956835732      24.256723108940687       42.58957710301064
  3421   1      16.366885749834559     -16.238481635841111       43.34133625606151
  3422   1      53.577332940614824      24.144477534834063     -8.7963740741185426
  3423   1     -8.1773851405008102       8.786130329835256      38.353368650018915
  3424   1       54.78473322775784      39.857984923761393      27.292635890121133
  3425   1      19.773917459679904       5.664487047900356      11.330449332846193
  3426   1      31.506127638762393      48.600529907979585      18.335521537232136
  3427   1      34.376104021423942      22.645627196225032      20.292015005022101
  3428   1      28.300646904401749      36.911564173242972      7.0719629208680397
  3429   1      26.140417523357137      0.7615290609739882      35.378753671774433
  3430   1      1.3037477735685601      29.604896249162348      18.482248378359991
  3431   1      16.304100629002281      22.884927060073615      15.103917098419121
  3432   1      30.427790454809575       24.69827485422238      26.722875082442034
  3433   1      40.601740617936265      21.732870290450592      19.531348717448694
  3434   1      15.382295964164278      4.4874594985253982      16.388806903334565
  3435   1     -9.6437983215887524      33.401809992270763      10.864697355711828
  3436   1       32.48137112413152      52.322632083288575      31.991944343024702
  3437   1      9.1488671026407786      7.0781106902644932      41.291300653407589
  3438   1       16.72420840382502      7.5796299327680412      20.651093992331067
  3439   1      39.656962548617628      40.386427775545151      8.1822944059359877
  3440   1      49.764345373183403      8.4499545895706678      42.276406332066394
  3441   1      42.166608575302298      11.264876843388535     -19.821159078528744
  3442   1      30.665541198860396      19.797756527044516      31.019396823744817
  3443   1     0.67374586316610519      43.649360438606728      48.754939447962265
  3444   1      57.384047427443015      22.864151719143788      29.909262229552183
  3445   1      43.807575925560009      47.841485556351564      32.888470487481598
  3446   1     -3.0873382495753918     -2.8405695305198075      43.728064534732937
  3447   1      9.8795267692357172      46.629278774539841       11.56613747805261
  3448   1      1.9041772255597944      49.722228249102898      58.037499685282171
  3449   1      24.378163018360251    -0.87988340497833728      20.474052554493611
  3450   1      12.769937101952353     -7.7273961162078981      22.681400187509468
  3451   1      13.481729391846576      42.254086146650273      35.026902097065701
  3452   1      39.995493652718778     -9.9082275196756218      14.944124078420252
  3453   1      14.892759635284369      24.481461893267618      12.646401809411653
  3454   1       0.300737522731234      51.255489653796758      20.516631961790356
  3455   1      30.831279656644593      44.091686587884183      25.125022918161058
  3456   1      49.548029218746557      27.508218579188739      38.031446587867336
  3457   1      12.154489076134684      4.4875713101262917      17.399399715848645
  3458   1      4.6149161598925872      27.504809965599954      6.8996399426509285
  3459   1      42.945740754895851     -22.667878039591038      1.1229206305824797
  3460   1      5.2383530114483339      28.224176556242117      30.392756838097114
  3461   1      12.847031024856578     -8.0365944946405801      -16.96797124891614
  3462   1      25.396972558727295      26.483793058225562      41.136981219710272
  3463   1      12.219074658197453       66.32692610133401      2.3990895155097069
  3464   1      8.2632200682339025      27.432324557902398      31.454298790555068
  3465   1      19.010729459297764      33.422184011113465     -7.4546432483429941
  3466   1      47.805869273915903      8.5503365210575399    -0.17867096060498697
  3467   1      6.0802712093473179      52.408625266514051      17.216079860585261
  3468   1      21.947012534911682      16.668013660357865      22.552398476587548
  3469   1      48.430589927972832       7.180069716415467       2.824432509622409
  3470   1      30.130172880221764      14.049805921401685      12.443285835823904
  3471   1      27.268543329544851       34.08734875008161      13.518122298574051
  3472   1      6.9993925324321724      24.086479252776915     -1.8654993325922393
  3473   1      26.220800882743077      6.3961250349478984      25.611389045428968
  3474   1      11.378584718009101      25.812113896602174      30.169605759585956
  3475   1      24.241890218229578     -13.720934037950496      37.568363919736704
  3476   1      15.014500456736823     -4.1224199913113333      43.743751567235428
  3477   1      14.967962319905471      36.950551675022012      27.780421476365081
  3478   1      0.4347479009193253      31.396261668131388      21.208698875782154
  3479   1      16.489938603056537     -10.760600044516314      17.741630788898334
  3480   1      13.879480282487158      49.166158798088517       11.32283968382978
  3481   1      2.2072902981065412      35.707340775961541      26.101734406046216
  3482   1      39.022692938513615      20.079908384972192      72.373513562502851
  3483   1      25.396730362016456      17.894777187285513      42.751185697245596
  3484   1     -13.605721278745966     -2.6202057667307166      30.190909658375347
  3485   1      48.432119878946189      16.453489797072379      11.766668631014849
  3486   1      24.336163609908169     -4.7777870834219431     -27.031287238450105
  3487   1      14.220207624640601      42.916965366025607      51.064289516988708
  3488   1      13.497685167555188      28.132026649903249      18.629044513166981
  3489   1      28.682481829230063      27.990717910410428      17.155159687505016
  3490   1      15.658657388524968      25.945223267047393      50.303950576877469
  3491   1      34.030289874453288        19.4393670305043      56.399310253735436
  3492   1      52.887862525095265      10.477370094503168      8.7859470679620149
  3493   1      56.279680953218481      61.786835600011919      16.601851116899301
  3494   1     -10.069383196583429     -2.0239443833971618      36.020613998143588
  3495   1      30.694543874356423      20.972104249721241      20.222461769662381
  3496   1      37.724959947242176      47.602418515788294      12.514139524784392
  3497   1      37.241059551626599      10.829578947181236      31.712061626784362
  3498   1      37.176429221439427      23.538984215296797      14.310161328571636
  3499   1      38.108348287007907      23.926859388494641      6.1695764547502545
  3500   1       27.26843309838122       13.78987083680966      4.5705404611380356
  3501   1      29.648505949201837      53.632713423166528      38.388620230725977
  3502   1      25.679370880996625      9.2769681250201188      45.225404578156045
  3503   1      37.575584084551011      20.566582744395664       20.63703366813607
  3504   1     -10.970058473523418      11.135505186475012      34.901705772803524
  3505   1      18.941020059308972      7.5654577396494007      23.341511032597285
  3506   1       40.25780978672136     -4.7500786433517064      18.861715322677348
  3507   1      20.868177627558509     -20.442771116001001      30.252965103166101
  3508   1      31.053325311254053     -16.049523201255596      15.813484319296938
  3509   1      25.661017610253769      31.954960916239202      24.286903248737087
  3510   1      -4.529709632860965      39.805756079714541     -3.0318615933706976
  3511   1      10.333548649487666      35.190392643171116      42.964760626148809
  3512   1      33.754722799938833      33.040800032167148      17.890232566104721
  3513   1      43.862749733681866      30.200082204235887      24.530966040247662
  3514   1      12.323031554810044      47.008392146107148      62.394920264094395
  3515   1      45.049935956426367      17.685001027352452       8.793345649401326
  3516   1      29.437217947248769     -10.444998802102283      40.792373168511332
  3517   1      37.290403066907878      6.8731397557725735      21.398217434042504
  3518   1      42.599610439977234      14.600560773069756      39.586039497330745
  3519   1      13.437447792577856      20.123744469275444      10.702954912891625
  3520   1      29.107254593147303      17.998165827215146      10.071171173247913
  3521   1      14.708691282548942      13.971337369576203      27.790555730181154
  3522   1      8.5042076875174644      1.1072074362633038      31.417797882043658
  3523   1      28.699284788367031     -6.1627920250150527      49.046300209587649
  3524   1      44.616256412754232      36.944658846757058      28.277516479293503
  3525   1      23.498724514735692      10.702584704941968      13.116820899192831
  3526   1      12.258690622176555     -15.871134646676119     -5.9709200131147675
  3527   1     -19.260184077225631     -14.937340375654189      44.679046379891304
  3528   1      23.165056786035048      16.806219428575375      47.064640881187906
  3529   1     0.12521184113679615      70.944845883310364      10.579235398209574
  3530   1     -1.5884885236615669      36.017983488761089      36.515309541672792
  3531   1      15.805921596947694      46.516087369365536      12.189448611115193
  3532   1      48.443800788349378      17.895251597449299     -19.242037758068722
  3533   1       37.50901308649852      14.132230463106744      40.596446939716458
  3534   1      30.872492386695406      12.418228196825417      41.919086957110324
  3535   1       11.45827195996274      50.304237833102775      53.867644252466022
  3536   1      26.893877576868434       12.59375429115895      16.732725148454346
  3537   1      34.031990156957157      45.124143609460056      45.346304181916608
  3538   1      10.253582624330592      20.122602920569896       44.02586047538643
  3539   1      26.212704976840723      43.254641688480561      42.459978646692441
  3540   1      7.6574220744246242      17.095688618256577   -0.073254688822160685
  3541   1      51.216761212583236    -0.35617950993850483      44.686694359367173
  3542   1       27.92250097727581      19.966908433595428      4.7207741565419168
  3543   1      18.920779493679333       46.87747212145554      42.290716460376416
  3544   1     -14.875035536819317      69.140023595542161      11.666920882443948
  3545   1      9.1245366379533408      46.703534083217569      41.839469115362519
  3546   1      32.446970646936499      13.587570207990776      14.638457493123026
  3547   1      35.642029654906942      41.921968331462494       32.14412294400384
  3548   1      34.885310569934042      50.968001458968104      34.045894823007238
  3549   1      49.346474783339062      30.392889942443649     -14.526867227455417
  3550   1      15.331103651714326      15.033827684367687      11.553142700320617
  3551   1      20.316538710593925      27.876372418687293      36.346639856666762
  3552   1      36.751287278763201      18.070721655627356      33.472135400386811
  3553   1      34.162125451854791      27.340541867936452      31.839366128559973
  3554   1      9.7857697610391838      3.1532465061554764      33.918898104619963
  3555   1      50.340420450967876      9.6210992051034907      18.277727463058429
  3556   1      9.0681252204938634      38.086511614060697      67.574123547175319
  3557   1      49.638493419773596      6.8877619007196449      22.376286303339491
  3558   1      38.072253567100873      30.555552896134998      26.270274623722969
  3559   1       22.98374903874004      39.000474505601218      19.513088043182286
  3560   1      5.2004471390135185      33.068041051290059       9.994517073504376
  3561   1      40.910053112435484      5.7025917838765938      53.244260900526655
  3562   1      37.237142586619626      43.842826465534252      9.5918622422667106
  3563   1      38.301561905290576      17.036495082199064      8.0363344809939914
  3564   1      4.1569774253244161      28.701677391615878       44.48112651046447
  3565   1      28.862095494205803      19.391526971194608      17.701118515146867
  3566   1      35.828258216894227      8.6620703920580926      37.772901298209703
  3567   1      8.1682971974860479      15.410397142600214      40.129081663392974
  3568   1      30.180205994941694      8.8115590626458946      28.479426578164059
  3569   1      3.2383090890989483      56.461054952921941      2.3063436561514492
  3570   1      21.574879987126828      11.317324115250008      35.047328779279773
  3571   1      19.426277117465805      13.694412080515422      30.081329027979901
  3572   1      27.400451003589431      2.3666515904734946      23.718582503723056
  3573   1     -4.1328753402739098      44.510098480039048      25.194663125532468
  3574   1      17.783498767713684      12.476983423696765      21.419416483394127
  3575   1      7.6930629012103102      15.366325125850414      2.6373932442519514
  3576   1      49.819043487564372      36.867995659037604      13.015867967960183
  3577   1       13.29847467434641      12.904106484324222      16.157376547681327
  3578   1     -2.6431690956618339      44.239482679538703     -11.621731301413915
  3579   1       5.564249098654968      28.857509345552618      24.363509112352165
  3580   1      27.973342320685852      31.589115944896388      42.482780407649678
  3581   1      32.480358509697027      26.897675030619673      25.360069429459578
  3582   1      8.0271371546833858      39.860796608135153        24.2841919826054
  3583   1      53.164560175127264      11.565673815114121     -5.7950735997070941
  3584   1      59.215164788488934      18.042710495879533      37.124936198741786
  3585   1      45.878379777924266      10.733317094290348      37.475069531211098
  3586   1      49.982812899971549      20.019420709535467     -21.335689440655699
  3587   1      68.414103694467954         4.2534435256215      26.077353555721025
  3588   1      17.434596943317981      6.5721603902186585      35.869275251896326
  3589   1     -12.699561457340652      24.143015627381544      1.0097494402462486
  3590   1      40.609815076031872     0.47377534153242129      36.595909172532252
  3591   1      13.008348001099444     -0.7485914342496035      30.513147248165268
  3592   1     -10.269299440702056      27.563336011173174      6.3080423555131642
  3593   1      40.637547305580128      14.441083943667426      36.921311841167338
  3594   1      6.5988960156562815      26.526004788324204      4.2677463523904473
  3595   1      27.038974167380111      4.9100462197546797      48.539655517944674
  3596   1      33.256540059236144      18.424879309859602      37.492258890184168
  3597   1      8.2553674045603653      6.2861269909167996      19.685534171136176
  3598   1      33.228040370636059      61.696165376685151       21.36059740433322
  3599   1      16.189320936977957       15.05035823810926      49.582327778333493
  3600   1      42.153733909371077      51.574346215737449      31.973513553337003
  3601   1      37.782177775685959      52.454958061338374      69.758739215164482
  3602   1      32.707257057878451      33.486971254940308      7.3127735253136246
  3603   1      42.828809906237638      30.928189222590625     -14.355787536230542
  3604   1      34.984628606060532      16.849828377493445      40.001262906244001
  3605   1      4.6562230933851314      13.522320908873237     -22.010548961100266
  3606   1      16.643531196413306      52.821786567539498      8.0937841132337152
  3607   1      20.096034440306813      22.645546678946019      13.656257885880009
  3608   1      28.117898800523704      59.027861073308223      25.826847916019823
  3609   1      15.334291580016899      53.363391188554935      37.586784917877829
  3610   1      9.9545737316720135      11.658194348656508      18.402925675699411
  3611   1      8.1356344832795795      3.2222367475531994      14.711468701850672
  3612   1      44.289480534554741      5.8667673832869118      3.5207442006965559
  3613   1      8.0190092449201487      11.321365589587279     -14.440652618257747
  3614   1      17.570064478717445     -29.106210586192063      44.894331898277649
  3615   1      20.026213848692901      11.449029625542501      45.300307217011365
  3616   1      32.777989851125717      34.449547666356899      24.220033051557337
  3617   1      -4.940471175380436      28.769255275742555     -19.617355277778326
  3618   1      39.315407914338607     -19.729159140852524      36.358405380967319
  3619   1      56.569295830411505     0.78461362269039325       46.15132439802202
  3620   1      59.738071474975861       13.49272159485098      41.362269243855224
  3621   1      8.5948670363130972      1.2210074861067564      8.5086108689819451
  3622   1       19.71759050403924     -29.989889702825085       47.39558001103557
  3623   1      21.398962509749285      1.6487345099260533       61.64681365309454
  3624   1      39.479941675953029      39.291881762075249      32.341022192304642
  3625   1     -2.0937615633881346      3.8051463390097169      13.272640639125338
  3626   1      55.578284106876737      28.610667425150602      18.224415231695687
  3627   1      16.760319786018794       8.531705123118611     -4.9438698647923935
  3628   1      14.770488631686076      8.1219833007810234      1.6925519093193822
  3629   1      4.8657898169986735      -1.829862057909581      33.566786140364307
  3630   1      31.294902199740136      17.759294069993224      33.752578053618436
  3631   1      9.8278910412423048       36.63948118228268      11.960120383818953
  3632   1      14.748031486966623     0.89619477723669594      48.070254277911111
  3633   1      18.633798449707218      19.607281761723101      41.567759086414576
  3634   1      31.868542508073613      16.264559953375937      41.405304969901373
  3635   1      30.127265933560643      9.1483396452676704      45.365071181008744
  3636   1       45.65155649766924      -3.747825737685083      11.873716359333464
  3637   1       40.52370652732133      45.277111436521629      28.104541262434509
  3638   1       13.44912003713476      11.466664519847043      48.041563720729648
  3639   1      42.945696650266981      17.414226049395321     0.73171791576830303
  3640   1      1.8991704908091043       22.63258099409769      19.036728217125884
  3641   1       65.08910416491841      44.076004429333906      29.713538848471384
  3642   1      25.439574323546523      37.828634162799794      35.469626126025361
  3643   1      43.295363709043372      13.676053489381331      57.204640130467233
  3644   1      25.014479165017391       2.546401395444831      51.411418737061418
  3645   1      49.402466885576708      36.656917915981388      43.381989486134664
  3646   1     -3.6246661832656852      15.426152297403005      20.984713673743205
  3647   1       36.08842882795792     -2.3421245177880827       42.87161755946223
  3648   1      29.459640503418644      34.326084287530023        54.4821720471191
  3649   1       51.31259186326632      16.992987691283258      32.299637548343192
  3650   1       2.355259286585667      33.887043462509112       13.46247123901111
  3651   1     -10.287279309745744      52.133201212893191      29.580484604821709
  3652   1      23.103489744245476      33.383781130220136      12.456966796346883
  3653   1     -1.0734059044308044      51.083543527025334       5.335563516697297
  3654   1      2.3231080910426272      56.944825785233945      46.991245157378223
  3655   1      47.204333592621481      2.2401938915115829     -11.173473689267713
  3656   1     -5.6834677137125196     -2.2181460693853263      51.521933748740032
  3657   1      26.131011415086483     -3.0315369291987158      53.369390037878894
  3658   1       40.03160177314728      10.257406774293363      1.4644097912200622
  3659   1      43.354953916826098      37.318916155425988      32.731300198647737
  3660   1      29.354867582989158      9.1081112279721612    -0.21078569350133355
  3661   1      29.066002943326218      3.9510836853055382      63.676001512376232
  3662   1      6.4916468884940546      34.416519304828924      14.335585920500083
  3663   1      23.749497429906306      57.529803472640516      39.325172149988347
  3664   1      35.701590857542904      11.079284834445394      20.794912581249065
  3665   1      60.534434207515417      21.762743414682731      29.149180445906985
  3666   1     -5.9378734763069261      13.816158209183328     -3.5413558527720141
  3667   1      33.530352298674281      19.200188443189134      29.666781866616446
  3668   1       31.39264435108954       42.03202267416431      13.572179813645436
  3669   1      1.6897723011983123      14.797546961279227      57.747330196217014
  3670   1      30.324004957317651      35.396199155761664      20.312412158752839
  3671   1      25.782233719722939       22.12112155488391      28.954342626467696
  3672   1    -0.27273173576579662       17.92651142814913      33.818338307832228
  3673   1      26.270878004523379      10.181035176876877      -12.72984803007223
  3674   1      52.839822401358141      25.809772459408798      33.657707042682304
  3675   1      26.746539861489225      4.4644923888735759       61.62568040188868
  3676   1      16.437437860704485      31.971835561262775      9.3725668098968828
  3677   1      4.1866945562258664      20.068833397512975      21.943062123938478
  3678   1     -3.6075107564236091      37.872786654468811      21.719838686077537
  3679   1      56.580682516666585      48.597260396566391      13.432092897706958
  3680   1      49.212104432400793      8.5828057279790162      25.421999748429961
  3681   1      26.630768042262027       26.36754135030893      13.863635297861753
  3682   1    -0.68786417514032872      44.855642177958146      8.8357105824731512
  3683   1      45.490545565672768      52.768615431356174       20.55770349943764
  3684   1      5.9760899869300026      0.3965910912645822      59.138438360868221
  3685   1      24.506324201683849      17.235681451601618      34.287940457615122
  3686   1      46.159952674847887      21.859778900578942      42.653345388947194
  3687   1       17.70344982439374      7.7026914824785635      17.282277298895149
  3688   1     -4.8829741470415504      33.063423945830777      -21.31641298516687
  3689   1      30.879517828849231      1.9656684279560546       25.60608854976315
  3690   1      9.7861882381765177      10.035202042542242      11.806051172697666
  3691   1      24.385344379643453      56.207682643769957      13.371214608080189
  3692   1      25.358978672371205     -4.2160671989604515     -9.3934827577146773
  3693   1      -2.532514905388517      17.963250404220066     -8.1098404362659551
  3694   1      21.269941097975639      1.9849979730735954       32.05405741569021
  3695   1      25.090635682667855      3.5837493511766594      32.809502901445939
  3696   1      12.918357930295496      26.205683450858086      27.284804970610235
  3697   1      53.662082206546479      13.636298494824022     -8.3090800514891452
  3698   1      19.620568471575297      38.719123387719549      20.594288697382481
  3699   1      6.2040288575563967       18.07695432727116     -3.9769698935952635
  3700   1      16.288473174409404      43.505059687689076       33.92549222754981
  3701   1      48.878075915753691      38.267745273371069      23.842428557901062
  3702   1      23.332731020026038      33.309132395904811      35.022711096119757
  3703   1      36.807723852994101     -21.927238713468473      37.640837596338976
  3704   1      35.005345533637829      54.084664243970622      4.4646074510538458
  3705   1      8.9170786376835025      14.407999848461632      31.289835145460085
  3706   1      7.9056144774118113       31.49332147880693      60.579907670594785
  3707   1      16.532464013807271      16.609409883970891      44.588436925872124
  3708   1      35.109744251063304      33.021802106579642      8.9760221460850804
  3709   1      19.980452302960483     -3.9156408577312374     -3.2248332989618178
  3710   1      16.023646070901055     -15.159247188760366      2.4365892849979525
  3711   1      30.525571491959312      9.9372233146815816      52.077564415197486
  3712   1      36.613856039018572      -20.81363303511878      34.552581672192105
  3713   1      10.925870869252934      6.3749551414193055      49.945410129345625
  3714   1      24.509388225827788      25.387430267023131      2.0932440807346353
  3715   1      35.076277350529764      36.924388172297242      14.426702603868458
  3716   1      4.1485168350629822      24.242382930856927      22.167232448613635
  3717   1      26.588191237678821      40.838458899020829      45.093914008340732
  3718   1      4.5752922044197719      33.499039484044289      48.129380853292496
  3719   1      10.510889946545872       29.03844314155436      38.612772539538724
  3720   1       30.93543451882152      20.279848726368758      1.9315244364427704
  3721   1       11.36457488497474     -20.237656749093205      35.445781399017449
  3722   1      33.983043241187595      53.853394422184351      25.639704087428683
  3723   1      36.157275235554295      22.823300768071437      17.585033556467149
  3724   1      23.453147894745605      1.2432361810729269    -0.14108544534809184
  3725   1      53.022269640942753      61.302759662466123      14.816122836191385
  3726   1      15.778929348757833     -1.1604486337214857      24.344161075845676
  3727   1      37.817019533085116      52.458605995557384      60.892330586973827
  3728   1      5.9249936069777887      17.881774752301531     -20.393140831790134
  3729   1     -3.3926347256878522       28.59464361425751      9.4931901812485329
  3730   1      6.7970535170341613      -2.443038720113206      15.759589214483743
  3731   1      18.842464997309385      15.246630524384887      38.656385261946696
  3732   1      48.226071250794355     -10.941108853343668     -29.470647430089194
  3733   1      52.840917534138967      28.411512057249457      51.694611353449375
  3734   1       28.85514634782221      24.447456121531392       3.712594989856624
  3735   1      48.264322930810337      1.6527627885803777    -0.35302577476536307
  3736   1      43.662884403821536      14.834778476930095     -18.599445151271585
  3737   1      40.539676678976981      47.995416763631731      23.426597071818421
  3738   1      36.493527625397803      32.374174936869771      36.060708337301769
  3739   1      31.549526519750628      42.100107717717009      27.707289527469086
  3740   1       23.47856646652987     -4.6164016743354992      45.771810433061404
  3741   1      36.136112025719463      9.7714676859308973      41.266751023511503
  3742   1      8.7992792037426319      43.443018695360173      13.418729253011326
  3743   1      4.2428149637332258      35.180892502961207      -7.034924423705978
  3744   1     -8.8042333838234601      38.966395659306528    -0.66603827979307983
  3745   1      13.775469222753314      38.269048084439738      38.764363491713176
  3746   1      54.227466300002135      7.1870356612959423      26.279664212640956
  3747   1     -13.746874302388225      45.543236914112704      22.464210660717509
  3748   1      50.308943119741379     -6.7476011029461134      28.903467486103732
  3749   1      7.6200417753422283      31.582621196674346      56.973235977570646
  3750   1     -13.217703884030964      64.366907584002178      15.896554909184681
  3751   1      12.388172852186575      38.910667176533657     -19.530747233063135
  3752   1      53.625763522048231      34.420450449318736      44.977280534857663
  3753   1      41.607312607386135      33.360605470172167      23.657539463309686
  3754   1      39.933363139893984      15.856370697330117      47.224163212945733
  3755   1      42.015517283084577     -9.0992219217693577      10.849719569969267
  3756   1      15.189515279444745      2.7366332930114741      24.577147843439199
  3757   1      2.7163132670844696     -7.4065222092143594      46.580000333801806
  3758   1      23.621750953992212      11.322551910215651      27.617087553714597
  3759   1      26.793764704513336     -11.993125083733609      39.264917337447677
  3760   1      40.613643304933831      54.716346623152809      45.179100669808371
  3761   1      10.026957305506373      18.537389648574244      8.3195565666436817
  3762   1      8.9744635396560781      47.385740644779496      54.284536420304633
  3763   1      3.6779116001485996      21.544915559002092      1.4969930271423002
  3764   1      2.8408373878976998      35.957663249091937      59.317559079901471
  3765   1      51.614364110587722      17.999879040526654      15.107544814481949
  3766   1      15.760379692845504      28.452371708359607      15.296890103007184
  3767   1      55.715295475269734      66.932092391361422      17.968615556333319
  3768   1       51.75143042812838      32.495444824220876      51.291373595774594
  3769   1      29.363029869903016      62.308920474436576      19.157540772235098
  3770   1      3.3365122362517909      34.787397492757634      32.885228718934393
  3771   1      10.529618899086307      35.067612337406018      37.423766010405529
  3772   1      36.354192861257111      25.143286253964821      19.830648681052757
  3773   1       12.91075444178278      17.571404867124549       45.58890432045154
  3774   1      17.628966149012879      10.829680045458556      30.009541188007486
  3775   1      13.989653558244704     -9.7659310915330941      24.942114570938131
  3776   1     -6.1623652278454175      55.435781435206877        7.00770570443966
  3777   1      34.411896595862018      8.5372604711539033      28.141053501152729
  3778   1      18.446672762219137      25.524296099864777       13.67244067494223
  3779   1      40.424416540864414      22.315200817263129      36.295839843614935
  3780   1      6.4196378623916015     -3.6984519267281204       38.13772708444786
  3781   1     -8.8671498368457637      1.4746917937283843      13.320685723477101
  3782   1      37.200624058167193      2.1480151789372535     -24.703368119604885
  3783   1      35.824902068707082      21.090046231142864      23.656324386760186
  3784   1      19.709537719922572      51.294024327628463      10.366331106320981
  3785   1      24.508135735224929      25.992134877310427      45.079264610157871
  3786   1      25.976383755968197       38.47111854149653      42.748780557776684
  3787   1      21.052616695994598      7.5853856651922928      35.631684555311658
  3788   1      24.676624602049316      23.158189068049062     -16.827358951956768
  3789   1      31.092707571376881      11.298503689765495      24.156644049389179
  3790   1       28.48435123527338      11.577756250961988      43.900224172664196
  3791   1      30.359752283144488       14.60586030026279     -12.646734632426792
  3792   1      17.046916960279702      44.926766480279987      58.201758728304434
  3793   1      38.061713492309536      15.309098394796894      4.9028611326430047
  3794   1       42.59538939575571      46.643797314098506      17.736898317691885
  3795   1      20.593549153185442      59.628497971353141      10.307533584067004
  3796   1      7.8754874519780893      30.479950547639692      15.378322872956375
  3797   1      19.203501960218233      2.2735040458250384      6.6402229285739507
  3798   1      16.059178618554213      50.768269181350362      34.610739717207871
  3799   1      20.285764142027595      25.907970954998813      8.5734610341027633
  3800   1      7.9303810487429809      35.524468164403601      22.157822304130082
  3801   1       62.63221301439264       32.67049174381782       24.14758061333179
  3802   1      16.321373899612556      14.417011819806778      14.990776841906591
  3803   1      29.574845328199224     -2.0404772080204117      15.727446256446781
  3804   1      26.380246222927745      12.419141597092315      19.765686320821899
  3805   1      -13.63923819943493       -2.54168884828329      34.006969260268903
  3806   1      16.028913083362987      41.758407995293489      21.647558823363365
  3807   1      43.980731197436199      48.109158743136739      25.751471280472519
  3808   1     -18.315261983181454      2.2033881790371219      8.8346273033828968
  3809   1      3.2687690943887855      36.672316051975429      53.497985073446536
  3810   1      41.541943265061484       17.88359927630739      17.615625204054716
  3811   1      32.446340626034029     -11.215357362217537      35.537265696004532
  3812   1     -2.0437770450765327      26.722770089776752      1.4098843537802057
  3813   1       11.02390284938371      28.865950641171214      45.731842653289412
  3814   1      42.270192606002375      24.603935847370941      24.868942537128053
  3815   1     -27.410077178988825      4.6311392732687571      62.771608030507196
  3816   1     -9.2611275936094621      26.763528399213744      51.283374565231057
  3817   1      56.360440537806532        8.07803791357337      62.046969757940076
  3818   1      14.081056243531918     0.66396538538900607      26.668364214459125
  3819   1      31.504553858196445      74.349801054171905      39.486980126163282
  3820   1      52.012284978688363    -0.54439432629030171      41.450165772166898
  3821   1       28.59034321338212      12.873219593298931      29.627040597814609
  3822   1      47.805798510725268      6.3138765084473301     -8.1347136850530148
  3823   1       40.61540369430454     -5.5772328008690799       50.82047544137788
  3824   1      38.073902348457878      3.6283663959034245      5.0835930487374092
  3825   1      13.450431588210762      18.690012034955153      21.402567575077079
  3826   1      23.696051096974671      23.630188092301513      17.630490466921923
  3827   1      11.545100887493076      14.967011910828361      28.718850330122695
  3828   1       43.91514003533657      48.456942505677041      29.439918191234327
  3829   1     -7.1979765876878803      26.290663897736618     -7.9590644978359952
  3830   1      15.470047699480451      20.819968759914559      55.975859453318655
  3831   1      49.528461348283187      52.105431954948948      2.4640467030151809
  3832   1      7.8619389430852511       42.60578771767463      18.016703603776353
  3833   1      15.414100164100956      33.193123535785979       28.12148467646092
  3834   1      22.006484617432093      7.2585232290021802      8.2813073042726604
  3835   1      27.968128790811495      46.043738084026828     -8.0968090534633941
  3836   1     -17.192156749969051      27.978472281185908      2.9507614033930656
  3837   1      32.541237115349936      47.291392516074922       24.47668160127099
  3838   1      35.368846077257523      23.325141207361582       31.17100439764782
  3839   1     -5.8249295692501093      50.165300996134619      7.6739666188614484
  3840   1      30.704496576619256      8.0132314955750061      25.177521211079192
  3841   1      48.564463009718409      10.185618557020424      22.702104524769798
  3842   1      45.939691418695503    -0.75253518072337866       3.765786346386939
  3843   1      20.000084231299279     0.70534691694835239      34.799182567828659
  3844   1       23.72670910289759      49.598733104726037      17.636855417780481
  3845   1     -6.1206474417820003      56.984369768457981      42.394923404442764
  3846   1      35.547313551888053      30.580783615850667     0.28407462190158522
  3847   1      10.603605531602295      15.512265364506732     -1.7104341802849636
  3848   1      26.379642161739259      11.585639203119086      11.974356762698912
  3849   1      7.5980170794898596      4.1771364401681952      28.560295013181719
  3850   1      23.041528208478184      60.665877482497358      4.3126942595363742
  3851   1      15.189390621702653      56.771585398848941      34.278625695811307
  3852   1      19.251903973448577     -5.1233159622840212      23.208799487737583
  3853   1      38.381948926215472      17.603407563178518      21.649519130074001
  3854   1      37.220198913214581      34.637799986447817      33.447248793387075
  3855   1      45.230664718832266      15.908283969167289       11.63005197139403
  3856   1      8.4299156736486811      46.124418254976575      2.0596784953721796
  3857   1      5.8447482005626004     -0.6287401677458101      7.4234423641318283
  3858   1      8.0572111572157521      23.073441946226893      14.974666936168976
  3859   1      20.867128508679873      8.0379688817983546     -2.5192024119848551
  3860   1       19.76483825475713      49.724139844661828      26.098144461777629
  3861   1      31.984256598039948      1.7967273117703941        15.7114869146583
  3862   1      36.384051111951919       5.990209831239258      39.819411664148106
  3863   1      15.909066461164553      28.655197837096271      11.860950172166538
  3864   1      26.044098993943905      40.232894664418986      22.987979191045827
  3865   1      13.859470723712153      4.1473506045849229      27.257863854523638
  3866   1       59.60515359332669      28.691513181754768     -6.5218807069859048
  3867   1      7.3084495928853306      9.6647118467933453      21.360268015501145
  3868   1     -8.1137122664215333      47.113364642984372      47.725603528277077
  3869   1        41.9608831708262      5.8123610123108707      13.961168063963974
  3870   1      8.1736776301265852     -6.7499224378963136      5.0091741557307712
  3871   1      48.084276486709662      54.571541427457674      6.4044972286754964
  3872   1      53.496549417565916      30.605435928513284      32.473905319989605
  3873   1      14.487291738096042      35.208368809726004      48.765519019619127
  3874   1      26.368166032402836      33.438214599549688      50.297748589912793
  3875   1       24.67339508602582      42.502905683166794      12.384104345772851
  3876   1      52.848408080555366      11.896559789949096      22.548916307021607
  3877   1      46.174931844787771      20.418372930013877       15.72061427324989
  3878   1       4.022956550252009      17.093914481153913      8.3597791396196133
  3879   1       12.81763966229598      35.121434173423836      45.200911475253648
  3880   1      8.4739104550116142      47.247429272644609      33.272029494043451
  3881   1      16.534926596134966      47.262817933764005      28.748084298763267
  3882   1       3.546861114731485     -2.4258050266757714      36.796354784837625
  3883   1      34.907601070478087      30.447577936966564      33.106367941640187
  3884   1      25.020850750279966      30.349495663593025      42.209502622986555
  3885   1      1.1260151639739759      3.8098264484404911      12.224380936079328
  3886   1      11.717904931926178      20.714437374460147      34.275127825254245
  3887   1       23.18932264886509       8.566886063522869      20.593833625194645
  3888   1     -3.6375425197005664      40.449110025384357      10.950621729267242
  3889   1      21.880542366130616      38.224284803021753       14.14645183149705
  3890   1      24.376970042231072     -3.3952395088664513      8.7406151593662571
  3891   1      19.420877675825235      6.2068460792018376       6.397340486555267
  3892   1      43.742195112377814      24.347329295413871      42.430267033473449
  3893   1      23.223436665418866      34.990954377603252      46.296718514333413
  3894   1     -1.4818549271863706      26.038466038209844      20.280806778820899
  3895   1      10.434448004951346      26.875904471418441      12.622477199828293
  3896   1      59.023382866382391      24.439067535752081      24.898887226178505
  3897   1     -11.926224793489638      27.900883363527974      10.518846135761683
  3898   1      47.740665027814487       46.92242434539893      46.326066865880954
  3899   1      39.456227048561139      18.856538091287405      36.108645170629075
  3900   1     -8.5652034574601821       11.98718528888709      10.866228661854604
  3901   1      14.836898005625935      29.348787270729197      32.809657661507529
  3902   1      9.0161416722505159      38.718546087262233      27.366149118067625
  3903   1     -0.2602165289072475      40.106534609993624      3.5262049246636002
  3904   1      18.343933460766578      46.324125269172065      26.086758689664897
  3905   1      10.519100192110127      17.123955951859539      32.215128989412143
  3906   1      32.101944246611964      27.532703512733693      9.9166829052034871
  3907   1      35.534099384608353      21.040937978728515       50.23829930322043
  3908   1      5.1889854544483223      40.127679068083616      53.101825227448145
  3909   1     0.52713953810228642     -3.1453298896823099      35.157321419843541
  3910   1     -2.8459441851230212      37.724388181559981      12.675997062778885
  3911   1      10.042426454069219     -6.4730481682316805      38.117007353251076
  3912   1      34.033476735135963      9.1665840748054173      9.4932278195205342
  3913   1      30.081980830175318       39.98470984574287      31.247063693302923
  3914   1      10.390250545197237      35.843789175663126      56.648297188734787
  3915   1     -8.1489984995055149      57.955118013360448      7.4256969498782563
  3916   1       28.04724395626496    -0.27968323092358716      18.314448475840496
  3917   1      27.968458790618993      39.591382536954683     0.42595408489155256
  3918   1     -4.6068988332398106      28.960523186513591     -5.0705962226274126
  3919   1      19.806482164467674     -9.2065939914204211     -9.9002760682887363
  3920   1      54.637381254449544      21.606878997067028      33.076638825351026
  3921   1      24.474034888555359      49.336574960171561      5.5062817285268491
  3922   1      37.750174939949225      30.763749856627225      12.775976683594596
  3923   1     -6.0398768590345426      18.016036897601108       25.33797257136418
  3924   1      21.260460411670834      16.349755910409211      36.023707582024883
  3925   1      27.239084523695155      57.940633190861817      21.750043760252829
  3926   1      39.657326530001541      6.8100262584722628      48.086975363633378
  3927   1      12.020515222434224      2.7311471118565538     -11.923571733843898
  3928   1      5.7513517006070627      27.892912738402959      21.450800855498482
  3929   1        39.7158044338316      1.4750870061373647      18.265854487472538
  3930   1      17.675360859576152       29.72534897700341      18.136473720640659
  3931   1      7.2581645504363523     -11.148396160084729      33.800842505289495
  3932   1      32.402412155665438       1.772685708518279      44.662418977255903
  3933   1      15.020374667783932      6.2775927097513131      10.441864354894438
  3934   1      18.063696486072043      19.848836069719024      63.569800902019168
  3935   1      5.0465362965436453      28.919331722510183      40.198567091266177
  3936   1      29.695075912089205      21.259247107772406      34.717688493942021
  3937   1      43.444322601114393      31.827962845525111      3.2390304704294994
  3938   1      23.759675557138102      41.917941044142026      36.768667823751088
  3939   1      16.579160386114609      30.689787618161237      24.336238209098862
  3940   1     -12.005877690979201      39.582811549690817      1.0079422203050321
  3941   1      7.6050406868376959      37.647552190129034      8.9866381205572985
  3942   1      31.770718742080135     -1.6293751612251495      11.332599858293714
  3943   1       34.31987897435102      46.748931873825889      63.081289302081537
  3944   1      36.360041039863084      38.596586074723888      31.690433522679221
  3945   1      45.997992821409326      5.7422622556657057        43.4180245266827
  3946   1      51.862307832163651      35.769134180944519      50.228749164874202
  3947   1       24.99487398321072      2.6311705927415274      28.824394207796136
  3948   1      19.744496312010028     -5.1866104207420873      10.795027169981354
  3949   1      19.412463765665112      22.830675126307582     -7.9168979330683715
  3950   1     -10.871932793746456      64.778317058904349      49.750985799883019
  3951   1      7.0659248820741896     -4.1657553914847583    -0.92236837626429669
  3952   1      9.1419520384779496      3.3008125147383347      18.369166763401076
  3953   1      45.734753599431443      15.867499414626288      26.395110864309515
  3954   1      11.819688384076755      15.404544061014063      35.037124268663582
  3955   1      36.472293738796033     -8.4690914575141552      12.915930061113468
  3956   1      34.545149720786334      38.066577709995805      27.961554936194755
  3957   1      43.161345419332669          34.94019139676      30.365451235342512
  3958   1      4.2308355922037704      4.4647257047319515      28.093220562973102
  3959   1      38.382504457733511      21.088431479350728      16.016540916679055
  3960   1      14.732367625984631      7.8359396602266154      37.641254769869015
  3961   1      29.047122156233318      36.476963668411074      32.730962619205904
  3962   1      21.793769150896338       21.21599297100364       19.79467989908369
  3963   1      30.687738618220262     -9.1717597026057476       58.14863271244689
  3964   1      6.4228597091518091      3.8179957493023826       9.105580016896802
  3965   1      35.779396220697116      31.502997642666056      29.921660464928845
  3966   1      38.094901272234502       23.63156082771528      25.166044484169522
  3967   1      59.500018623167414      20.824445015776988      16.539934035901918
  3968   1      19.623251833713269     -8.9230183247762103      11.449754485455005
  3969   1        10.4793307288652      25.434950107427014       37.56475218948659
  3970   1      43.466654839612517      35.969238909324339      36.444649512848848
  3971   1       6.066756655871635      53.816957975546934     -6.2572659759979112
  3972   1      28.474195282732804      25.924726746511926      28.974579478836159
  3973   1       35.58493930594107      17.655776822252925      5.2738053376215737
  3974   1      38.495962058753911     -8.7069329827622841     -11.362938672374941
  3975   1      31.713277752323563      20.234831816478785      23.760979311231445
  3976   1      45.268759339036862      23.350896505023041      24.007600345583125
  3977   1      45.577093253324023      13.245128016261674      23.264630193037977
  3978   1      13.968918048291618      37.637006101589179      42.793878358821068
  3979   1      19.278751638032642      19.532211589611659      21.192779246425768
  3980   1      41.269019992663722      26.598112635676074      14.927277707258655
  3981   1     -6.3468771016745453      27.712843607320131      21.093242843428417
  3982   1      38.184507187426398      22.893508493821287     -10.493674277195957
  3983   1      27.878093579790036      11.933445145103919      7.3000464177036841
  3984   1      55.527952371246151      34.165918276097337      33.397161910646084
  3985   1      49.054160866552444      47.736873044460083      17.016799198933207
  3986   1       26.76977650520265      33.772869001814129      20.767654986382855
  3987   1    -0.88965645710395702      34.478789738412644      49.808285604200108
  3988   1      32.734806825683485      27.243706704329078      47.638508414045695
  3989   1      8.9425790364060536       1.140605106266835      51.490981219029898
  3990   1      14.085302308061213      50.724080901425573      39.492687335083403
  3991   1      4.7454120573471084      14.951022962409935      29.830139361962843
  3992   1      21.881880075658991      24.620371300498224     -17.986353531832439
  3993   1      29.253954572787986      14.292045561823869      8.9077761368291419
  3994   1      3.9115909825502992     -3.9836625148598972      9.4798172279254143
  3995   1      22.741292871683239      13.563532020278892      21.672834481806024
  3996   1      14.960356646248259      37.888319879860241      34.109458367381364
  3997   1      43.556690792656376      47.808007269472668       60.39800713289187
  3998   1      45.713001003361519      11.111696623033424     -14.731423132158028
  3999   1      26.566919829261298      41.683204806661365      9.6707337715393233
  4000   1      37.468887408728278      44.533928199375879      27.433581686842363
  4001   1      11.185680681669355     -13.029553525119747      25.703065425301507
  4002   1      14.083495272902201      21.063401040826545      32.334331189668823
  4003   1      26.853951776665443      21.774135285121645      2.2157543217960884
  4004   1       28.32592329337507       35.85378284356117      16.855433849273975
