(written by ASE)

4004 atoms
4 atom types

0.0      48.780000000000001  xlo xhi
0.0      48.780000000000001  ylo yhi
0.0      48.780000000000001  zlo zhi

Atoms # atomic

     1   2      44.769270217282568      46.829381592549872      19.029448444491152
     2   2       41.26451396003381      21.444628280481442      20.954689984892468
     3   2      27.039203012120463      52.309029191775835      25.856425387297424
     4   2      7.1014188416514505       27.34396811837976      27.967136926664175
     5   2      38.201688697182291      41.879456251449199      22.126636904265727
     6   2       31.43279756576985      22.532711093980211      18.001667068442185
     7   2      16.047646780300017      24.755403376318689      15.218071223979813
     8   2      17.628603905325381      18.979941631250778      15.088730683154003
     9   2      45.040282779431713      31.138929302391844     -9.9267309291956529
    10   2      4.6001622460233129      29.490736589281333      44.551228530196802
    11   2      25.056821740079055     -1.4552319058852625      29.012685140989412
    12   2      13.584660182712431      23.441802525945612        9.38004890839143
    13   2      30.868507969739614      21.943424585545369       14.33290321516197
    14   2      27.901155473200369      37.114870040451258      38.425154726962049
    15   2       37.44963230240505      4.0957274003740549      5.1256350882475905
    16   2        2.21518755078373      5.7461482519689611     -1.4939144671715023
    17   2      7.9381400240680691     0.86466692498460951      8.1556027649321852
    18   2      3.2594272034444995      14.798646519939151      12.822314647952172
    19   2       29.94253569210883      11.110901790890148      16.407405887863906
    20   2      9.9772699154693338      29.386751245406263      21.822686299785772
    21   2      46.181107276661855      34.535043733720023      16.590053707789728
    22   2      9.4810325729975933      28.057386223765938      48.016470010596805
    23   2      10.705635094681092      7.4930062201646104      48.615855332717828
    24   2       21.12505999698152       4.165529397817318      13.782369062376493
    25   2      17.135267913285816      14.648871362555127      41.889870568522433
    26   2       13.51835926179039      39.175417263402963      14.579046176682077
    27   2      9.5170070114756662      28.709558511575835       13.72840531807107
    28   2     -2.5227380110217434      4.2236908843408569      10.917017051268608
    29   2      22.727804314657185      11.060769984375359      21.282848888454897
    30   2      7.8978783934359598      36.726709147637564      12.351261722833831
    31   2      17.644795597136284      39.831756427552726      13.889443758953556
    32   2      44.229291045820112      3.1585378222289626      37.608530000056589
    33   2       19.69961333670496      10.726493354958691      33.640161097464215
    34   2      8.5892658163219728       13.80282929670579      18.744496488597289
    35   2       14.76617917259192      28.644138427734049      27.035487157386552
    36   2      7.3148053359565912       43.56504901110052      15.577149502453457
    37   2      27.975525862529761      42.547411041299135       6.173358783938597
    38   2      45.916185433843424      20.638349642791546      50.470677550403437
    39   2      13.132459277993394        4.33807810777299      3.4907334637994025
    40   2      31.713272896031143    -0.69050799365833515      19.299298699578809
    41   2      49.036580681786816      15.777555505891661      30.817787089591057
    42   2       36.83728179664822      47.871369669399336      37.998363945101282
    43   2      41.730252747481302      3.1879822805876401      8.8221752718852784
    44   2      46.055203968949314      8.7973303230849851       12.35030293379708
    45   2       33.87234633333572      42.345576346565238      5.6308810843393866
    46   2      23.970884216193948      31.781968590140984      45.750031421847098
    47   2      8.0233051967936504      23.709186868726157      23.949431317624054
    48   2      11.169976946015476      44.441553689325957      28.493559738835039
    49   2       14.92394306513056      43.614938123811996      4.0103929367810123
    50   2      12.372181785047363       48.02683605671141       52.35558357740905
    51   2      31.974316605204432      4.7173737354381471      32.017168210631127
    52   2      33.507058975570857      38.805687847454067      7.4878297753720835
    53   2      41.898852091069692      34.513325402863003     -5.1664870630241602
    54   2      -2.669876870996958      19.091549759591409      7.1315810343856638
    55   2        26.5911411297878      18.048648168458804       37.07891039769747
    56   2    0.013143688807638169      27.794462066457346      40.137006271446289
    57   2      7.3476954260693024      3.5439013957225134      33.946781120291519
    58   2      35.085176106122823      19.885876870481933      22.541502899834502
    59   2      22.745554609317345      18.996145039406606      30.256036999808646
    60   2      18.129356147183742      42.073003321812074      1.9319442140529295
    61   2       12.84973329220901      16.823496254756229      1.3492034954218541
    62   2      57.001524708130368      29.204990920758885      44.490141571760418
    63   2      14.268629328495676      24.159458097539783      4.6629179008042394
    64   2       22.02219433361504      6.0533221370011709      43.337992784674633
    65   2      10.610589950235461      20.162129396718058      9.4664273789089339
    66   2      21.010980461718731      26.272767183424872      35.233968532067678
    67   2      54.275122133292669      29.407137140955413      35.161584483347092
    68   2      37.334814220553014      11.354342937529927      13.430022458026674
    69   2      46.084697060232259      21.439617107617046      18.334704620978254
    70   2      5.0322899076040448      31.086828766813817      17.675541804360002
    71   2      24.706867915508923      33.065438145914612       40.29923920223024
    72   2      18.202916321244462      24.901089026941889      52.073434797366374
    73   2      19.012834939227769       25.55380334756682      19.575073424844774
    74   2      34.917265713807431      25.511789013263119      37.174066198467351
    75   2      30.829982260019534      17.928448363391748      20.579576129406167
    76   2      14.246732476646232      8.9607808750696947      9.2141780888870475
    77   2      49.078910550807102      13.256300788259367    -0.44774653289971983
    78   2      50.298909047663031      14.046541568729134      39.419030562022911
    79   2      28.976715587529647      30.321831486457853      6.1918788017235906
    80   2      25.527424363417314      48.137932671745226      20.959932705573486
    81   2      37.572992046165446      28.765820381798701      2.2071972970892078
    82   2      22.584792357769444      16.563248093230509      27.662578023773122
    83   2      41.913230237969977        8.80687076616905      26.117676918654016
    84   2      27.753838165420365      4.2297164782549048      41.964722017144673
    85   2      39.740883543055574      19.876625348977903     -3.3542453351736841
    86   2      43.141628196580001      23.614074036490287      25.323479709885131
    87   2      9.7740158270606656      36.292086113103437      46.174285099790886
    88   2      11.825930255727204      18.575225226875943      13.584705622938673
    89   2      11.103653003771802     -2.7871601389653242      14.371788980179947
    90   2      30.493599523938212      55.022835420844281      36.243378618758662
    91   2     -6.2245109755770152      22.132051911784412      53.145779464516927
    92   2      35.916295688507816      43.056895472143047      14.630727555877844
    93   2      12.992142893612849      37.837997353270772       47.09999208086991
    94   2      54.734631178754952      8.2461353893560929       23.73571222095109
    95   2      4.9891613156538046      1.1807425147680717      27.180589027758131
    96   2      10.232280844196668      24.429174843446596      31.480476957192565
    97   2      47.080244413520091      36.284453526163944      28.614868723542493
    98   2      43.829870179393325      24.849049304494169     0.33937756203801472
    99   2      8.3016475012682918      6.9962145186898628      37.016790630540314
   100   2      13.680551275914489      49.599093600128903      10.211060221597521
   101   2        26.8576197794183      36.654157155684615      16.798064082146297
   102   2       12.19939071546956      25.430709314159913      24.254269345929231
   103   2      38.443720611786688      45.827713708087934      34.422336174467141
   104   2    -0.28296687260258585      23.454237367580998      7.5197316461326302
   105   2      49.819762829556367      31.186450895747107      35.080719190893895
   106   2      19.826869901765136       26.54107308400943      41.287649581305459
   107   2      41.301132817420658      6.8916964378993741      36.593017424703241
   108   2      36.877680348116854     -4.6958024130484146      28.722197935640054
   109   2      23.597017021160127      42.628935860928017      22.890913519183549
   110   2       44.63310666917242      26.776475370151854      36.528734646127141
   111   2      33.281898266532352      15.230556407189436      16.934105995683648
   112   2      7.2805193993066215      21.593788267111783      1.0386978011097066
   113   2         22.892462848232      39.917486420768377      3.9807470207234052
   114   2      3.7859458619845254      44.639781790233386      18.857984907487129
   115   2       17.33936142353917      20.523469306008124      18.173154712674787
   116   2      3.0428334297097521      49.497988225705299      16.044892287613649
   117   2      24.036375532864092      43.254014211051199       4.979389234367626
   118   2      6.3807960175858929      14.104239619286009      24.685378728284281
   119   2      30.082670430398803      20.041192151598931      43.955455884587558
   120   2      11.617599872589896      9.8587668869344185      34.647311970918693
   121   2       4.450236414209396      5.6521290335910948      15.423009225836282
   122   2      30.709110027767103      21.193582309118149       35.31496336491481
   123   2      3.9245211794380404      5.3795072679749918      37.354924832599927
   124   2      10.808510677036377      13.317580059983106      42.412991503565614
   125   2      24.209696892133078      21.136442664047529      35.111839451476193
   126   2      37.185582790845935      1.0497983056599174        46.6669306923812
   127   2      10.130352696407462      40.259502946114445      18.259949164424189
   128   2      10.886344436053021      33.982770564742111      30.846526341698006
   129   2     0.84599255909338089      45.965608532092013      2.1548168387651527
   130   2      20.251844619727478       47.08364896832439      4.5684615214225017
   131   2      28.096754994963778      42.848754105252738      47.118327354807079
   132   2       43.78274264490144      28.884171160384629      28.865506287764333
   133   2      41.146724999631758       37.43520339322739      24.204847419291728
   134   2      30.608518762946456       46.25327235712038      47.434520203784039
   135   2     -2.9184453074433421      11.360229851464021      26.656688489234895
   136   2      44.424238548638847      15.336715449576966      4.4854654723449361
   137   2      3.5443803344610343      8.9837318132220414    -0.84249949918538947
   138   2      26.925627853200314      16.076176115690192     -4.4716232621372178
   139   2      7.8438302604177519      26.214543464045548      42.330251576627369
   140   2       20.71473674493922      25.275771919014382      13.451575470743304
   141   2      19.770760160378799       27.55463810340504      26.238111042279176
   142   2      28.941903467860609       8.905836401211582      40.787106354262114
   143   2      20.957944653556524      31.542724280968869       42.55538361283984
   144   2      19.546833421724777      10.773514355040037      14.801853662872269
   145   2      20.614761769357024      33.722036785157606      29.929562731469638
   146   2      39.117214617796435      24.140102365884704      9.5486558839367568
   147   2      4.4850254383917161      10.929798448904819      27.624068399893712
   148   2      33.702489354008883        45.0638625814411      11.494425512990182
   149   2      20.109250805789816      7.3504778554298902      9.3524477535113011
   150   2      36.821422566942267      9.0342653306578704       18.33182668068255
   151   2      20.459704131075242      1.3223244710011137      36.639725642629394
   152   2      23.154544283686402      20.621667182595967      12.841122898978437
   153   2      32.833837997639968       3.048258633259652      49.091371780728643
   154   2      13.543378769262722       17.92368164149762      30.046629219310891
   155   2       47.61384049542044      45.164402361414375      9.0259652243356001
   156   2      11.874608495359764      27.039012021780582      6.3765643786649822
   157   2      26.854090085238905      30.477455895879615      2.3860245561200366
   158   2      32.334161782234553       15.48133864138498      23.683735814197675
   159   2      42.486757181625364      32.809974611508231      31.575652773529622
   160   2      4.6168070584633707      37.962325800343493      29.168990496644838
   161   2      23.910170258447081      29.146517804858803      8.8924860483633168
   162   2      27.403369382863037      24.782334605114773       9.436836328694719
   163   2      39.984613693155538      15.611129910565783      6.4830161114357461
   164   2      23.013246356905697      51.159625632816336      10.262155153767589
   165   2      31.683367295070482      35.500269093680359      19.253514782460869
   166   2       28.19431046278266      25.045336020169291       20.25151320709541
   167   2       33.48702217075504      27.925296608759002      5.5382984947003902
   168   2      5.4146030197341197      41.686438538665634     -2.6896482614557362
   169   2      36.568248278524813      3.9569865510253042       12.46783756316772
   170   2      42.948203964618195       4.811204164838017      3.7765123749888101
   171   2      12.593116560067889      14.553557415577854      38.325677612993005
   172   2      27.661940145899194      33.470489609618859        19.4573800993345
   173   2      28.330998687184071      38.228636841545381  -0.0062863189765322899
   174   2    -0.92448929592465823      21.969988889284718      35.680653140169554
   175   2      20.880518243137004      22.401244439848107      5.0250444770506144
   176   2      39.408654441537955      43.303473780417043      3.4258876326978336
   177   2       14.52163314565176      10.261112679869917      47.881123728110005
   178   2      15.056015133941113      34.752499417062864     0.44889095355293973
   179   2      14.239194774947995      27.013573636445027      31.675747689636445
   180   2      45.078145253793281      12.534947642820756      40.295657174053105
   181   2      3.0472409025650369      45.173504883039236     -3.1263983901200945
   182   2      38.656286916620147      30.247488815428774      9.6123751819190826
   183   2     -4.8128339954204362      7.7677025686977021      6.0732515998447916
   184   2      6.4621822894870702      34.042085163348716      43.039419986907376
   185   2      17.593573877340713      16.768459497882429      23.365272498428894
   186   2      30.136064275505767      32.672874619647075      22.794768589924082
   187   2      38.855502599242406       15.15088308693057      32.317605814857998
   188   2      26.183896474419104      41.180452825492203      37.729451592709637
   189   2      46.612376204170943      6.6816095424469077      25.277463769896755
   190   2      29.345094649231051      44.539181346365609      43.581588893035367
   191   2      39.574882639989475      46.267797809694947      17.164633596283206
   192   2      12.539292856630547      45.308222323186293      8.3273753802843746
   193   2    -0.84721059994041403      10.823097542245321      37.302492620108666
   194   2      31.037648147936718      18.603856172854034      16.380608204955376
   195   2      12.476903105376447      13.155805496780008      30.366054351767573
   196   2      48.561090069893922      10.857774352305897      45.299985273478427
   197   2       15.83272244443714      3.5743273863716132      7.5796293360343654
   198   2      5.3978007103394692      16.057012024617105      20.925722624150847
   199   2      19.146332720446267     -3.1845519803009852      13.651205289202252
   200   2      17.426564449531647      29.575019593617316      1.6303903867470655
   201   2       2.581850329261814      26.970711167761742      10.874745032744578
   202   2      20.488239720708229      38.807570275866794      10.488940229110858
   203   2       36.00596927049353      41.626530162632513      9.0255303676794334
   204   2      16.429646984677152       41.46049636503934       7.075014090663676
   205   2      8.5531742700915885       39.20127223701418      29.366403588790586
   206   2      14.383513406099343      49.352866628578731      41.385500440618834
   207   2      37.450051348779944      14.094558760020741      17.586327505225373
   208   2       5.553288899964933       13.66932292779736      16.154069509713711
   209   2      15.872381547910773      35.667348332562057      12.794323840489854
   210   2      11.832162748591809     -3.3000844188617466      46.833648634306307
   211   2      6.6021894241663972      36.851174810546446      36.377022654871006
   212   2      20.383806984233395      1.3267435528809937      26.374258875559125
   213   2      17.436963262970472      44.202291940215822      23.612242971759439
   214   2      32.022933344553479      41.824203838338917      46.306860643805557
   215   2      13.625953226764912      42.309525267887459      17.942979376895583
   216   2      43.825302458430791      45.447810516411138      7.8579049380024459
   217   2      34.932257944247354      16.339060988076771      9.8974915780121151
   218   2      10.306683947804949      4.4246074432595446      40.474319978987602
   219   2      30.706368119699253      40.212689679523699       37.95529141473979
   220   2      18.448256170790845      45.772262424323259      49.340396985835177
   221   2      12.239809399007868      8.5504536865410099      20.261732816668037
   222   2      15.155792255441751      38.933856373522119      49.922552466399068
   223   2      13.483675200981716      16.162241951504878      21.061575588625498
   224   2       3.093987991100434       45.57532807912385       12.04082835200437
   225   2      34.976555779719618      8.0342478288358503      22.432087847565594
   226   2      14.596595607395555      35.782657790732955      5.7900619024488922
   227   2      45.008874399094999      32.402719543297252      21.220248211189645
   228   2      24.871186041549993      32.343501439899853      6.0461628830715632
   229   2       34.48850773205433      37.772664154169995     -1.6959793610325584
   230   2      43.069943281858791     0.56823166754990884      5.3898464586679093
   231   2      14.146299874735178      15.863248911472407      5.6142368884471088
   232   2       37.75447126429507      52.517932437184534      16.513283177958357
   233   2      30.851494255278233      39.294637855663723       3.456202866349384
   234   2      22.599746329929502      44.682371985832198     -2.9811812819439529
   235   2      13.685954451928628      8.0406113940211874      14.117599553958296
   236   2      31.789476465299398      32.441497435641352      37.159725362226411
   237   2      26.253361892099189      25.905477020988471      29.086848895148364
   238   2      12.439284723782059      42.195796922582403       33.00812993307234
   239   2      27.083458753601974      33.551480367556231      48.326892464896588
   240   2      11.895119104227907      33.203259745752852       24.62837123909005
   241   2      26.714550904806302      23.781025276424309      38.872992581870491
   242   2        8.13265160049591      31.114277693458622      1.7256249119558176
   243   2      9.0026720995805629       25.49582885099105      10.353398145704567
   244   2      50.442590117394538      11.931741023850137      11.119097914210695
   245   2      25.952614007720967      4.8848968753769917      20.809224035765919
   246   2     -2.4440714940607027      46.414008945787693      41.074760186847804
   247   2      20.832667107359242    -0.10046640540525995      30.948706816185922
   248   2      44.480872683990214      39.622144708031158      25.991177956462046
   249   2      53.381171712854318      59.941479683269563       2.930138998361675
   250   2      40.181121432293409      25.095120056265717      22.507968893634114
   251   2      18.921921047091221      4.0932196975083972      30.902993526355232
   252   2      20.972265202620935      45.205255184763708      33.855691572114118
   253   2      16.701692999351081      7.5320379453339408      49.400043559712117
   254   2      16.958074259163435      14.427085708400119       18.96329693281146
   255   2      43.660235544517271       38.65452302558765      42.124386414575142
   256   2      45.610634263248969      5.7939940737690865       34.68444028018456
   257   2      10.620736108016246      23.222916028530516      5.8569083856013329
   258   2      30.904575065692306      38.657157140180324      17.336524174105246
   259   2      1.1070916458271425      31.929349648851641      21.032981418715849
   260   2      30.229064991725057      13.315408979028742      33.983521800046518
   261   2      11.923564449841995      17.384693806847956       46.11649891554034
   262   2      33.524472397254378      19.148038081523858      13.336018234987845
   263   2      50.604936444387882     -9.3467735107788172      25.857843547252624
   264   2      21.263852879574159      9.5567384647890155      38.584261728443977
   265   2      10.836370734164728      28.587619549955967      26.410509616044664
   266   2      30.304541052312558      42.235806765012441      24.869917963302623
   267   2      42.871993803708541      21.892571357428061      32.888261325891932
   268   2      3.4314454806209467      24.766813466874702     -1.6910181326420766
   269   2      38.929987586753896      32.671968895680422      15.460310972148418
   270   2      39.957977298542581     0.46238029339555053       21.13791718016946
   271   2      38.639931276252611      19.159606909470678     -13.606959579140899
   272   2      45.352749737216477      14.465621303679423      -1.710946419892498
   273   2      19.829667909110672      28.753855197190514      31.315434618396139
   274   2      47.339751230760591      43.019004798067911      43.604104407121447
   275   2      9.1112377723832996      10.848044768897616      16.015385762452492
   276   2     0.51723056241677123      4.3179013627113516      13.777962453616638
   277   2      9.8776842987962272      41.728632188181557      22.879671546379122
   278   2       12.62822429027689      41.204521943027501       40.49181608483314
   279   2      19.170360888454127     0.74021441333702642      15.067496988047221
   280   2      9.3632845339373691      24.435725055173066      46.253989915854071
   281   2      34.643098660424158      51.006742667285714      21.171892120754158
   282   2      22.965345033199714      28.642732835142301      28.667669253668183
   283   2      11.897449223800544      1.2209834433006705      30.534382397960616
   284   2       48.07456639007232      46.213519058391448      35.428420366112746
   285   2      1.7655792074960948       46.55565499352452      25.191084821948145
   286   2        31.3673153303791      24.651540006411071      33.654386209749269
   287   2      37.304245931078846      49.038870268153943      11.294135776555606
   288   2      22.225948717684609      36.620662516117498      38.297637473197867
   289   2      7.9937876583071681      34.388423320781037      4.4506293534462671
   290   2      15.311895365327633      11.353579794005968      13.070625860557788
   291   2      15.683292851937997       37.68482498519851      9.6173022642872859
   292   2      40.824658456644379     -14.256082432907903      27.258590990967477
   293   2      36.108560540068225      36.830486888973631      2.4476731388219402
   294   2      31.649082336010881      15.821902370632181      13.071877889293949
   295   2      35.013250594909934      35.927075333172468      33.866250643098923
   296   2      21.357138114168013      45.879054084838842      26.688966263301527
   297   2      36.404903978210491      20.319399573613282      27.989157769266587
   298   2      40.116960197050112      23.962343035033999     -2.3396470235783009
   299   2      28.156052178328427      37.745943330557502      20.233732971111646
   300   2     -2.3341932980552267      31.406270442706745      31.616275352566944
   301   2      5.2199119337555686      12.182751710666039      20.569480859501564
   302   2      18.353387649919068      32.094588244196196      26.390703051454157
   303   2      41.385011263783923      35.823652212769886      2.1493641179006371
   304   2     -1.1470922173209499      15.361992140256856      13.240446442146347
   305   2      21.160761172820749      46.499026753225799      21.223786909884705
   306   2      20.643721690181955      5.8458626336819393      1.7019153430495297
   307   2      17.057556502459406      37.472380561068029      45.811765142833238
   308   2      63.382707419879793      19.767439171433626       35.29831301717482
   309   2      38.874275074371994      45.446733671968168       42.31338651333926
   310   2      19.077146720215371      15.835546320308273      30.226133884473704
   311   2      13.385305124239958      29.671271035583441      23.830335499444296
   312   2      46.651713626228052      34.741768907256599      10.591588227090622
   313   2      26.076924560902825       24.51834908415486      14.652868831865581
   314   2      44.520405887515047      7.6303237395071637       38.89443435230681
   315   2      34.086972788888751       25.67022871516879      9.4995542086266607
   316   2      41.404144160705961      42.847642513872209      48.282126105572637
   317   2      17.267862296804637      48.974457592833993      8.9923421726387147
   318   2      42.402384804339711      20.771807793013181      12.520571134239082
   319   2      11.448242282256556      46.032874749814837      36.733374693412223
   320   2      18.133382963850707      44.303777613256365      16.862431302615629
   321   2       30.58801410501809      35.895228865888555      9.3172027545837697
   322   2      15.858768052597522      43.895296548685963      38.405617032471113
   323   2      18.795459154565123      10.368668874589485      4.7604292876362795
   324   2      48.218380430470951      23.142326969921445      1.1924459527573161
   325   2      29.480078200679731      12.542240719279397     -1.8876276530388418
   326   2      37.477861430059434      35.475934609053901      5.4107457624570952
   327   2      24.142439369027379      4.5401044081882826      39.253827474156132
   328   2      40.505298521253778      39.110736469761846      3.3824036433718438
   329   2       28.32927596430806      39.686950049169404      41.628572804687217
   330   2      39.036541258722963      21.759589632290034      24.742632910249704
   331   2      35.999863116470586      4.6847257014971948      39.862150637642799
   332   2      8.2043360937067398        6.61968011189603      17.817249524630061
   333   2      33.864794932553821      42.198819102706196      21.454760289085932
   334   2      10.816274321887754      21.940744708258048      39.626591285257838
   335   2     -7.2406355645309164      35.888343828757577      9.8465282009823554
   336   2      32.795960010869123      21.916651986294063      38.385741606024283
   337   2      23.622096510321821      26.348647221559109       17.98983906780407
   338   2      19.852988492929953      54.474249344167582      36.620182718937016
   339   2      14.345481515398607      35.829344495079916      37.846495277107557
   340   2       39.04587629243791      21.861784559892712      53.095771156837891
   341   2      22.689277558561184       36.15041119047325      6.4623404664642177
   342   2       37.12985575028388      9.8321967045901744      45.367110563418628
   343   2       2.119217681222763     -12.494456930987164     -5.6093420253688482
   344   2       26.85166410202444      40.989326053174686      18.397908496477495
   345   2      3.6930230123631911      32.077686345482768      38.012358326950086
   346   2      26.799084364373869      22.907605340167542        44.3532004104365
   347   2      17.953095850106603      34.630465754871715      9.0789169540982986
   348   2      41.703579923664741      31.865767883003073      2.1598867423417003
   349   2      34.416640385988465      19.051583670374836      17.282718288429919
   350   2      24.889462936138216      38.376019123234379      49.567420557148928
   351   2      34.039309985540626      46.461883031829011      15.438568607597666
   352   2      9.1308518383835757      44.020529709249352      43.802847246537958
   353   2      27.142761617213111      24.895044133227586      48.745948568542488
   354   2      15.210336781884314      47.051841961391247      16.511653339942548
   355   2      43.874954382156645      34.549871814168746      36.869599919521605
   356   2      46.094740950560436      38.411418201338364      22.327861209019915
   357   2      18.105297634924945      3.8216222308280616      10.828040145449453
   358   2      29.501993688300161      11.439369396388349      2.1844185953738475
   359   2      21.638473429218404      37.109723208278709      45.508152661764008
   360   2      27.941172977438637      9.6728442805334556      32.331370374755927
   361   2    0.090960085440219191      11.728169958404145      14.812631930359451
   362   2      25.400124002655247      21.260419283720154      23.256711963276569
   363   2      40.330253161307937      28.183576799434906      31.948579906945366
   364   2      3.5678564979815364      27.486137563856502      41.617303831171682
   365   2      16.313662285249762      45.780388278853515       7.023650471862279
   366   2      10.958519897035929      1.0800237637230945      23.413040564706684
   367   2      29.239058406539534     -3.9505990711046293      27.618235949822552
   368   2      51.080774526442987      11.052568344395517      6.9255194960258812
   369   2      41.352361088791618      20.210568268120625      7.4211573901400758
   370   2      44.609697907055768      37.966287133724762      14.775313138392619
   371   2      35.132622951043523      16.223195460665362      20.597873583145532
   372   2      48.294090220697306      22.301797103685512      13.793770205553084
   373   2       8.258997372528027      16.372724745113956      14.393057694778461
   374   2       10.85114286753817      35.094176938233538      7.9019133479448893
   375   2      18.642867323595471      5.7746005840076764      46.300172838094383
   376   2      11.248267943041256      33.825488285541439      2.6891817570488281
   377   2      39.512994600239416      5.2337811672449144      50.170836501468472
   378   2      14.431288262460638      40.098313954360265      36.277907635482094
   379   2      23.558789961428914      13.754717762372499      13.104267175551128
   380   2      12.731177806891925      41.292490301090204      7.8356049389726481
   381   2      44.768719166423473      41.524085189720438      6.6317749595767088
   382   2      24.874847168405843      35.861942833733004      47.347815843568732
   383   2      1.3088357168712583      41.647443044610057      54.514732891842421
   384   2      36.421705932940803      43.070845673468021      43.522399777951762
   385   2      2.5875825822558061      26.245726402806305      15.732577718104341
   386   2      44.933581852625167      35.279050535964529      25.359855204150808
   387   2       26.88247969985153      34.530520949643631      33.916174825588378
   388   2      3.1843077550282279      11.879775579279375       35.89672966037098
   389   2       17.58779215662469      47.795454265756575      27.700495623108328
   390   2       5.246412030614608      23.571441315774191      29.216946273075941
   391   2      27.646464621645489      51.510931088537603      16.724326464722012
   392   2       21.49705394824765      13.343130765745981      35.991283170858743
   393   2      22.751873987253525      15.306811813224034      32.294580557171592
   394   2      43.516898955136206      17.449023612535541      32.898253180809192
   395   2      14.864192885709103      31.475386681429185      19.735163331798287
   396   2      28.303040996193396      46.118167865303384      2.1541386463536818
   397   2      23.032363278516058       34.13523613359029      34.035478083269801
   398   2      23.815199201455663      40.143237935040837      8.0649414206374335
   399   2      38.286115097010693       28.38803683518778      18.836131149721691
   400   2       46.60336819223275      31.954751811677262      3.7889751493070221
   401   2      30.570220746803926      31.531046898471935      15.768296182647138
   402   2      6.9131231253290997       33.02060281471725      8.7451062638266635
   403   2      34.221267902635809      11.889460538273582      15.257489181815433
   404   2      8.6747149962790608      17.202055036135782     0.82424898513967926
   405   2      21.834580624685252      42.388592259342389      14.537935641110474
   406   2      49.449087549974678       6.843390976648414       3.227235704620099
   407   2      20.111984311456503      33.283514153854014      5.3108023929696264
   408   2      21.921920865916697      39.545095783614798      25.534431283368608
   409   2      28.709412518656929      45.457202671229453      9.2043565875944289
   410   2      3.9422863711450584       5.204112357548266      6.5015300883359117
   411   2      4.4214631693367439      46.085458123439849      4.9099569153615095
   412   2      23.681077020305398      10.559271363291636       35.13676567582889
   413   2      29.078720478849302      29.156303254479859      21.364379158828928
   414   2     -1.8781568863349232      15.999477137309327      18.224594170663281
   415   2      40.967293052983969      40.659964595208393      40.332851358073484
   416   2      35.547664734919586      24.371271458029248      5.0821071359632963
   417   2      21.188454002515197      9.7583773392549418      48.368381185690104
   418   2      21.818552095275287       3.963397727636365      24.682775175001581
   419   2      41.979083132087304      30.810692356473599      44.797458885120534
   420   2      43.294169426326825       42.03358846553467      10.314585973371138
   421   2      7.4720099160795357      20.794801835224746      20.633568333748656
   422   2      45.234155750400348      8.3969208631997851      2.6326895758953315
   423   2      30.358197504343782      10.846017144395418      25.386867563405382
   424   2      46.915884210286912      41.445631081271749      35.271102838902742
   425   2      33.992818144172894      20.667282024644713      9.3222099313166282
   426   2      48.730427804170219       18.18497109531117      35.308407275217959
   427   2      37.849641096636333       32.97984762072992      44.356014986693786
   428   2      51.977910492767677        27.9161218637059      30.860144949841651
   429   2      43.995117018955192      41.845808484593043       51.18820057585917
   430   2      31.390701148791894      1.8760504821096968       28.35951917044509
   431   2      46.297245144131431      14.067137733813015      34.104920626399604
   432   2      32.866893550887731      12.665742816177579      19.638924892024214
   433   2     -13.636401051204773      33.862503198368628      39.711935950299868
   434   2      16.976604342084201      41.808661668726472      40.980092174002849
   435   2       40.94763012245506      10.841399008491067       15.88377047009884
   436   2      34.815080961853667      18.282928991684358      37.268532922923676
   437   2      47.405237349530921       3.894188009889167    -0.31027094489908874
   438   2       40.44780151790944      41.663864724683037      7.5018990735552746
   439   2      38.238564800680649      6.9696757869728749      7.7171187331967079
   440   2       13.29018906375798      31.949413553966568      28.246627260722704
   441   2      37.452977392883597      29.377147546534491      35.697672461717175
   442   2      15.723627382899039      34.317966406138964      30.645173078048824
   443   2      6.4105665834435399      6.6622417705122849      1.9456893349351816
   444   2      22.686193059922772      32.492224536497439       2.402486458383466
   445   2      25.353566610290446    -0.29536630080572218      2.8808568904652541
   446   2      3.9342905313671603      48.325537964241796      2.2888472592532789
   447   2      7.6901132558558585      26.204890236835784      3.1339914352070153
   448   2      47.202946190445708      20.548358341165969      31.267912944080177
   449   2      10.822020009343097      32.629361624470022      19.936819627054401
   450   2      28.366972387876327      27.294624168542445     -3.4400164895011884
   451   2      7.5229781298007117      11.119563007792742      49.326322224636712
   452   2      3.7466034580211227      35.713463004414933      33.420903686438599
   453   2      39.976794530368537      34.346332831628047      47.357921363290743
   454   2      24.070009752653917      46.714907534970628       8.036723635684238
   455   2      22.108283067154272      37.511012769313751       29.60889303229219
   456   2      39.826811576684655        14.8885523411944       47.13429775104845
   457   2      35.769051325070116      15.876010478985966      13.857270081253882
   458   2       48.63465120811486       30.78114204551806      8.9770763775412199
   459   2      13.786339509225135       31.55366957933899      7.3106750346021663
   460   2      2.4615696496525183      21.203805728953355      32.683378735272839
   461   2      39.966386400270068      8.1704469219619629      4.1251589425457453
   462   2       13.25161723807738      12.181710577588207      19.321212399516163
   463   2      7.8009101332276556      27.145682435916402      17.063661674276588
   464   2      24.724117032507372      25.130111158969896      6.6140071643897391
   465   2      19.743046216166835      42.128378494109249      5.7421707717717823
   466   2      10.960094423359838      43.331356564288456      11.808136806182914
   467   2      25.729751449369168      14.396235493419235      36.424124941462551
   468   2      36.951488056914705      21.140238455541592     0.78683172037351046
   469   2       2.920502750980035       13.30266723309029      24.068709754742656
   470   2      14.980653822649112        45.8013017454074      11.101252519913515
   471   2      29.913321168554898      42.542598602214106      34.392399933044501
   472   2      3.2709629166051069      30.910195950500135      8.1888115273539004
   473   2      45.554753493447954      4.9394500637112619       42.20656107045528
   474   2       32.52055271199302      19.725767313906189      30.732806732183711
   475   2      31.985461051837301      30.168275004657165      9.1149001417379001
   476   2      34.665505897132938       25.06342340525822      24.493328361808874
   477   2      19.408375588179272       21.75552634180244      10.740742560837791
   478   2      11.459919993212051       29.36693493331876      9.4760138368860041
   479   2      17.768355148414937       12.79907111446728     -1.4125060623273578
   480   2     -1.0888622064221978      49.135104251921909      24.615649854616962
   481   2      25.060396847247794      35.010776339612676      2.8129753668108726
   482   2      3.3495119800898454      37.591700476655149      63.084324929754366
   483   2      32.952794169205688      1.6466493375652456      13.506522663697323
   484   2      35.165426053848549      48.820102959239435      42.448827053739805
   485   2       22.17032463755838      24.174563401567983      45.507719209394921
   486   2      32.766727021995152      47.003950949150592      2.1884422058714903
   487   2      11.608857528772361      26.877613508200337       43.39083860481238
   488   2       45.77729814105713      40.917564452055466      46.284656110334033
   489   2      17.661615939175668      16.687316869929163      46.301279256747925
   490   2      1.8081813627599708      38.354819925238118      19.117647187733972
   491   2      14.949685168442045      41.306018814273457      10.882416690011461
   492   2      4.0295681354834185      1.2204601954168377      33.709854275304181
   493   2      33.363773652139301      5.2998408571251083      6.7974579448301071
   494   2      24.827617384197161      38.947775123981202      21.006461259543368
   495   2     -3.7818263966106231      39.391662769647446      30.441107440095116
   496   2      9.2729460107081554      39.827161616177015      41.772027265924521
   497   2      30.885106296451799      12.468372117317744      42.359193260579559
   498   2      39.682483362992805      29.865842322485243      5.5115038483484211
   499   2      14.624464338245309       14.12533090358095      27.280283548405158
   500   2      48.331693945822323      43.628565977082509      39.155629310151596
   501   2      16.543950814976338      45.656473469600421      42.147030216399997
   502   2      47.505011769794372      36.124396973443432      36.292787953886716
   503   2      16.389385283525296      1.3398244925797651      20.478599948998944
   504   2      7.9942691106996646      17.737986927744874      28.318523116222973
   505   2       22.91548716158805     0.86841534780425511      18.190973808644884
   506   2      36.566842609877376      40.659337789329193      34.390963093763204
   507   2      22.767270494251196      43.499082197900947      10.590267180166476
   508   2      10.201756209229972      6.3363079251972296      22.285279136286849
   509   2      23.787809576802488      12.154631693829353      5.4042807979933061
   510   2      30.908792647290891       17.98169454209658      9.4568415191413031
   511   2      4.3334515357889112      7.3564608237060698      35.096681682332992
   512   2      44.264676606587145      42.514852648186356      40.407003921408624
   513   2      38.589404950111728      29.814732903757552      22.933337114201063
   514   2      27.492471345943486      41.586995053331847      2.0167410105564709
   515   2      5.2872671838024718      38.870173286990507      39.308819564228671
   516   2      11.825998728389688      20.815497431079638      51.438055442350397
   517   2      37.040694803057569      39.403421957570089      4.7963920089887226
   518   2      54.435593673579696      30.513404908510054      41.384171594141556
   519   2      26.843887112774677      38.817480046334104      4.8083287673282991
   520   2      49.026535844393869      31.060007245297008       47.43815511464912
   521   2      10.979395440599944      21.018062148904558      24.928143548491352
   522   2     0.54632089488346358     0.94474561550448488      41.742107306440218
   523   2      20.187634768395288      21.548465264446499      41.206864330604134
   524   2      35.486076048433581      11.867680149025816     -6.6543922430756712
   525   2      41.205848042836386      42.586955310632192      44.009477183226892
   526   2      35.803550649715866      59.156575679964909      32.903346827359705
   527   2      10.895484193489755       37.27910356780383       36.94207609714379
   528   2      29.067296351623899      4.7496556183184406      5.5987689202459068
   529   2      44.335180437187773     -4.9425908600744926      22.798855719145777
   530   2      27.445411804240866      32.225933058621351      44.470363774452743
   531   2      15.317191764330447      50.316793675091048      24.385584985794782
   532   2      23.147537176092619      6.0284558116212503      11.251607080377877
   533   2      9.4631045987822855      48.396872120418905     -1.1603616324094201
   534   2       23.91026472678524      10.178274348452037      10.886510687622994
   535   2     0.99001092048919292      22.298499883978085      39.739419104453049
   536   2    -0.72908708310795822      15.125783692506879      43.667419683602319
   537   2      40.473448426479585      18.425816273253883      51.467520421885837
   538   2      13.838677852889823      31.315321327715832      15.471285124284902
   539   2      30.921948196039679       42.60061387017759      14.094364218260136
   540   2      44.287905381533776      4.7645172487733012       21.36817415783479
   541   2      9.9667823615662776      31.231987054362058      6.0747705797915383
   542   2      34.511760960299156      7.2316998485519326      14.074378588340528
   543   2      36.595647064403018      20.697038567980375      41.639550432248683
   544   2      15.573885359420808      32.426177565865366      40.671751545131507
   545   2      6.3918969342936967      10.060935173194014      40.477358888842105
   546   2       36.69018747742836      38.418823050301526      23.631286091387512
   547   2      17.925570092453832      26.458161792478432      38.157645368887522
   548   2      29.215243110336555      30.986335206473889      33.364845120139641
   549   2      21.726230793614729      14.316129213679911      17.297423879512287
   550   2      6.7410826509552466      3.5723204527532402      22.266450132221394
   551   2      17.724698529980071       7.769687811656393      14.957817014796312
   552   2      15.197184509587405      12.591161201396316      22.837874173265785
   553   2      6.1835548726980347       27.16972160707823      12.914636426656566
   554   2      20.054580859706203      45.112104222246771      39.498154248374107
   555   2      13.714043926149651      8.6291963215708609      30.991586875100086
   556   2      19.267125595005609      38.328528095457763      7.1856806001725229
   557   2      31.471553088536186      2.7416892680635381      24.229397681770706
   558   2      2.9607595360717105      3.5154368438931862      42.914375955835709
   559   2      1.7027462545708367      3.0301058102025977      2.8604316352622177
   560   2      37.147037588326704      11.245293639309841      27.925009716705151
   561   2      4.5728119927937616      43.776549074505851     0.96915223658194216
   562   2      31.852507556637576      9.8243674917506976      38.854700952863546
   563   2      26.051823678669521      9.0040396863671557      17.819639651549309
   564   2      7.3219201343427249      44.751241931474929      20.779566567064855
   565   2      14.201127634952771      4.7375700373956136      39.396278952357733
   566   2      47.806215128406691       7.322803559931244      17.524648815323093
   567   2      24.625420363012477      40.564991591696078      46.811713141380217
   568   2      13.809193541920949      29.609288652232657      38.233943329601338
   569   2      26.613100434496104     0.19083861829904297      10.625132418904458
   570   2      13.734410787277517      14.753342669855124      33.902508270590936
   571   2       25.23631708553609      11.592090583192169      50.345974355223206
   572   2       9.348182536114555      32.514468318078997      15.970581828816455
   573   4      34.410099828941192      24.211055756568985       48.16817969886278
   574   4      31.371243833827936      42.812626261050653      2.3629105287685306
   575   4      6.4583373112321834      10.860796088301651      9.1450803126083979
   576   4      18.648950082334629      5.8752137942210787      5.4892014116282706
   577   4       32.55056610847474      8.4204271842077638      18.440363574498534
   578   4      27.665312921097339      1.0725152189173761      39.098706208487656
   579   4      47.134128780921159      7.0430274320350046      46.113575263877664
   580   4      31.025674690609186      1.6870227739876775      3.3463004950315005
   581   4      14.100950228737771      24.978423705825204      19.274705326487982
   582   4      35.505347681443425      43.524920300073269      47.238487590180405
   583   4      36.291950873291597      12.647083726019678      2.4850456834947035
   584   4      29.594087281821174       19.79549480018736      39.353907828518047
   585   4      14.152891234947871      27.707824429302441      16.853628049224728
   586   4      14.688317500674898       23.72997127309042      34.944574207711234
   587   4      6.3046128475136562      45.052105652338128      33.636690534145984
   588   4      16.023185415399251      24.795036194810987      42.480193759464498
   589   4      46.641203943559589      45.994639262113814      25.457994488949815
   590   4      20.837954454725939      45.741147221966855      8.4625005470742849
   591   4      9.7447964819524859      45.574148983578795      24.175823084513038
   592   4      34.705411196348464      23.266410964474908       31.91446375479164
   593   4      23.626935175692207      10.598124401487464      15.004028363731335
   594   4      46.368529802120761      25.021849765626502      32.232816802823578
   595   4      2.0584890432209022      34.922619497940325      28.690292488500514
   596   4       5.807863647027502      2.6525741037563266      1.4183017742842217
   597   4      15.671213696737453      33.864812097489377      23.327408253047228
   598   4      15.840186975462512      44.494282667283571       34.30905395962882
   599   4      5.9137111977641208      41.079461079563892      19.583256360483489
   600   4      32.419193921031962      18.283011781683992      26.933610197151591
   601   4      46.395472863999743      24.866101718563886      23.834123523332249
   602   4      29.846341656769251      21.290788365421715      8.1596524714596672
   603   4       27.58546557852932      26.878633467011447      41.313916923943658
   604   4      17.919510288244545      8.9175728280799067      24.826044585006912
   605   4      7.9958555474551138      45.189677683442362      47.262241377823443
   606   4      37.828587161937968      6.6436731666089601      34.087404738639613
   607   4      5.1999345548356448      28.187021272936288      20.752205160260115
   608   4      44.746825931113179      21.561038477513325       46.84805332089978
   609   4      48.296818035923287      22.340798450802275      45.535125612072733
   610   4      5.3845168923627105      6.2147328592921935      45.732841761379461
   611   4      46.690849975301745      22.466122081043313      4.5799177322410181
   612   4      17.182580473071678      7.1088198790007207      11.080866193005383
   613   4      8.9950643862459518      46.556729881246568      10.801492765730826
   614   4      29.858397416938118      25.810046387875186      15.804248101154695
   615   4      50.160538580747804      4.2604740508751959      34.248706486744219
   616   4      41.739791008085696      5.8182414880996713       29.14007931306806
   617   4      30.355428064910722      33.965864727459163      31.937509174402162
   618   4      40.111396406359738      31.796534671324668      19.697732460861022
   619   4      2.1323500677025105      35.254687016457794      21.358323653629853
   620   4      6.2883461815448172      23.142298716042902      14.844415581247844
   621   4       30.50865046409541       2.186459821662428      46.697856234420506
   622   4      16.640790851558908      29.164202985806757      44.448860537201767
   623   4      1.7345373865445228      43.339028996040355      31.013115033285697
   624   4      40.891743981419886      47.516858726986989      38.736621390259565
   625   4       31.64848828661659      8.3070986625954788      3.3112294705634864
   626   4      47.316818467504319      25.872340870647662      21.226919862769677
   627   4       15.57176239695551      8.8510913372180173      39.755137485168397
   628   4      28.380548894520963      39.117244889417655       8.551806654274916
   629   4      23.284379021785597      28.881124488633443      24.389644345578766
   630   4      13.363986061075073      46.375178548190753      24.820319889304248
   631   4      45.404310824006956      38.599946058772396      10.395958900114477
   632   4      43.400411551751489      42.924662685944959      33.964889614952078
   633   4       3.172251084305231      8.6730198013971176       38.80438012331237
   634   4      22.267165552149738      4.1371556838753651      28.291198099927083
   635   4      14.333617239998885      12.203560854686904      40.801560663358543
   636   4      35.476878128443815      12.619119847322718      47.622849627894837
   637   4      30.102843489539897      37.596252695767625      44.786606477173407
   638   4      39.688008366211974      22.346569691253489      28.486891092269474
   639   4      27.398322561535043      45.144523095621857       24.53129095244384
   640   4       10.88636631380448      10.875785046300038       23.40992869282864
   641   4      44.845475913044602      19.191393365690306      36.446424578560986
   642   4      8.0785579189805947      20.633449925097278      12.644335028458132
   643   4       44.04390506562271      8.8067117055407884      22.661788376539363
   644   4      10.111390191822588      45.227036934907126      5.0200859540477767
   645   4      34.966023033379507      24.134524523552042      41.345970929709274
   646   4      36.365696791584753       5.830868068874449      47.954824742553683
   647   4      28.047222873002418      7.7241846877883988      2.2546238593244192
   648   4      20.776158355836355      25.210288132694174      29.854086344911821
   649   4      38.391863994087878      14.644154036719234       11.00411624752328
   650   4      16.593951714489435      48.730990824595352        47.8053756936797
   651   4      20.382695856476811      48.426387612288245      11.129846859773895
   652   4       31.98214423146176      5.7914981474634928      11.439692815153359
   653   4      40.513469421743274      39.651316240365922      20.480751218576803
   654   4       51.58029556611968      28.190844442850238      38.128127130397452
   655   4      2.6695475705483709      46.131554945962741      33.338205358421583
   656   4      36.977479949962955      45.470357181059697      21.270893439064377
   657   4      43.852168999704908      15.791365611838215      43.356898161013383
   658   4      19.264458776758083      34.399687020923224      40.070605474474242
   659   4      25.727886734839743      19.176839074733614      27.097808375698857
   660   4       38.01031701542589       26.85907531905551      25.567092269823654
   661   4      7.6041538731237388      32.798852754169431      38.098826950460719
   662   4      50.124088001772087      14.590214400988827       35.74462280144165
   663   4      47.084487149108533       28.69544527294175      22.195725183486324
   664   4      22.799562794427651      23.000946958025846      16.630677211769402
   665   4      43.034767593857076      45.750742349984279      3.2555927330442338
   666   4      9.4033424015122584      23.849238102534635      27.301253421465855
   667   4      32.912566641585101     0.76324056162277232       31.93927546444516
   668   4      15.950096814404514      28.060875043163573      20.153550795317742
   669   4      14.774568254227367       43.41949063734026      48.308894951998759
   670   4      40.710853180156668      26.807291471175777      36.414256601773474
   671   4      10.359512421817437      20.699486910937051      29.183110546855875
   672   4       6.588591811685637      29.606223902331205      9.8195134645211084
   673   4      8.4930043101659773      10.611239715302512      26.203996318202943
   674   4       44.48490393271981      47.141068256289813      23.626003972194997
   675   4      42.374217843717261        44.1005936919153      38.255676644380685
   676   4      5.0304680230310259      41.854322507708268      5.1611772976125856
   677   4      35.737516747723994      23.375614597321665      12.209616628933272
   678   4      42.779945771928382      1.7098326477423826      24.129910595952172
   679   4      15.611195829387842      28.046909129850135      14.094631422286794
   680   4      45.073614037132032      33.438940853191404       28.38221024485085
   681   4      21.249481209285474       38.13459718401667      14.657111416174004
   682   4      29.866154708188979      17.991268532259351      33.099059107153792
   683   4      27.809604623601228      40.151571041357585      14.061864746908237
   684   4      11.416929207215659      3.1462826872054857       46.95923885340158
   685   4       3.992500765655572      1.0655135163590173      6.4275060629052119
   686   4      14.171259165807514      17.143256111293432      25.111466196333449
   687   4      46.430868919215392      27.842923654240945      49.348358921754624
   688   4        2.87211006862315      35.757522811757532      36.746067620030693
   689   4      18.560661748239603      29.606675080598031      19.643242926860566
   690   4       44.82648318221645      19.217750696281559      15.138105258536966
   691   4      31.851817995630665      28.397697290374953      17.914443439254082
   692   4      30.501069203463022      41.817059406964233      10.091697466008837
   693   4      20.534971506101211      14.404428840461442      21.685262850645444
   694   4       34.99185789878856      20.207747390538749      4.4783036211247635
   695   4      41.871075787875256      3.2944708772695543      42.513148948286705
   696   4       37.68636398942742      3.3253008311546473      9.3721284340283635
   697   4       20.50609308424233      47.619010493265563      43.737052193759546
   698   4    -0.01580585941671403      24.431864768446484      17.793828539360575
   699   4      38.224676766472193      5.6151145967558502      21.192265496317223
   700   4      34.907452361938141      38.201017761776704      18.690854023506205
   701   4      43.415862032101337      24.990149351967837       11.32173795418241
   702   4      11.258813659381186     0.58731671942450081      39.385397785991806
   703   4      33.035408088755368       35.70402989854486     0.88089786095757572
   704   4      28.961553988748037      12.869693394578606      30.107315389184077
   705   4      15.061472293230397      11.359743291234954      37.186692424490225
   706   4      38.655642844273387      17.871081857120188      24.169791854045716
   707   4      28.577691252472572      14.054983301054259      22.353388982796378
   708   4      47.038370550421156      24.649061749403618      11.058043872324271
   709   4      5.0046700604746768      3.8574144119915852      18.731275342128221
   710   4      34.674145698877417      41.323550932528619      1.3135746166587161
   711   4      7.7700744229939351      1.0299474829132658      29.830445315741727
   712   4       29.33170416007621      6.3109562696600756      18.155183619036613
   713   4      17.346166827454798       23.89030661707125      45.773852549064344
   714   4      26.479494917657121      11.350741933625349      43.834319504219955
   715   4      5.1478608900721019     0.26421589073269636      20.254666373209542
   716   4      25.855777012490005      40.741061063358039      33.856285209646444
   717   4      6.1284546743325654      31.009537751424087      13.315216778521323
   718   4      40.733641909338388      24.653003641293342      33.317926314956367
   719   4      27.428261781723592      20.131194996568844      20.103308290189389
   720   4      30.254682960631595      41.444009222539869      29.454229057261699
   721   4      22.204437938042677      27.975466652757909      44.442554142986602
   722   4      1.2442773608007438      28.100425201932893      6.2544484122578927
   723   4      35.518584713722909      25.584159413274044       28.08460169898434
   724   4      3.5493312928515457      5.6264373610395797      12.410947428269269
   725   4      30.023421332218444       30.74251503966612      47.343275239152234
   726   4    -0.39691593791673124      35.042405868672795      23.272842216646563
   727   4      23.028936226513991      45.853328404896843      15.886790872639132
   728   4      38.052321565482792      24.694431613637324      30.732737786707546
   729   4      29.791239495984108      12.777911095776647       38.88323650728401
   730   4      44.710323206584853      19.526644477197753      21.456772690823449
   731   4      45.074407863000609      5.3827993866158126        14.7179346727902
   732   4      42.047107104088894      39.180066069502303      48.928889755833801
   733   4      11.507974612581405      35.181980643612867      40.757850374215145
   734   4      1.2526736341808302      41.976009982096066      47.985309695918268
   735   4      42.904052819242374      25.490094632372131      31.232207509657734
   736   4      5.9187593689493454      17.537236375256036      8.1503826285667209
   737   4      21.040774712979697      39.439482270748336      34.684899709627146
   738   4       17.78239716704763      14.066716637222777       37.24762307080033
   739   4      35.557002129553908      43.618573253470522      36.614787444714139
   740   4      14.595125856947398      4.6312441641969198      21.876094090366117
   741   4      40.010742318795259      11.800424933465569      19.992796366173813
   742   4      11.361870495017266      42.517280566194607      15.226923545446853
   743   4      13.232856173803466       13.02957754874274      10.099236449545149
   744   4      8.4758108660608436      19.733555135551153      46.498535531288525
   745   4      8.6823825742601741      10.451579880481578      20.310006089480687
   746   4      43.723321428595455      16.277047602806331      8.6077793534119103
   747   4      42.444812997530995      45.911419607791437      31.785270450354279
   748   4       17.16690966095587      12.407592498976825      30.198828030648375
   749   4       47.83265245256387      16.656687652441018      2.6298669468863043
   750   4      25.654927944838722      6.0777318288909612      46.066282925582072
   751   4      26.779927175442019      2.8134765604962477      46.852830747300303
   752   4      19.423506724692572      20.744676945491722      45.512841033928268
   753   4       38.10387456996343      32.814391154590375      2.7961795162583121
   754   4      15.092208821564313      31.125081407166579      32.809997780062993
   755   4    -0.54502909446656045      34.780993223117136      1.8216851771564884
   756   4      41.795883912781328     0.08820308751964652      29.664810001860214
   757   4      42.302137421438545      13.257329242819749      33.810719325878573
   758   4      2.5928522232800844      22.365574398714827      10.077623655190671
   759   4      34.376432518074793      14.136041104040235      4.9185828233187099
   760   4      10.611316757682387      37.561980556197589      0.9921003214430576
   761   4      39.172447701472443      25.572251702692682      5.8207260560155296
   762   4      21.742249939331458      4.0771233744283384      20.606089049596797
   763   4       36.94804518068235      28.435493816016763      7.2458908569079385
   764   4      24.465863907014935      46.005975039128785       35.99146710570006
   765   4       10.81295337463172      20.436324032388868       43.54193230014927
   766   4      11.139315325835312      18.178110702942345      37.217752631240621
   767   4      25.242726985661054      36.563283552449597      42.310244546986361
   768   4      21.520617031594405     0.93802241672924724      22.792938871692087
   769   4      13.477930215393485      1.0117771266399176     0.61836799334761328
   770   4      30.179888132991209      30.277953067461674      26.174246048346674
   771   4      12.152411775169584      10.547937211008646      43.289776744975377
   772   4      47.995886938493818      35.906126977086849       20.10522564108777
   773   4      16.862598669586337      18.538632854711711      41.568770410987128
   774   4      43.973089352167307      6.0490968747260281      48.172270063296253
   775   4      26.824041710422566      41.621896032631625      10.776710008582803
   776   4       21.54692987768496      22.213062320413229      31.992067496461527
   777   4      4.0949068498552075      13.651839015056231      47.347721025724219
   778   4      25.155553611179599      28.000172557987153       4.593513489951464
   779   4       40.30410790269444      9.8145924116176637      43.153581373630708
   780   4      15.936877532884962      10.403069887885255      27.115351642212254
   781   4      7.2730820560535072     -1.1381215588521518      17.390641445067779
   782   4      28.293364263102571      6.9868390672746274      25.376840356882809
   783   4       4.097022659123307      48.300787585227567      42.720576434815023
   784   4      7.7110237844609015      36.629787222124918      32.571777510203617
   785   4    -0.23869102398267561      41.799277339140588      21.922632044007216
   786   4      20.735012872529921      25.780287013886429     0.33809837370470441
   787   4      46.563962728577906      44.591110557686875      4.1416156226701197
   788   4       36.36320706000734      38.052890623843339      31.065832217400754
   789   4      36.954465251684894      13.902280585653934      39.356553154743487
   790   4       27.53423138331917      14.851885664223763      2.9343009138970344
   791   4       4.098704515422952      41.180999345387647      32.858617921182194
   792   4      36.358576639884291      18.376860083912199      45.731871216911834
   793   4      10.338860931596793      48.698505870063315      34.014323109451112
   794   4      35.308700468486947      48.021527186807759      19.522056586806166
   795   4      25.790010269727816      43.092558931644049      43.801030001435073
   796   4       33.18270145150273      14.001623131797745      38.379650058685264
   797   4      35.057792634758236      2.7386737916254194      25.842346193702486
   798   4      3.1320707677744375      22.122003444823612      13.605613495124354
   799   4     0.71938384962572943      46.037818596313429       15.75258415236013
   800   4      20.161248894057088      17.683411598866563      20.148094972507927
   801   4      31.946965578329149       12.49569798475542      11.626868738419576
   802   4       49.47132241746737      3.1168813710706416      6.7066322895873736
   803   4      41.644080295270868      1.9932684607840632      17.705364662831631
   804   4      24.535560514994831      47.693704722603464      39.356555393351705
   805   4      27.909436042081857      26.754396360959216       4.495833142415111
   806   4      38.564085192563489      17.283023477713819      38.823686339975424
   807   4      6.3486145604401125      41.782896329303242      35.743855890214157
   808   4      8.5273503351246926      34.573054775380236      22.374536336315639
   809   4      36.607947864508951      9.0314217909478689      1.3764652299352866
   810   4      1.6063344244446101      16.413636976507902      16.492001056588318
   811   4      11.488333907970361      2.8785977179845661      36.176179705850295
   812   4      45.503881755538295      31.593052093083081      35.547375945545298
   813   4      13.027070463253686      44.108710945309063      43.047127908506241
   814   4      42.312916396574103      12.658177000860999     0.94447613508553496
   815   4      21.689993762514824        18.4692076989867      9.0369344632501249
   816   4      13.012317552852865      39.678045994013388       21.84544644378866
   817   4      15.997703663997086      11.440290250890861      33.434052638118843
   818   4      47.770932487481296      35.567895827179399      40.281972310899754
   819   4     -1.4120260392878974      3.4657628970790695      28.079233162520321
   820   4      48.842314172905738      26.750623537538033      23.541215711320955
   821   4      23.901483442896016      31.310963568461347      31.155305347165044
   822   4       25.83350540796906      4.5562500703553139      8.3503731489064847
   823   4      33.177826861043421      43.021330161868072      27.501975246453657
   824   4      18.431573840838613       6.753515701317621      40.110319941769191
   825   4      27.855338130115911      5.8743192353417957      32.611230683000379
   826   4      21.797542043052562      13.654293913447846      25.236233410395212
   827   4      41.230229224728205      33.388184399005105      22.970104214274773
   828   4      10.785736704415271      24.981995724570201     0.77112992086826004
   829   4      6.4323664216798706      12.926155442441281      12.243661237227435
   830   4      30.620397504362657      48.596717392162766      11.220669679230427
   831   4      42.559918709969423      29.883205598968395      41.052332464774793
   832   4      25.030546934047894      17.401706903271016       14.52368520155026
   833   4      30.745803243137992      16.160863834564346      45.571751346250494
   834   4      -1.479053823154252      13.913612347365721      23.798417310087224
   835   4      24.840408917367853      27.082093001020592      12.022031829080211
   836   4      15.814412963967643      20.310915979911606      2.8097524032857302
   837   4      38.872777323449256        32.0981643290989      30.538320609091667
   838   4        25.8938770237006      12.820939125521223      8.8183588224400253
   839   4      27.428126474274819      44.410689918044547      18.491104548755651
   840   4      35.068095210826236      30.953085503546895      42.393229685437994
   841   4      29.325422757856785      33.760706687698288       4.519441757165513
   842   4       4.650372129557554      41.378417439103181      12.217779106806059
   843   4      18.855617235906088       28.91652061865372      15.941086517051607
   844   4      33.128916506039261      1.0766451713446175      39.645814296568481
   845   4      31.790322558043336      32.833070220122494      12.195679377243918
   846   4      21.135270001929445      6.9119865001977905      32.933338671622103
   847   4      44.513350245061361      37.540220996839842      34.878773624168623
   848   4      11.320741918248018       15.56111741905063      16.610311281881621
   849   4      46.057993057727096      24.565246484655752      39.619849253685253
   850   4      34.185264732791474      8.4908709935010958      26.364002050994134
   851   4      46.205353507422259      17.975808315328273      28.332340174778938
   852   4      2.3084776230451087      45.975288261768327      28.658784350296109
   853   4      48.487892914817969      10.493254820020899      41.677250565666021
   854   4      13.989334852120091       4.282323068824768      30.949432061904208
   855   4      4.4624110746381893      18.842856367826265       29.76169414777943
   856   4      29.755925322149867      42.236939990485375      20.546797539250726
   857   4      0.9355492412672014      19.242348086807233      10.527217202414091
   858   4      34.066576152595488      23.142092784096739      20.804104436090828
   859   4      15.277724830121597      30.982868035991093      11.829985609635933
   860   4      28.328804860882538      20.802405042760807      10.743662611675594
   861   4      21.910506350191049      28.614764608661666      20.890337436781198
   862   4      12.134464423406698      7.7465814933543875       40.88331053295483
   863   4      39.463978587726132      24.880985061909627      18.328124209117188
   864   4      42.750107685142275      2.4907677603268872      27.432931766198262
   865   4      10.796477568259451      29.233869806585663      17.196068536241793
   866   4       12.32106510532229      36.826541740654555      28.456998538741754
   867   4      30.903235348873498      23.459583653776811      46.766643193099142
   868   4      4.0080264949510012      19.614323835505321      22.701824671353314
   869   4      14.295572543497755      34.245579329633443      10.153707793947627
   870   4      21.317551928861064      14.705256110286291      48.379270028647177
   871   4      32.586421381506057      31.340619381919279      20.171792579427748
   872   4        46.9969005077361      38.222680875727619      17.328298548217493
   873   4      11.828938311595296      13.365979667341621      45.897905787335702
   874   4      47.862286409456168      47.242517344913139      12.804688387914577
   875   4      11.350866408353699      32.560344038299057      37.857843506662384
   876   4      47.145757295884479      10.235475071341749      5.5809844389792813
   877   4      7.4675465605851841      4.5870458789736208      28.525949673875161
   878   4      9.9413558173444407      36.330683540964891      16.339017440265895
   879   4      24.698784504989021      34.038303653729173      10.109063648107576
   880   4      36.407405507963112      31.334020682565125      19.923851238664682
   881   4      25.396249957095922      7.8617675882313334      42.709475676968978
   882   4      26.657894221848782      31.931836437027016      36.963737609775912
   883   4      2.2757409366558261       31.93209403954474      31.119537906019421
   884   4      23.000332021119814      9.4072541242109811      3.4012467075088568
   885   4      37.692481123388951      37.470783342993975      44.840143968032784
   886   4      8.6985266816782509      46.472429284542649      31.494778279187283
   887   4      22.738161568068335      16.113947907357904      39.017499563695047
   888   4       33.24155805516304      10.135612258077336     0.39031214840186534
   889   4      22.595410584362483      41.572623748195369      32.374029730282814
   890   4       17.48051938302498      2.5280545727973278      3.9865806957239678
   891   4      19.473674426266687      38.777777122314255      3.2900085485040433
   892   4      14.315274150206765      32.242996168611008        45.0272385913675
   893   4      44.431402076401845      37.046117856259279      46.789746437078058
   894   4      44.557975288666725      12.083386716027254      15.260857053411907
   895   4      33.153642270295926      40.013664314276248      11.476601850564053
   896   4      14.766214139769032      18.044677012990121      16.884606582661718
   897   4      41.249923905008721      9.0709471238064054      8.8020872163346198
   898   4       35.13921467346804      13.700883658144845      31.303957227106238
   899   4      16.258351187196805      3.3382811908056662     0.55033315915025494
   900   4      34.850778962124693      35.610131996067842      25.863804316762479
   901   4      39.332102805300657      49.492636517425112      14.943176384530183
   902   4      32.353547549708892      36.348679271584743      37.701421753942824
   903   4      24.954825645302858      8.3545365957802566      38.874125708234864
   904   4      15.056436613464243      42.887779783956951      14.501463837272066
   905   4      4.5946870702062421      23.328072766639217      42.900936854284744
   906   4      12.081578350738896      10.590876474208185      26.947911875236112
   907   4      4.7447359111870799      14.048536770498043      9.1498025093891275
   908   4      23.745501056037909      43.452905956878709      18.849603026106408
   909   4      44.822610920614373      31.873496992083947      9.9094603749434143
   910   4      8.4337801720360481      19.637946177846011      6.1889570809770946
   911   4      5.6922047759192447      40.705320365203434      25.783441259665974
   912   4      14.879199171618943      14.839113583102554      47.111948975427381
   913   4     0.07892968279123129      48.800015200753592    -0.98711388221702812
   914   4        9.73247728724618      15.118132836127241       31.69917168729183
   915   4      44.811809969728159      26.803117441528414      22.497541217138902
   916   4        45.0600585300568     0.63705974653173347      8.8727869519149305
   917   4      48.077448079301888      41.096852383916655      9.6084782910607576
   918   4      24.550749951803748      7.4316424059868709     0.58515453029018327
   919   4      26.798012818794973      24.698565853734205      34.889438015560266
   920   4      4.0180286080460119      15.560438784076819      27.929363416415292
   921   4      30.495547000402023      47.540720851599389      38.148294913998257
   922   4      42.898535701460851      37.995820309074411      5.5717107144446558
   923   4      38.990373681262227      46.721856070706416      30.770854141240854
   924   4      3.0579608044360933      49.749509091363443      23.400047812643752
   925   4      34.112411700553722      5.3099754470557894      28.479012660691506
   926   4      40.820578432508668      12.615320546754317      27.206151996042518
   927   4      11.294144101023392      23.084985719320581      20.830415372230235
   928   4      6.1631764913034752      42.367454571768675      41.361471023167304
   929   4       1.738279214214445      10.304756913459803      18.104180756665414
   930   4      10.115505587331908      41.863047169216706      36.174611679428466
   931   4      4.5315082862367948      34.354649758173906      12.093090654748536
   932   4      40.638451205859447      35.762535426493656      39.622613570768216
   933   4      46.409793816073254      27.811844063402514      24.844596014832845
   934   4      35.406260954499466      43.777132071942646      24.402051380022982
   935   4      20.239878652489892      42.711337907366264      20.443668069063207
   936   4      28.332980862536953    -0.21433219448523699      26.156495663355248
   937   4      35.537986055901683      32.460789485666098      36.356827155652908
   938   4      29.936776316532743      27.197703083459757      7.4738661148286738
   939   4      19.324676614203188      24.974961237336942      8.0925920813872683
   940   4        44.6329782973649      46.260845276892006       11.01512099678671
   941   4      46.522249116384572      36.082609927064965      43.832239008266527
   942   4      25.904556536979438      12.209341994530211      16.077942704648532
   943   4      15.865640257371437       37.25956792150523       34.26105212738274
   944   4      19.581898561488799      40.277523259089072      43.655665546901687
   945   4      48.571978868901965      7.3112617852529027      39.959919933390644
   946   4      24.808695050001688      1.3646215646953768      13.998456028651212
   947   4      7.1557368186665196      14.830675703375308      41.181763165391665
   948   4      19.275695683233998       36.72102055755326       32.58318046329115
   949   4      43.999097768210092      45.753395243475467      45.065047840375478
   950   4       24.64045013305098      44.459544450740978      27.110701229687169
   951   4      48.025097891443821      42.503327453996704      25.328300848465034
   952   4      28.550893077118083      23.122054224290927      5.2420614570889192
   953   4      36.547930786865734      46.509553268548196      45.216997837556157
   954   4      17.811800887811106      14.168384132355643      5.1878280937632768
   955   4      39.913964767829306      2.4194848389042827      39.398447856275205
   956   4      39.547251425200209      14.565628185293333      2.7658687455379969
   957   4      16.963221486608347     0.30111038251660965      44.136620230732596
   958   4      49.087879079099501      10.674987773446544      2.4865583554275728
   959   4      8.3939123428119853       7.544519733345215      41.856606185523781
   960   4      35.838575726186512      45.903001482971867       7.576824662946394
   961   4      44.715656079940082      34.255200050180683     0.54700521901977073
   962   4      18.901353583945259      26.861644288382234       46.06872270588817
   963   4      7.7302624553457377      27.200850570227203      6.9391824843174543
   964   4      4.1657521260366677      31.616005056274531      1.2946477883986749
   965   4      16.398049385600991      27.501148318771115      23.874677100727787
   966   4      3.7813601404696744     0.14604595749437618       10.22216751435888
   967   4      40.562859563462389      25.824230256107509      28.308669534407887
   968   4      22.160973964262862      44.497273776972534      1.1370325811388506
   969   4      28.269492435347924      36.172938597038957      23.877542406229789
   970   4      3.8393198191887294      35.043562676451799      6.4323545137695914
   971   4      2.0478708401086885      34.001147915625495      9.6304742417278977
   972   4      33.721604339700811      28.610323084003419      28.959625409049611
   973   4      15.207141478237197      9.7790503245789697      17.548322883490101
   974   4      12.919372252502164      25.850564591187936      12.410193976117556
   975   4      31.998669965956594      41.979865516319315      42.438476950870502
   976   4      15.327920132707076      46.083148523956766      45.567853649943793
   977   4      9.8560266984240066      6.8249432661815739      14.008576429558353
   978   4      6.0396713188854152      8.5171825346433572      6.2268359483037967
   979   4        37.6629154723746      29.516891013704367      13.413921680504288
   980   4      9.9549975276391738      39.048277871706276      9.7119957020647174
   981   4      46.231921301479851      4.0000868416929931      18.063385354775818
   982   4      38.167250936340956      20.376133895661678      11.197087535252408
   983   4      10.981029320064001      38.274346493641922       4.964375020490615
   984   4       24.95648216740268     0.62148125649412334      24.454899696682542
   985   4      32.472641321455676      8.1729587264285222       42.06430929738076
   986   4      1.2619234670765622      4.1962587091051979        18.2132471139034
   987   4      3.1347322320288904      34.877611227041363      3.0253336049451089
   988   4      1.5219796174208147      33.812716125978753      14.294613521306687
   989   4      10.663752079970704      16.738417275384705       4.761011178101171
   990   4      39.533544378697798      46.689261389265766      1.7734591311936621
   991   4       48.57055400464747        33.3224686822563      44.596414318383111
   992   4      39.798695108705992      19.431351495134724      30.926903728435345
   993   4      43.723760654446018      11.372938773864734      36.890663068489097
   994   4      39.444578726482177      40.885734102156619         12.048298389111
   995   4      21.435963702810643      35.500264181011495      26.719981463147789
   996   4      20.418792694566829      29.943274956904673      35.847102479204729
   997   4      20.599980032194473      39.136130153039979      21.701785118364548
   998   4      14.559616625187155      19.352657164174641      9.3583555594823284
   999   4      17.406328292058024      47.922739572715223      33.537379712964437
  1000   4      23.789398309910659      45.899048451497045      42.384180548483222
  1001   4      25.132203252127159      29.487648827360825      42.431722500632567
  1002   4      4.7794749791204039      27.697560294267198       24.51583904396599
  1003   4      23.970004536785126      25.389360834074299      2.1684801850099764
  1004   4      8.8901616306252595      4.1356643531214941      25.063309645702777
  1005   4      12.681608165237051      9.2914721002259704      3.3775403562151389
  1006   4      39.813192134361806      1.4665082372935461      3.1966321815833245
  1007   4      42.720978125399654      44.381357515396118        17.0581786789548
  1008   4    -0.17025909520239108      44.041451413914331      18.828228137002004
  1009   4      12.979903571523133      24.696555624249836      28.528473649053193
  1010   4      47.276711574930459      49.025825983143243      38.588630806043042
  1011   4       16.46085630259806       30.29085568669117      29.378098139515693
  1012   4      17.660776405287386      9.6772357326785414      45.994509420775778
  1013   4      20.779420382833962      20.235787098717541      22.985094012859921
  1014   4      20.622974208080205      24.214592796918549      38.403853222432389
  1015   4      28.181130315168556      27.302436313019612      32.495423854120055
  1016   4      22.588766678447264      7.6008297607686046      19.289236975241078
  1017   4      30.918326148461912      3.6013366031450751       20.29411326211536
  1018   4      8.8597188235456503        22.8821262593667      17.714462918740189
  1019   4      24.399085830211529      37.411170237612403      35.147454990913737
  1020   4      34.185960897173487      27.399615080400576       1.281849489119923
  1021   4      40.149940153449592       28.12411949712169      47.478960249917236
  1022   4      18.249465970995459      43.366590231665562      27.707291485463205
  1023   4       32.90608929354805      17.411127694478445      5.9362616380088582
  1024   4       40.62077291082128      22.799374871184597      42.125702685623175
  1025   4      11.679323217678245       5.860248725429992      33.650377543861978
  1026   4       11.97615070031736      30.661862841550025      34.644512341805424
  1027   4      12.587993541338591      40.611053003953316      29.248741649603296
  1028   4      3.8614932804401936      43.165967330570489      38.267513954399298
  1029   4      21.196651185919055      32.785960324210123      9.2240982370368609
  1030   4      35.417731774718611      21.599008165383204      35.231420066064324
  1031   4      41.071986534722157      5.8646868454575625      32.280887806945763
  1032   4       22.03501263196619      19.729996741012023       38.27957784593616
  1033   4       23.19005386869377      42.316704479855574      35.825298009642509
  1034   4      26.356421847109832      47.508383466375889      16.417206788296053
  1035   4      14.441151503578393      46.900752184717504      21.215242250425959
  1036   4      48.785323685800691     0.74465283587267339        9.73079317622601
  1037   4      35.858365854373133      49.436803076228252      16.010122472797672
  1038   4      6.1040640167040596      10.311431973716982       33.43400098607087
  1039   4      31.788867616335558      44.123861192589644      36.938963599926524
  1040   4      33.991165455135707      29.066574266070521      35.915059452013629
  1041   4      3.3630078346431906      21.822087997067424      2.1593719116957382
  1042   4      23.099581070598212      18.900099944206993      5.3931002710687137
  1043   4      2.9320409213463416      34.007692439121918      17.874457600842739
  1044   4      17.707175664443792      22.164833926904958      21.840872413953292
  1045   4      33.855609152522284      38.863243275340011      15.141366515822046
  1046   4      40.502567304737838      41.923102134422365       36.06468030474781
  1047   4      12.685943149264789      38.182150398490371      42.655250590049434
  1048   4      3.6404161103083106      22.361354973910768       36.69523525698618
  1049   4      24.593995185901996    -0.66577574720920341      32.804062758019683
  1050   4      25.576831699555314      19.120155756399612     -2.4982103325705198
  1051   4       39.44229866564924        6.77568508659503       41.00151133932156
  1052   4       25.34228285622827      27.470506018032076      21.741608239952587
  1053   4      8.0510170561432073      3.8589956660119711     -1.5319261375065523
  1054   4      34.400286539155047      7.4957227404161255      35.682116940850577
  1055   4      34.470193620813347      11.709634245100807      24.306732099216291
  1056   4      47.118890693123198      10.398247950221673      30.980806149496999
  1057   4      43.456376586575104      30.792431046402267      6.5044761152765131
  1058   4      17.781618713234735         3.7575901707599      42.690732161830724
  1059   4      19.887939396509239      14.055668837447715       39.46722814997613
  1060   4      15.992161447722793      34.934311234708467      16.816884284346187
  1061   4      25.297123963194512      45.873878383142817      48.568368394303363
  1062   4      24.064881509101845      26.955517389988103      47.661417617658948
  1063   4      28.586317079209778      18.422162882258327      13.634117872510956
  1064   4      36.060124800117869      46.811587213541181     0.11557075970017626
  1065   4      28.222205174432165         44.992892975181      36.518183538514933
  1066   4      47.866532755464377      39.620184755370623      43.205590645641301
  1067   4       45.04495513888255       23.40634499151216       8.137572600142235
  1068   4      10.549838081871979      17.340257722267527      24.103523332553685
  1069   4      37.703106921734836      37.632027843032532       27.51378221786765
  1070   4      40.735225382054189      17.679955752231113      10.577282712569209
  1071   4     0.33588480431425338      29.977424456025119      43.297821213202944
  1072   4      11.175379090231287       32.91757601864321      43.848616690121041
  1073   4      15.770592558357698      27.231008174879101      4.3265280154450556
  1074   4      27.080426799717522      47.431565843762044      5.7915376180285101
  1075   4      19.864124840544036       3.496400037894833      39.527864853561852
  1076   4      26.142031545776202       22.90392813456495      26.595037152537472
  1077   4      26.542393365981638      20.772494919290967       41.19581773274615
  1078   4      32.391577104203513      27.073548396048569      26.463249903191336
  1079   4      47.748930012076599       10.00881410675043       9.251552362431509
  1080   4      19.135475002936921       3.226108086608857      17.889651026124362
  1081   4      9.9412935829175062      10.409437199147099      40.136320866423922
  1082   4      17.487161735105683      35.367051870325966       3.434377743842111
  1083   4      21.928507346680725     0.41364081488908905      40.529804516452209
  1084   4      7.8594870190261092      35.996551736323838      40.052384134575092
  1085   4      49.374534990162999      24.972734820736918      30.071468280099303
  1086   4       27.02633881859887      39.770805978610262       30.54751610901975
  1087   4       15.41316147302507      32.285871818913883       3.666986380589758
  1088   4      22.925001388502718      48.131572086373509      12.819682230225643
  1089   4      11.372224644228067      31.203339035532341      47.073249493145084
  1090   4        2.47815403203129      30.134257770340565      13.880056853988256
  1091   4      35.321018328202292       7.851556126263505       4.682191817041093
  1092   4      25.542823567814775      32.787865854729226      16.615753360011023
  1093   4       13.38947970480254      1.3418165834111524      14.768089101974057
  1094   4      40.938049955413682      39.391597811181676      28.125622663530951
  1095   4      48.141305939062448      41.138567782610842      28.949671404969997
  1096   4     0.89734905538215615      7.5984812485058111      43.423007412031048
  1097   4      37.778611611125349      47.041434793253018      14.180928008181121
  1098   4      19.692988184405039       21.58318837595079      14.843219033751323
  1099   4      18.822186576187509      14.663849625830315      13.285881793459165
  1100   4      5.0265315631010541       34.91358534551577      39.713906415608712
  1101   4      17.183879248950021       19.30929401632249      29.895425458058646
  1102   4      20.933210585065801      34.000910311643523      47.976537362839125
  1103   4      42.100428558157247      35.411505480787071      15.187217585595004
  1104   4      24.144788546786199      41.156306238117814      28.929024849395663
  1105   4      44.087377241677501      28.268215859544259       15.57980158113128
  1106   4      4.9079768047271095      28.061454033589335      48.870832042193932
  1107   4      4.5507093920794146      7.6674356582227263      42.232549892424224
  1108   4      25.548368050741942      9.6421994555857555      24.964133784609928
  1109   4      19.630885723641523      22.919961316284738    -0.32266519219804202
  1110   4      38.464626179061099      8.4052532926785304      14.516883327781175
  1111   4      10.897014008011148      3.2201918167680823      8.8274720387894483
  1112   4       15.61860657285245      28.412251489169812      40.855362584020632
  1113   4      7.1547366979423188      26.837753049040664      32.841295616929891
  1114   4      45.676962192713262       3.746059807022001       6.586534878776197
  1115   4      18.908279015979073      42.732034152263772      9.6789667982782994
  1116   4      41.392266547466178      20.894811901881148    -0.32961659913716906
  1117   4      21.435362215653292      7.7113838349520254      16.001074470606504
  1118   4      1.7664849780357752      43.062799434440493       35.19996587468367
  1119   4       17.78189622991399      13.910932893087454      33.450568110080305
  1120   4      26.122479631496589      13.495209648010338      32.525647989420357
  1121   4      8.0357565748896693      14.317297305665182      3.5898587946130722
  1122   4      32.801084548915895      35.566013522414906      4.8035966341009999
  1123   4      5.5710096075898727      37.491865347995464      46.581464532005604
  1124   4      47.155194747102087      2.5532211790578518      35.835090653621364
  1125   4      1.6178403115716775      17.668117782425668      41.855212385729175
  1126   4      38.286668358818915       18.47214954215492      17.442728130895279
  1127   4      43.718672713547441      40.746987180313212      36.965384445880616
  1128   4      37.743521434945528      34.726391448803746      9.4541501104582188
  1129   4      17.364353540862098      17.573980049139323      32.880505955021441
  1130   4      9.6487555168879009      25.521052084827939      39.073442679503486
  1131   4      18.441102509216147      33.000903175380081      1.8950149337824556
  1132   4      9.1334471457031334      9.0576391613348584      45.156893110049921
  1133   4      30.443495078228743      3.8704640574512021      39.418972415388062
  1134   4      4.6725440950851445      19.610506593741814      11.317195399489441
  1135   4      8.3810090107640249      31.667376103854515      28.250236767016411
  1136   4      28.997021656661005      45.842614572808458      21.197587251036843
  1137   4     0.80294128966648426      9.4056091358392493      28.196255317703418
  1138   4      26.340981581732411      17.090865032613276      33.696467119900205
  1139   4      45.290202506272323      15.925588008148255      22.007942577732202
  1140   4      16.015533124250865      47.985476571453852      2.5786657295663566
  1141   4      21.196063333603163      1.8482034891877972      3.6060656496348087
  1142   4      2.5799793024128888      7.9112298945019299      25.090398551582201
  1143   4       15.97473081469429      2.5861037666030113      28.113545451317322
  1144   4      48.343212746608891      3.6021410727941401      39.235040104251304
  1145   3      26.210925945322387      15.382192944941565      32.778392947529717
  1146   3      48.214178308286762      32.671993932480703      46.208717290147412
  1147   3      40.200100439052427      20.783363768941008       29.78403748308973
  1148   3      22.930194310949904      42.733306983381965       33.88674264033861
  1149   3       18.68286457542678      33.942313636689569      3.6362974723614823
  1150   3      41.718612539166109      42.528375681345338      34.704033430814697
  1151   3      27.442499750364657      13.227241193675471      31.343893020794464
  1152   3      25.227726936871743      8.0827287400256385       40.69216116500197
  1153   3       29.01977136541981      37.511955455877207      8.8789457894538906
  1154   3      46.764384123272059      1.0830002363389748      9.5063854606013116
  1155   3      15.093526879391147      3.4110656045138712      29.552658803223235
  1156   3       31.11485431898512      41.525632576363449      3.4730196763597019
  1157   3      40.086205104050272    -0.74330226863904092      29.946970433050002
  1158   3      35.709991312418325      48.949754674673571      17.767967493263459
  1159   3      47.969181532480427      4.5214722907164058      17.811344430866665
  1160   3      11.035243659528648      1.7757200563526327      34.853762223598714
  1161   3      29.687422233155793      43.918476615955363      21.306579384766518
  1162   3      5.9948366325240787      12.757227011873608      8.7097171102035471
  1163   3      6.4486432438174646      20.233132065818602      11.660376253995342
  1164   3      25.922900164156257       41.04137819663498      29.682516994223747
  1165   3      25.929600117461263      9.6542759792127608      43.197414464481703
  1166   3      24.743388119058103      47.089421594534898      34.447650621022447
  1167   3      23.362126739896208     0.77068466881923448      23.451039115411117
  1168   3      9.1640752148486566      19.451067335894805      28.922653438122943
  1169   3      9.8407247431798037      10.574720200515529      21.776192383908338
  1170   3      44.790472574087261      35.901284434332048      48.242065794348321
  1171   3      25.846777163219794      45.046003397851315       25.71145009658348
  1172   3      46.564873723788708      36.769005537745265      16.412070255130061
  1173   3      1.7351409962788999      45.476755290349352      27.128703907734433
  1174   3      46.858267914303497      39.587432366401252      9.8353666340006161
  1175   3      44.824888708963321      25.087566194615679      31.106689349573497
  1176   3      24.758551697375879      28.041323678261847      23.417651501479988
  1177   3      8.2863839500676697      4.3920740951796589      26.752812095201822
  1178   3      14.250852327630639      48.750975731737213      2.1344039734965641
  1179   3      44.521346890550518       32.19547802873695      36.935198733424237
  1180   3      39.704181413042789      16.133654223701061      10.810759162155405
  1181   3      43.011974728712154      21.057069154189193      47.429826154605763
  1182   3      9.6907817258406634      45.843367755359687      47.264624782073916
  1183   3      33.725812873185554      25.945364006165491      27.033178426455308
  1184   3      31.541771075087844      45.873509920716259      37.519910533356622
  1185   3      31.299808665062358      13.736165620648453      38.252641651553503
  1186   3      23.626317980095251      47.626365554354557      41.020254169637816
  1187   3      6.9345648634662123      18.790679105676148      7.0847221338400415
  1188   3      28.970350909545715      25.951896234873775      8.1927868961057193
  1189   3      15.777159294536609      9.8107025847681264      38.071433009686565
  1190   3       34.07499624791226      6.7841405183146444      27.328110506401202
  1191   3      16.361242255115993      11.458200514677786      28.588830566072982
  1192   3      22.955902914027192      49.488484608590092      14.215319569676728
  1193   3      20.865422124340359      15.748001050365428      39.323374102090213
  1194   3      34.468666326758424      36.666439833892277     0.48980209124031032
  1195   3      28.362449597996534      42.785491985531728      19.253300545958471
  1196   3      25.086963432445547      47.042822452014796      1.1366512108208486
  1197   3      27.433105734188075       45.33450075416382      20.183982727118359
  1198   3      32.322737711244166      29.767699333646874       19.18088041829591
  1199   3      45.287738965335535       47.50490981967107      25.330850318634006
  1200   3      26.927763746003453      46.087646161411911      17.622028432452975
  1201   3      13.700101208427132      31.443489903040287      34.145487444332886
  1202   3      26.270939872750457      21.674386028012542      39.737209208437541
  1203   3      31.027110766700819      50.473933499272874      48.313835067285417
  1204   3      35.947902742475428      44.966125291117407      48.435317877503415
  1205   3      43.174263391162476      1.3614543615316061      26.011907725748284
  1206   3      29.923229146519493      44.006495640798427      36.515743400476389
  1207   3      20.771288517667319      1.6928580831561688      39.832830675885283
  1208   3       17.91401416667544      27.722007880257941      44.608959389124671
  1209   3        28.4023586669868      45.740005587974395      22.873601586961588
  1210   3      36.949853583265096      20.857515857914308      34.874744694216304
  1211   3      23.755534751953682      27.882566487825258      20.770149414528476
  1212   3      2.9675592554461296      42.152094831930519      34.093708431312429
  1213   3      30.421180465387987      11.421161331855203      39.880493208224507
  1214   3      45.459355847208833      35.045948280879422      27.585909038203738
  1215   3      27.136575049294564       44.20728678951648      43.747304979511156
  1216   3     0.27005969580065631      42.408882127729107      29.991622846898462
  1217   3      5.1363601098284963      42.793130126902795      39.946903803782043
  1218   3      3.9420773268158174      21.095678013119151      10.181315510949089
  1219   3       32.72493312079866      23.761091065954965      47.253575207451895
  1220   3      24.367596365355606      44.364607884698152       43.36535836117887
  1221   3       10.71949418355887      10.883375808543262      41.884725096995361
  1222   3       29.85232329642767      40.331292974138371      9.1477774355199344
  1223   3      40.428212861615044      32.436823662590392      21.569855668779926
  1224   3      1.8507160107559433      0.5752165960268717      10.087643919149498
  1225   3      9.7493308733282742      35.880809567472205      40.625074346663347
  1226   3      2.2689323000432773      33.938821293946198      15.978813363728252
  1227   3      47.471041769042138      37.363687981224608      19.023384836085004
  1228   3      36.500219656933751       7.409710155861144       49.03722826089453
  1229   3      11.716798993160305       4.444328739928622      34.955448473246243
  1230   3      37.995573433626504      13.480680787719443      2.5908369787875341
  1231   3      3.1635091998363376      34.443076420069254       13.38948815223802
  1232   3      12.429983236108942      17.373017548435296      24.642177410730586
  1233   3      15.876636100009712      13.436595481315686      33.512237457749968
  1234   3      45.363089795955062      25.366803061570067      11.674261965732889
  1235   3      22.719926303400143      17.943850143838638      38.895738325391768
  1236   3        36.8328446825521      37.754926823188178      29.209468571691922
  1237   3      34.686250407723989      32.969383121738908      37.868448366316365
  1238   3      12.591703818877829       2.188471233578511      48.154782568719639
  1239   3      20.001138507685187      38.040797788879011      33.655932813307565
  1240   3      16.450579870030243      24.577497036935622      44.274607548554847
  1241   3       4.095229799223425      8.2118829258224473      40.414753027969347
  1242   3      19.905424529065797      29.052933104046968      20.791291028695358
  1243   3       23.90310240970415      10.941017708253625      3.1703619169749855
  1244   3      6.0797257779226515      36.382111688208312      38.991732342871707
  1245   3      42.260067512723808      16.752155239189396      9.6434563445833561
  1246   3      44.237975582541836      39.183417317882402      35.946602068058439
  1247   3      46.242856594141301      46.584621281315698      12.179119153444562
  1248   3      20.892318466821649      48.652453105623287      42.116435078315064
  1249   3       24.58530638695791      46.733854552272803       16.48678760206349
  1250   3      19.281059731203008       2.116235942916977      3.6874723510593319
  1251   3    -0.19275788021161044      42.906225991648746      20.475208014892022
  1252   3      29.660953030302906      22.493842177456244      6.5614176892542906
  1253   3      14.715708679898375     0.24387574639361564       48.07482626268083
  1254   3      36.183873060755751      47.723024877703665      15.168902354924638
  1255   3      12.463168823498375       24.56594541753234      20.124567987409197
  1256   3      2.7255619938951789      43.320052343741665      36.673980231436566
  1257   3        6.67690528102833      34.904743279790956      40.948456230050553
  1258   3      15.064448429730412      10.410862863674813      40.649772635093854
  1259   3      21.304565538667237      22.246098770589068      15.910182845932793
  1260   3      39.839857132611343       8.121159749216595      42.143235271901112
  1261   3      17.147867525564934      3.1851916140743244      2.1834972136053397
  1262   3      6.5669253286402212     0.57392527440414109      28.677162281314729
  1263   3      27.162145464624373      47.196838861850118      4.0000534713304443
  1264   3      45.413518396037297       2.145661641073024      7.4278070865201808
  1265   3      26.448404046581079      16.443497396312608      35.365411815306018
  1266   3      41.068648499538646      43.397488682413368       37.08237328131392
  1267   3      14.254580019657078      44.839420468758298      44.168331223352446
  1268   3      1.2404370468216779      34.771039265002386       2.588278728676523
  1269   3      5.1217483689246341      2.1426892665569732      19.457251419961096
  1270   3     -2.1909422788923041       13.03480969283093      25.116832139204547
  1271   3      11.260939716705515      9.2479818940586132      39.680716504828638
  1272   3       4.484497189269276       29.83053549793804      49.320672984665229
  1273   3      10.702199551079502      43.832305876218079      14.167559774171552
  1274   3      40.569189879624687      1.1585256218941145      16.376505869870059
  1275   3      2.2723745512435669      13.702263328547225      37.034270363582451
  1276   3      2.9739663182253797      4.6466241209690526       13.73205531698135
  1277   3      13.306131085274057      11.713565929915875        42.3798742662755
  1278   3      15.676446295089663      11.176423702144426      35.313438722398296
  1279   3      28.826915327678201      27.688560727150588      5.9070276159324671
  1280   3      47.664925476009174      10.896330168139183       3.801395526139228
  1281   3      10.765188133294485      9.6242632939043062      44.650099670871803
  1282   3      38.271150040430413       29.61190948775004      7.4369404462634874
  1283   3      16.072553997766502      47.029410980526073      47.023119865843171
  1284   3      45.434669382811755      6.5924727710051174      47.167781305479089
  1285   3       18.31674656552293      6.0338454064025591      10.211564605890036
  1286   3      41.807147772979775      40.727700571990532      36.684630298919217
  1287   3      5.1216696114017131      6.8430040781539958      43.973297076530201
  1288   3      17.425293806794006      34.610217353561126      1.6388666398603955
  1289   3      47.591579179989118      24.782536778935352      30.791736091358484
  1290   3      17.264935116020357      8.3225826267397842       40.52643418900611
  1291   3      21.608564643377619       2.952761040097887       27.18285275929512
  1292   3      18.920259922275239      25.081477930290003      45.388408073698891
  1293   3      12.013006415147521      36.546687934939555      42.132602756552942
  1294   3       22.30818518077028      26.455582242003043      48.073870360078971
  1295   3      18.486703019576137      21.073415438985347      16.039750847034277
  1296   3      45.783208986437458      3.7033209321212293      35.653711881240049
  1297   3      26.724049576812945      8.2692573737404924      25.142525012111577
  1298   3      2.5902433232965523      2.3069515835505312      6.4140261737192086
  1299   3      48.885018627186341      11.738415526698695      1.1369935002335081
  1300   3      36.970978939445772      24.998283592605166      29.160493201820621
  1301   3      42.438883293317836      27.067210795418916      36.488464993883213
  1302   3      13.487361758375275      26.112286633721443      17.918224280043617
  1303   3       2.746941457263278      44.163058545034822      29.601750298419113
  1304   3      22.088912989346696      5.8728647679230885      19.742109473504705
  1305   3       14.76549844184041      29.924568478542195      28.899104716089759
  1306   3      24.884202864027642      41.544429594287536      35.307846814375992
  1307   3       43.13298389068251        1.32322084156806      28.840974713381755
  1308   3      32.122806619640272      9.3348787550423236      1.7862957648646738
  1309   3      39.295223719138242      19.012916300039961       10.80209885817461
  1310   3       42.22434313079065      23.901309677045877      32.096044629746977
  1311   3      33.041738000982697      42.286597277845765      1.5165659539015828
  1312   3      23.304430305745125      44.802695128216378      17.763719274108656
  1313   3       4.016015560604794      17.124187527792269      28.879376327104097
  1314   3      23.292580973097333     0.25206011234357906      39.064036319710169
  1315   3      26.441732054436326         32.941148435098      35.492440637940028
  1316   3      43.916939425028758       19.88135781572748      13.807237309601412
  1317   3      21.228423406473556        23.6057542781157      30.615082046255218
  1318   3       16.84602020196272     0.59148848334326731      46.054824776364271
  1319   3      44.537614923109828      25.011112594968807      23.308820102764152
  1320   3      25.447746687037537      38.863186908043815      34.511349570452644
  1321   3      13.137283103943444      31.591677116857742      46.522344868030494
  1322   3       15.60061071377315      18.848726276734713       29.34729166944317
  1323   3      46.499751434518714      34.327466133236669     0.85055750914927075
  1324   3       29.23409622531236      16.147846039146703      44.752296493366309
  1325   3      22.361370954628125      46.619582264329601      43.312012298414622
  1326   3      17.258350005983978      15.741457962666038      33.122924524005661
  1327   3        25.4695861235523      7.1670931290790563      44.434189757059073
  1328   3      15.872931195695555      33.994641802794597      3.9895838706804558
  1329   3      47.568965064654549      3.6736753399570881      6.7126831936246605
  1330   3      48.027899321780886      35.283444898237654       44.52860613057787
  1331   3      48.256225226384259      42.979550908226521      23.351352042545226
  1332   3      31.199969123428943      8.2400662165083691      40.879423161547734
  1333   3      47.223003877786383      37.880792398943022      43.810621939199976
  1334   3      14.078010552122629      10.523956405623931      27.185189928852665
  1335   3      36.501130887222992      26.456041796764218      26.746432949726302
  1336   3      16.743614368791384      29.906974762251018      20.129274206891715
  1337   3       21.62195631346853      40.112565707533811       32.87564984724127
  1338   3      18.157350980114522      23.320783399967606      47.522289756572782
  1339   3      14.600275749415264      29.034461577419734      15.439485117917513
  1340   3      2.0634587047367137       31.96534679476849      14.141835182498481
  1341   3      17.957194193664403      14.070448555793666      35.352263289064496
  1342   3      39.231550609724401      26.399866254255183      26.842087101985427
  1343   3      22.778355579279346      8.9455813504362833      15.457140630468862
  1344   3     0.33383733829064188      35.267268220223187      28.770106774354716
  1345   3      24.531704975538521      12.463063514816143      14.780198155032382
  1346   3      17.844106953238594      4.3474135596402261       4.690447417280124
  1347   3      20.183886791614292       40.33570008000649       3.760453158516655
  1348   3      7.1560532208268421      28.430381486928599      8.1875628121856252
  1349   3       23.36553448083782      27.562968525891758      45.841051275757664
  1350   3       6.777074522408018      3.1461563619337625   -0.089972160829575973
  1351   3      5.6391995858940103      14.069219412025529      10.901921323545533
  1352   3      36.457086392523536      47.185276355785803      46.980107278416334
  1353   3      3.6244966517431072      35.131257866635195      38.437877487798829
  1354   3       2.860419033119904      34.791516549396817       7.993712366704532
  1355   3      39.489366020750552    -0.28592927879149188      2.6442154696878184
  1356   3      18.095165446325424      14.568562213362599      39.261621462949073
  1357   3      12.827017439588834      31.994710093066924      43.846722622706643
  1358   3      30.003211861263981      19.339921498676091       34.19739471815231
  1359   3      12.357481420090897       38.75544671596225      28.644493966862555
  1360   3      31.788046646858465      41.203267698469524      44.014509487026515
  1361   3      39.019192336790624      47.609293412884014      15.513672814350691
  1362   3      19.752921380154859      13.743811208774069      37.467901114957641
  1363   3       47.25928702982614      23.247370010740084      12.094977697185051
  1364   3      45.256335365818281       45.35527034693947      9.5638041252887156
  1365   3      45.690146494167415      45.574563819302035      23.801498416346959
  1366   3      41.524482301752037       45.87972485124466      38.187101221857283
  1367   3      9.7627674370328368      4.0275756807538121      46.558668485539933
  1368   3      19.873155903866667      25.704684978611969      38.991933531757013
  1369   3        5.22024516517601       18.64719612263233      9.4976070671364372
  1370   3      4.7524625607013897      23.061174588085688      13.671282197933287
  1371   3      36.264533306944898      36.307187436204984      26.839289146742953
  1372   3      16.635378142444257      46.164002937549789      33.905326266139355
  1373   3      33.870294668934903      43.786905032016314      37.205601690232449
  1374   3      22.959830706283991      46.677037918355254      14.221847838805665
  1375   3      5.2502984047560854      42.495661464992047      37.172487723926068
  1376   3      3.9489883628864084       47.17016929236167      10.395012823948978
  1377   3      4.2136649442209251      6.9655657982134107      46.883118722269636
  1378   3      14.958980738010146      32.674443082472784       10.98746896941633
  1379   3      6.1973190514254908    -0.39333957667972985      18.807277975270786
  1380   3      30.989233865387607      7.2496967311435672      18.307671510611662
  1381   3      31.745823016061305      42.364929038002757      28.588743117311605
  1382   3      1.4691054146561264      7.9702083067685656      39.360298982900375
  1383   3      4.2307185143874069      36.171623971971258      35.731619481022825
  1384   3       3.547990816011569      33.430300965566218      10.746494002989303
  1385   3      19.074225109035051      5.1738063561371721      39.111082326251783
  1386   3      42.131278013724057      37.470137102364149      4.0875938885108791
  1387   3      13.732204856695262      13.741589349155182         46.033423244557
  1388   3      48.040301689316017      41.667799060575234      27.053332550447948
  1389   3      20.989121282081737      48.873440126159153      3.3586594506080503
  1390   3      9.4817854129711243      20.233670438198796      45.055325768142808
  1391   3      33.348430529434857      39.374885149752131       13.21006104987976
  1392   3      15.011979554162053      26.305460611429567      20.100847062730658
  1393   3      20.040773467597901      21.416391826712452      47.157544433154598
  1394   3      36.040613494659524      7.1552742963123279       34.93721775583554
  1395   3     0.22654534914713237      6.9972435992740296      41.793480579099985
  1396   3       22.13627794618213      49.047451514950588      11.221371307717325
  1397   3      26.286299020563341      7.6402010343336828      1.0779724264659034
  1398   3      9.8131137341776267      23.321436906292995      25.651261744846902
  1399   3      22.768262575150963      38.301918096437106      34.790088022572299
  1400   3      35.915589488834335       44.81449804436631      45.625419469361134
  1401   3      28.205338337609319      19.780081300028357      12.290699129614366
  1402   3      20.527905015872584      16.347117041342862      21.451018725413114
  1403   3      23.272702313638018      41.633221664212833      30.635235639919422
  1404   3      36.494973399326788      29.712371924896594      19.249877232925112
  1405   3      17.977637424121649       13.67810147054197      31.517184733947182
  1406   3      16.892109374358277     0.64181363940343938      3.2625019139181979
  1407   3      29.170727983129115      48.816161995194797      38.827791283002924
  1408   3      33.606356903619279      8.1829331267319088      4.1818530396326121
  1409   3      44.180228049347548      41.952095008180088      35.534494465057591
  1410   3      46.473554973623663      24.228656520146767      9.2375813692174855
  1411   3      21.922852331861275      43.134740723934407       19.75224528998201
  1412   3      1.2895171275061716      35.763594457447624      23.220621594808467
  1413   3      45.992907067601607      22.874361608107183      6.6363317452317796
  1414   3      42.692481219706778       44.32191292751898      32.862362037296698
  1415   3      16.072239204108101      11.580488748272318      31.423639380448755
  1416   3      28.576461065800551      44.048284383643463      25.278250660686862
  1417   3      4.4779584100059298      33.228873390073375      17.545578992554898
  1418   3       1.649661127400514      32.438802884571381      8.9541140551601721
  1419   3       48.26578985645542      48.493429195311336       11.32778705908707
  1420   3      2.2588005026466238      22.617067929917344      12.066680473697886
  1421   3      47.179939338992348      9.7741812028203334      7.5254883850712853
  1422   3      2.5706378787808064      34.348754251985795      19.813997939822425
  1423   3      11.409964315467715      46.323788327169055      24.437287981561894
  1424   3    -0.97150847447366562      24.771309565330785      19.278083744280305
  1425   3      49.191277818266791      1.8109737992673245       8.037276029183051
  1426   3       6.405801105066641      9.9046415915985264      7.4571775308097177
  1427   3      30.959713695008087      34.701329128486456      4.6597850201863551
  1428   3      28.652078395980404      40.559799602086066      30.404854011727259
  1429   3      6.9142405548368524      46.153024380241177      32.244213866728749
  1430   3      24.331202753195605      46.605919267314611      37.816444504627462
  1431   3      9.2529213557818082      47.682572594524991      9.5392231290130471
  1432   3      41.000340928610555      38.017649626266547      1.0476635016584117
  1433   3      43.390195895339929      42.446689269922139      38.175128171323152
  1434   3      42.182895581951669      25.475724019882971      29.546468071411418
  1435   3       38.77345358486803      23.118469427691053      29.996803485413132
  1436   3      43.065730517079388      12.493792394234134      35.481975798485358
  1437   3      9.4597349671363329      32.319700265840822      37.760933372732012
  1438   3       11.56880346151274      12.117520574344283      44.583280253883686
  1439   3       2.136015553902888      33.264059819654591      29.837430107391615
  1440   3      10.062241848484346      23.063302191278073      19.505610499442199
  1441   3      42.471677959938674      4.3231034676614684      28.366947273396843
  1442   3      34.764662357981422      9.2807438899058656     0.87377951341572113
  1443   3      9.4426472668208721      10.745870800024109       24.54291053656701
  1444   3      7.7511506009898437      22.927014273447277      16.160059653147897
  1445   3       9.303974322475602      47.353362742701982      33.080508496511797
  1446   3      4.3287209032698799      30.332704840687001      13.481435536368442
  1447   3      20.627049986318983      27.384532616907109      45.439408890042081
  1448   3      3.9535001910200243      7.5232242590161995       37.71291399180933
  1449   3      22.769408530394923       33.60113480766185      9.5647379607370908
  1450   3      51.163277906533821      27.225851958019888      39.528488882424341
  1451   3      20.375619066182399      19.065269099201643      21.282447431293331
  1452   3      18.640539049812716       29.53707791460841       17.76284129440668
  1453   3     0.64013980166370277      9.4993993276195567      42.992925865296407
  1454   3      41.309808158465664      26.192175189790504      32.309286105282808
  1455   3      24.173028837467136      18.767147486903994      13.783833802488369
  1456   3      38.018212116097111      26.922051488725888      6.4447249140319727
  1457   3      24.347888391447267       40.81617467792325      32.816088858020137
  1458   3      47.211840715353944      40.835088829626926      44.308686998102083
  1459   3      39.263213942592735      38.602432122473317      27.942993216895406
  1460   3      8.1816229668397202      34.447910514888477      38.835941587992465
  1461   3      35.723444712607844       12.73023796038443      4.2792375851793274
  1462   3    -0.69612054349623254      47.008665941391854      25.195089190865261
  1463   3      18.359693136206651      42.089237847668038      8.0825686030833168
  1464   3      19.607321889961998      44.397146158361785      9.1155435581902502
  1465   3      36.997786005497872      21.982211667420128      11.723652372196153
  1466   3      23.503133962385004      45.699638298228336      27.540044008377041
  1467   3      48.108886767785862      3.5594440046685185      37.374057242397001
  1468   3       3.997855402383367     0.94783806848872176      21.784352786998618
  1469   3      45.034511740600877      17.763621092399628      22.087564934447357
  1470   3      13.252858875864501      42.876480755675288      15.207094631361198
  1471   3      32.021515457977621      2.7741440621455973      39.609724868963411
  1472   3       5.595900872779338      30.827529777837128      8.9637555340454416
  1473   3      29.777418259596438      7.9997929611619165      2.9568197896999897
  1474   3      7.9948114416250089      48.018390241855407      30.653192953845668
  1475   3      47.522967584802274      44.217182856817338      25.775138976963529
  1476   3      42.687012506314545      47.641282105589582      30.654396427939858
  1477   3      22.475561280989979       45.09540488336205      8.8737275841528955
  1478   3      48.501172032061064      5.5377886131013998      39.426116729886758
  1479   3      26.950190407889682      17.738585959778121       14.02943000409989
  1480   3      16.930932108940262      31.890141713376789      2.6056273246679496
  1481   3      28.601863596636399      2.6067932413160615      46.473326672093449
  1482   3      14.895223952067232      42.026930372405431       12.94636145759493
  1483   3      8.5741128752458717      8.0700907614580171      43.650441896793268
  1484   3      25.709733211504645      43.563808722613217      18.371730718179325
  1485   3       2.417316116628367      44.667948945640767      32.221251393980964
  1486   3      31.240474345113796      28.853278276964868      26.141709091784257
  1487   3      15.309691440377231      28.222107462632675       18.22490320703168
  1488   3      22.202891537537205      25.826691802327314      1.8363146891674349
  1489   3       38.18602592492838      48.763540295315323       13.41500597225536
  1490   3      48.143948667103572      1.7126442516754958      39.373811937520827
  1491   3      31.384901248896785      40.865797920336981      11.562332990531567
  1492   3      16.804382532338302      12.512422402228228       37.40154372659164
  1493   3      37.883098479100717      46.845615516367147     0.82195369384452177
  1494   3       30.02350665755602      4.7441252238720066      19.125580564158348
  1495   3      33.962403557560215       18.83212316846862      5.1251013704839297
  1496   3      18.285849245724801      1.9096640772865112      18.645211105364076
  1497   3      47.399960562602935      36.096448164928866      21.855620789296104
  1498   3      47.920050373836268      9.1415690075345353      40.612785567827132
  1499   3      48.132416671093672      46.321479912399148      14.480470469682777
  1500   3      26.379465957702173      45.429635083138841      36.135472699056919
  1501   3      25.006217089125027      6.9831171819921485      47.434886869040028
  1502   3      11.702138129896809      39.323915224170101      41.649417002657145
  1503   3      15.079226837930152      26.658946789875923      15.596999961056902
  1504   3      25.848406823523636      20.993781413373679       27.01887778415745
  1505   3      18.212959889061469      22.197030973060556      45.296317002422711
  1506   3      33.855642203713508      25.663024864832039      49.132526209670274
  1507   3      40.972247149908441      1.5276380180695075      19.264208521611533
  1508   3      18.419877705294684       36.88256020129262      3.2019315553110905
  1509   3       24.57188191565956      26.076654004954481     0.55976365766427372
  1510   3       2.020997100652417      44.909881440373752      34.697735956394745
  1511   3      44.707348975912282      44.898705776422503      3.9735232247080075
  1512   3      3.8955208334776072     0.46280711178068251      8.1802958752169079
  1513   3      36.428624016323006      44.569544950823762      22.837994999284664
  1514   3      17.452640226542229      36.937914888109987      33.349901907242902
  1515   3      11.151111554712399      1.6434972219683894      37.808384984667441
  1516   3      16.163676170443011      26.497482180092586      41.827411046460988
  1517   3      5.4983957150826361      32.768508007885032      12.732373796699267
  1518   3      4.8307730292393298      27.894360937802897      22.580648462409211
  1519   3      2.7831977684698681      7.7780966181107702      42.923672626001476
  1520   3      26.229058803328538       26.62083238869652      5.4594479752170981
  1521   3      6.4600247094984544      7.8136314508529665      41.720345451677481
  1522   3      28.419071119753603      22.046042308992437      9.1363773847072967
  1523   3      37.313263398678671      34.405452215750195      2.9343426963420369
  1524   3      10.219313455334539      25.336601577251223    -0.84771348407070757
  1525   3       21.02853087237278      14.108753261085109      23.359596631583518
  1526   3     0.29177917993111668      34.376502554978494      21.310405592735467
  1527   3       43.47523445916098      48.976375881770068       23.48239716901783
  1528   3      16.941415079797672      1.8018804198987624      48.454672727326042
  1529   3      5.7136569949843219      33.494949963599758      38.630327846681695
  1530   3      1.0214876209578454      36.599765894934357      20.331733228724058
  1531   3      11.961229991418696      11.071206269534274      25.151228756053968
  1532   3      14.645323401325157      2.4746279915026657      1.0482493638207095
  1533   3       12.55813113434761      16.798123416144453       16.80545406261886
  1534   3      2.7631874818124449      34.536439732757628      4.9372504675882913
  1535   3      5.5585890395782629      41.217843892242939      34.114675368662937
  1536   3      19.629258194482595      26.563204024197365      47.777891745163522
  1537   3       12.65188946301719      8.9319836869429441      42.303655064930069
  1538   3      36.616148669772961       2.788496290453971      10.670975838169207
  1539   3      25.554248525648351      48.828798230379185      15.200808995469178
  1540   3      21.096211708762574      24.048610031377464       47.94258608837788
  1541   3      19.472092941093248      24.437197783687935      1.0011823567628799
  1542   3      9.8900094679501311        22.1907398733299      28.057298112497271
  1543   3      21.684813207949585       2.431996501314567       21.51762524404074
  1544   3      18.851603727999589      48.474034013837851       44.19669762311338
  1545   3      34.587643349758146      3.8918194586578436      27.338286032787643
  1546   3      13.785611393834653      46.824425275976346      22.992847195908155
  1547   3      17.801102062528592       27.68439466235936      19.649395572279779
  1548   3      45.553780691163276      36.057198467390634       45.48513165697139
  1549   3       11.22679960778809      33.892150501066091      39.279083240853133
  1550   3      10.872109671554194      37.030320300189118      48.088476888483378
  1551   3      40.938416437527543      13.816086646175423      1.7761100594428036
  1552   3      15.754950920236384      35.243275481084929      10.512137812633942
  1553   3      37.781425221446341       15.62870723844547       39.11976976301866
  1554   3      39.420310039889848      25.662720088982635      29.777994422099429
  1555   3      35.934220158977702       12.91762720614576     0.60220767762006999
  1556   3      33.656023619015976       16.00476104296855      5.1676736210886967
  1557   3      34.460206343173645      43.390953403162847      25.941199670748663
  1558   3      22.149988190229394      29.080232389107561      22.779899334824147
  1559   3      30.921904683095509      26.978736469980266       16.83250234517195
  1560   3      45.065327105601568      36.190130562999109      35.897217879336281
  1561   3      46.852862660300907      35.934706221198347      41.753433239066048
  1562   3      9.5100941978976845      28.340574259302084      16.268343593114363
  1563   3      15.270003511015512       28.77003802101969      24.401810600396416
  1564   3      26.435025323009697      28.121466187485673      42.081374838501908
  1565   3      36.076907073042385      8.1031360530007817      2.8736664380431773
  1566   3      18.849959848436555      3.2216396971483747      41.072435099003549
  1567   3      10.394264974609108      7.3056527300293217       41.38600850268304
  1568   3      1.8232052354806394      8.9116310574211219      26.577708751326824
  1569   3      48.060444544988925        7.48037961679755      44.410504513392496
  1570   3      35.856789297823596      27.693457932908409      1.4325960773733166
  1571   3      33.851902437673097      48.925602319608473      19.862569955664782
  1572   3      24.170269500932406      42.893939601189899      28.269279539911263
  1573   3      20.942390604532445      47.606046230573376      12.793911122248913
  1574   3      11.138763429694299      42.655456230453986      35.012367576400536
  1575   3      26.722348658078225       39.75053806884344      32.381969492468954
  1576   3      16.424792193690475      10.757222979259716      46.751586093663398
  1577   3      11.523372684232868       33.85219172233775      42.094292459947134
  1578   3      32.964132626350391       35.73330030193096      2.9764204022688889
  1579   3      8.7089268637785686      26.175126010209549      32.553988232446905
  1580   3      28.906661718812156      46.389847625537897      37.334522566378546
  1581   3       28.16446938887216      19.767950298340608      40.464293600660703
  1582   3      16.251596231186621      25.568049909994816      4.6159514240842432
  1583   3      16.349207969847448      18.875569193876803      16.954227728107053
  1584   3      44.094275467298061      31.513364847430093      8.1632720049798611
  1585   3       22.22157533328156      40.684637986519348      35.515933674577774
  1586   3       39.47947125961106      6.3577036735297998      32.946481546935793
  1587   3      17.839877758574325      17.731893523694907      31.091927908870638
  1588   3      41.342556278054694      46.316836123288752      2.6807941200826173
  1589   3      3.8249956217076337      33.376483421775454      2.1469284388278087
  1590   3      28.937620323547797      2.8167842244393082      39.283931381051012
  1591   3      16.305271851546731      27.603574784566835      21.988514343123018
  1592   3      40.103878772081252      24.092126943954323      27.728980432242057
  1593   3      20.552876165384742      3.5573253715558057      19.199264304649471
  1594   3      32.203835876544275      27.856088882000417      28.293531180346566
  1595   3       23.88000359897924      44.292076873650117      35.907315083625967
  1596   3      20.761141475918816      1.9914791545104171      24.037794478514069
  1597   3      47.311936348479577       22.12587386426155      2.9066513642690452
  1598   3      44.701739600919232      48.039983990975799      10.170663462652104
  1599   3      28.041628498479529      46.838346373151559      25.400205443294816
  1600   3      12.610137480799937      5.1678363841672628      32.125123406811419
  1601   3      43.041960160853691      4.5434571520127891      42.658112637592147
  1602   3      46.361831578897274      1.3007776669198516      37.237905996174376
  1603   3      16.035480003556401      47.469062427416283      44.327156445553193
  1604   3      35.066185922620711      27.316424700304044      29.000520199961578
  1605   3      35.658970085063231      46.807947218918244      21.063905668005674
  1606   3       29.13597740588877      41.210331772821426      14.224989459338667
  1607   3      11.182299914173191      24.521605340190156      28.094845004814314
  1608   3      31.957962051350741      2.6584950120290745      2.2340128568130662
  1609   3      17.914003264133026       5.583835458413847      41.492681995954818
  1610   3      16.036238877812128      30.902844061944542      31.171608394576872
  1611   3      36.800250984874559      10.890168501988569      2.1915144378749511
  1612   3      19.926194535779981      8.5473002428686069      15.606140830710864
  1613   3      36.478755423673576       23.83568915156458      31.595829555081906
  1614   3      48.812788188700793      3.1731947791763431      34.959185427909354
  1615   3      24.734581017571365      48.878247737601605       12.49255556440958
  1616   3      20.969491231320163      47.032945912028296      9.8503583743328615
  1617   3      4.0078957888268221      20.622340140630747      12.849346311315612
  1618   3      10.206365730786448       18.99467287593253      24.494413275126036
  1619   3      38.288813519239945      21.753698981744883       27.56919139225802
  1620   3      35.269136200721199       13.97585229572492      38.659029474998071
  1621   3      43.042598469967736      38.117397656948185      47.697882829513006
  1622   3      34.988930847593998      22.258811526177229      33.436834683121788
  1623   3      26.661075480745207     0.56528939667941513      25.494901834103402
  1624   3      41.054188991574577      3.0374674037461116      40.720569428878541
  1625   3      9.2404665655130884      15.656756960046932       4.290114452628826
  1626   3      8.7065140322674939       9.219565982362397      41.102462004347117
  1627   3      45.488965761966483       4.692449321414955      16.385162316779493
  1628   3      27.971615773513104      17.560833429767854      32.926667714397773
  1629   3      7.8063109609009631      11.991348504144966      20.338987120403814
  1630   3      48.354496606361799       6.393600125002993      47.171775039401943
  1631   3      24.922116066323792      10.529624094548618      16.361111181429099
  1632   3      8.1778527836670794       41.55868690002189      35.764376862004575
  1633   3      26.296604600559601       4.480556036070019      47.290179218960759
  1634   3      9.3318312468064413      20.249122343945444      7.6651869501093346
  1635   3      3.1641561192855949      3.8347030591641276       18.29090223457024
  1636   3      45.759923633030937      9.2238794579250492       5.070258618427717
  1637   3      20.640239223238762      40.849003824094481      20.819358628232937
  1638   3      28.770855528223876      42.056202228537565      10.809178240067819
  1639   3       17.36003706669149      28.723760049765882      14.957868037070529
  1640   3      6.2784416939049015      30.422657862690883      11.560734159147714
  1641   3       6.156989698611917      36.454014513521898      33.289209771646995
  1642   3       9.372052508260893      17.964272721260642      5.4662423552991379
  1643   3      40.671329231706295      45.994731436323633       31.70495865552898
  1644   3      40.243951122329591      25.590640862268405       34.92567532853468
  1645   3      15.290435433574411      30.706981553548069      44.942818085470343
  1646   3      19.161831872088698      21.265201648917671      22.331184613580493
  1647   3      40.617223248770543      5.1177443979866108      30.595693346699022
  1648   3      43.783713211103318      24.142550846656167      9.8304206192648582
  1649   3      10.674635756383301      32.224083869072366      45.581949637520538
  1650   3    -0.57970271103152571      9.6767019775503762      29.726113737067916
  1651   3      4.5262164866651302      45.642817086243106      33.684875395670623
  1652   3       17.70670154086617      10.238916630042485      26.109293171860205
  1653   3      34.067425804244373      11.436566037028607      48.014308824897057
  1654   3       22.10297284892334      35.440891888806739      28.331977134511167
  1655   3      2.8877923071048253      41.913185831360295      31.489443431007331
  1656   3      16.545657693297866      47.730643087879109     0.84538209433701939
  1657   3      6.6874647308815653      11.659017327490833      11.007387526667715
  1658   3      11.040644415246176      38.074049924865875      3.2158229443850064
  1659   3      14.640694014310213      44.583060873554096      46.931387051505553
  1660   3      10.780238580094974      47.527767615441761      35.317677881556236
  1661   3     -2.7255074842332014      15.493802272680615      23.688394716828423
  1662   3      29.277119727822594      38.585277998745219      43.605260464911083
  1663   3      2.6336669495180809      19.002282446601924      11.025835870673873
  1664   3      7.1936930527028053      21.963205838141736        13.6508981819537
  1665   3      19.948771766684498      33.577052463981161     0.70423252425405747
  1666   3      23.756461533926668      8.1462520263684191      2.1831003785929148
  1667   3      6.8654101573201887      5.0299489902266137      46.497411657130122
  1668   3      23.674783218187972      28.401052865819192      43.229640427884831
  1669   3      13.988103891763679      27.169051201126742      13.155281590728478
  1670   3      22.410690977060955      18.689504275831723      7.4362747747878419
  1671   3      34.331335990197424      10.219957317493487      25.326414049049436
  1672   3      21.442712549172338      8.2033999173839351      17.918119546831889
  1673   3      34.423559862061182      31.385262583647616      20.024589745509559
  1674   3      12.278489699898996      28.128637801465796      16.822961250554112
  1675   3      34.109656354457471      38.553468380357614      16.981632413951896
  1676   3      24.360250779822412      26.995109652861018      3.2710316939786246
  1677   3      15.294552994243947      30.071001940640027      40.269557758056358
  1678   3      27.348232878997745      39.935541918500284      9.9212692532780302
  1679   3      31.872508164516862      48.684734806894291      38.847614441322207
  1680   3      26.813034379782419      41.018778402776078       12.58202285551951
  1681   3      10.124738342318565      10.596113662981054      27.201427645458352
  1682   3      11.543731620483721      31.294123951132967      36.298689983069764
  1683   3        37.6589928135026      1.2002746841944743      15.906407292888938
  1684   3      46.680328121434023      22.077725159867921       46.23542351384512
  1685   3      16.613781825338265      14.693395570591782      46.618753747652725
  1686   3      35.275505034122503      22.427484283538909      41.554133313115251
  1687   3      23.779299624884125      44.726973381986951     0.37294259212153474
  1688   3      1.1836739313278499      21.101413546785878      9.9683711023368069
  1689   3       29.84057973880503      20.038964875239316      9.7427084019413979
  1690   3      40.255380215164635     0.67842153964520213      39.184702383954019
  1691   3      39.133586938263583      24.301209077263973      32.525269886254257
  1692   3      35.361227919317358      42.318694233842081   -0.052297480125968965
  1693   3      37.013588953760816       15.62174591545452      11.441272122238868
  1694   3      28.460698240537912      25.056231681614214      5.1309618809843709
  1695   3      5.2136217424300524      15.785620915459129      8.6616110422351049
  1696   3      40.213946235926457      21.372610793229875      47.262477678637453
  1697   3      38.919259229151436      10.098019768210566      14.877352246598187
  1698   3      13.983362457638743      7.8867522103566303      39.978321876625884
  1699   3      38.312417469875932      31.699277098243876      20.242250831976641
  1700   3      48.728878657186243      45.139332208839555      17.240109843106097
  1701   3      34.981952955159642      30.674197220295081       36.01236172801007
  1702   3      15.723375044436226      13.092466683181017      41.343085278803308
  1703   3      7.8114119794621502      3.0517085179938235      29.401797457665683
  1704   3       21.60064541799094      20.293768141665989      39.811222998859449
  1705   3      17.475516088563975      2.2241142586671128       43.50939244052099
  1706   3      6.4960799925128718      43.481224357062942      34.912050160332356
  1707   3       26.84770868490175      28.276753750763021      3.7552280350111875
  1708   3      17.815074647222794      11.782281217909047      33.641670242491934
  1709   3      32.232829755629751      34.733611505850618      37.150033663402887
  1710   3      27.795006352609715      25.944874739411549      33.735527558705698
  1711   3      14.100059264283153      9.6088174987399757        18.9064430379354
  1712   3      26.258815440697319      48.586462134953308      39.189883685688031
  1713   3      15.601114565468636      29.315865332331569       12.72527061515483
  1714   3      14.398860151731361      12.264209065579966      38.812769881232356
  1715   3     0.28398526486011233      31.795268850354162      43.510653425664103
  1716   3      16.238120454271996      29.081257072062922      42.680756255757373
  1717   1       24.79650169538872      39.849410038297606      26.958866297595034
  1718   1      44.248552554605759      17.850727558848909      42.362146539044183
  1719   1      13.352816411449641       38.49700793743412      19.900215159996637
  1720   1       9.011267080631189      25.630831753702889      5.3741511880762518
  1721   1      47.027117270178515       29.23689928236573      2.3814915682541069
  1722   1      40.176543199560157       24.03494564142591      16.344561437698498
  1723   1      2.9177958607998233      27.587729284549692      47.677888365690173
  1724   1      23.682262475779719      9.9205667341330805      18.879211819648592
  1725   1       6.401866993492467      1.6470305608700209      31.846548162569199
  1726   1      42.282781979687421      31.103619856756048      39.007258042093113
  1727   1      5.6245567884605032      38.625778150298899      48.583585197458447
  1728   1      6.1542840267050973       15.05390355081134      39.044718215222005
  1729   1      25.696255035046402      15.708007781115752      1.8317275644737385
  1730   1      1.6171299347648953      48.170034608701904      28.703309306510551
  1731   1       44.34664108256942      25.405842163406987      7.1995925193106567
  1732   1      9.3139312527663467      5.9944921660661334      28.998578219434659
  1733   1      -1.963137494219132      33.418263581152772      39.857461706437576
  1734   1      16.982662657424868      9.6096468152728942      43.874999680228143
  1735   1      42.499543897256729      31.559014188598965      19.593337243710948
  1736   1      53.511052945307831      8.2007700757457904      26.130706876520929
  1737   1      43.977640843126451      13.243884423294622      2.5956924655803117
  1738   1      28.991642881807859      39.991471652160612      6.2365042552688408
  1739   1      36.525603444727139      19.789048483244915      9.6030972917933433
  1740   1       30.17402643621709      47.747147616979809      27.464771063623704
  1741   1      21.740150458384225      16.546817817103214      30.016442505629961
  1742   1       39.33123410609268      40.598623703117163      34.364079188639785
  1743   1      26.696564230170988      27.430430133398694      47.377918933382865
  1744   1      10.114236579647791      40.428480165185483      5.2508853023078554
  1745   1      3.3651222329826518      41.553890810371527      48.838938390680731
  1746   1      37.202655173118018      32.940778763095963      29.346806870092454
  1747   1      20.396211281776793      5.5722326196174272      16.416982019557196
  1748   1      5.9111260664126366      9.2183771835270818      1.2541391338713521
  1749   1      10.142910129971192      26.932651134134591      2.0514752150206541
  1750   1      4.3368817201748024      12.096219422894904        13.1722621440273
  1751   1      3.3551204326254265      36.301105853726732      10.998213141427131
  1752   1      28.782627456685653      3.0592128910016783       21.21339074791128
  1753   1     0.36236247729848725      45.465313429315323       30.26418627119757
  1754   1      43.182362595037148      15.433772803614058      22.796427075370779
  1755   1      16.954092086290554      48.433450475541996      41.740524790686145
  1756   1       19.25270193461856      42.032536700802495       18.38627584398499
  1757   1      42.003853900066801      16.684322417035826      44.373876751923767
  1758   1       18.24763730016398      3.3387959042712407      15.543683819214309
  1759   1       2.734738775027616      10.029336657383817      23.846288363440038
  1760   1        21.5120988757463       29.60475116063925      25.900806300102627
  1761   1      2.2723168664068445      18.023053831245146      22.369624758687362
  1762   1      43.006387517335376        36.2411678535466      7.1303134969276023
  1763   1      36.261074611445686      47.241611210710516      5.7519961318278101
  1764   1      15.184426980612379      25.522992515656032      29.256399457199837
  1765   1      28.622011045733473      19.798014760746174      7.0029568090632441
  1766   1      32.323545306585572      44.304393266953745      42.699417378349395
  1767   1       45.09992113080159      39.107459553243039      18.530393504337546
  1768   1      37.970893418591224      23.719864599035144       6.688443346289338
  1769   1      35.941953263429177      35.943248534729079       45.57176229629907
  1770   1      45.845304910432631      18.811351412969479      19.280325507625445
  1771   1      30.959802960513432      19.291641136923385       13.45884604859746
  1772   1      10.032381430158976       31.24221858176605          43.04352659661
  1773   1     0.71801303898621349      13.523739237396494      12.916395791495972
  1774   1      42.699815449890707      29.931010805622414      4.3693299892126936
  1775   1      43.004197570009786      34.402214206168871      29.235768791367157
  1776   1      33.864285868060897      39.765478846901019       3.139242677777343
  1777   1      2.5208980853712601      33.430468102028961      35.870070584523084
  1778   1      35.530647132954506      41.389474098071751      23.480389105634885
  1779   1      19.630708025653348      17.694537822675773      33.537191408969917
  1780   1      1.7459572233219787      8.6520009225995516      45.719475635605356
  1781   1      39.681120081399598      27.535494522921265      23.970425805869063
  1782   1      42.524765949364799      41.067292265031085      42.357109301945613
  1783   1      36.342946566054884       24.90203039662649      39.492400102318626
  1784   1      8.4588971577361285     -2.5802290732980349      15.780637043562493
  1785   1      41.603933249343989      15.930020766881126      3.7240569005151269
  1786   1      18.362332062292264      2.5440380489228049      37.825015558354508
  1787   1      12.013316572492618      38.968251221203104      10.936565394880294
  1788   1     0.28189051702107992      12.458328062429123      42.961021434350904
  1789   1       21.67742223174886      2.3544921867283595      5.7998773875983947
  1790   1      33.659059732211723      19.668333197998987      25.397219332438212
  1791   1      3.9035090505671226      10.983996137934978      9.4101195690752828
  1792   1      40.444198899862528      33.654167614853911      3.3665979596019424
  1793   1      31.912624604885316      6.7722214438995447      13.632120308691283
  1794   1      43.644506211360714      41.415132096459843      48.093561742504498
  1795   1      9.9341202892116023      27.123103355769022      8.2060898805107936
  1796   1      2.9898020884179664      46.247579685222945      43.013589276588604
  1797   1      13.973701446501106       14.76719953721237      24.349282758603582
  1798   1      15.404393656693436       23.23448647248042      40.977311844447371
  1799   1      23.023043877425373      45.532821859727136      3.1919080810969174
  1800   1      22.016001492297711      11.533733435269284      16.507710417726404
  1801   1      28.944540801754254      45.987957274222993      6.2078316766302084
  1802   1      41.681326649499532      45.453476806283106        15.1981222222454
  1803   1      41.430967141636359      18.461016071575468    -0.61653481456415349
  1804   1      5.9689257515518603      35.524502849865499      7.5893791966235602
  1805   1      8.4152527231744845      5.5263378669045542     0.10590521851463604
  1806   1      7.0719664583904533       25.32510925707814      8.1571955755175836
  1807   1      25.098229187931896      26.602837942488922      9.5062605022312994
  1808   1      24.497596563680048      18.125972245856438      -4.427059211275723
  1809   1      16.391111611125748        6.41014982316314      38.481526876010413
  1810   1      40.423760624481993      16.496799056058954       37.80839134549376
  1811   1      46.591737878914152      10.749757994724231      15.459627642594448
  1812   1      38.197850905586961      28.409914801737035      15.439116557122274
  1813   1       40.07405431944904       27.48034582600992      49.699416970133214
  1814   1      21.141106027198813      21.788858393313596      44.204744945825141
  1815   1      2.3896903961521536      22.617924407967813      7.7750757610439107
  1816   1       25.83894535925543      41.873970323516012      41.801716169652487
  1817   1      10.978578833602676      15.873285094409971      6.9315789484330361
  1818   1      41.860965038772854      39.754731786020194      18.681943469836288
  1819   1      15.397090460677346      11.814465925574128      10.408455550593709
  1820   1      27.970750088611027      7.4776062768783778      34.356218904998414
  1821   1      1.9427972791802912      3.2966122769314476      39.190436963838913
  1822   1      9.4994726595540815      21.738402018930344      21.986858524113586
  1823   1      15.029075602823557      38.369567351708476      12.505653103567715
  1824   1      43.896591267467819      10.131734162470449      13.901137034037502
  1825   1      34.255131955358429      46.190912198989139      18.246645585518209
  1826   1       9.205039014414238      17.415394138730438      46.376309706712647
  1827   1      39.373797654795524      13.723739469209779      21.024095144186795
  1828   1      35.384283888880212      28.181873319556221      34.247693015101831
  1829   1      21.830244631563335     0.35875353203064858      45.116660402334126
  1830   1      14.162515927364947      32.577506018497999      1.6034579273503786
  1831   1      22.841024978938709      46.667692221646597      32.052298438233194
  1832   1      44.497322456553313      17.060643226042636      37.123717580270849
  1833   1      13.137997372132178      22.001557879928651      34.350436318035847
  1834   1      38.053521608989129      10.554116874702819      42.953583120153489
  1835   1      26.987138166341065      31.094398076394643      41.926832886939302
  1836   1      17.602862467440445       12.19516872463452      6.5135650325715568
  1837   1      18.406009020643818      30.793130960736423      36.554009799268094
  1838   1      35.726512443890961       45.95122091351206      25.262171826138751
  1839   1      39.504921833034508      20.740725098035185      32.879668819027096
  1840   1      38.731528757333884      26.178846386152603      47.029705471325997
  1841   1      25.212008268986882      19.764639634360371      20.792262779038843
  1842   1      24.713854153238113      21.251322552254582     -3.0696811518969409
  1843   1      25.753288285268226      18.925701700735459      24.646398898754672
  1844   1      16.803558616061604      5.8160232481200245      13.082373248986439
  1845   1      2.7171031367612826      21.353991629610981      4.3454862397930887
  1846   1      39.802198685990412      34.006954735377931      31.474501223754633
  1847   1      6.2114564583379517      31.316926510931054      43.998544297705216
  1848   1       45.14025158077331      28.361497174892158      13.451923928728272
  1849   1      32.246611424885202      1.3864175009567472      10.694103108783883
  1850   1      3.6460191384835192      6.7341552763897266      23.275957504481788
  1851   1      28.518849728631857      24.097404374008757      14.506299953298784
  1852   1      37.246618385210837      19.626599625265104     -4.9027639769818609
  1853   1      36.624536986089524      39.439452817212384      26.572162997800724
  1854   1      2.0569731787496695      29.891056987490749      11.594698515746632
  1855   1       12.69046265704881      24.465793604723057      6.9441632473726855
  1856   1      12.097807059932373      42.712940392630827      44.773876380661079
  1857   1      28.851607361145867      2.5025437033710864      3.4347064053800418
  1858   1      32.925901607184997      29.010092615636303      2.4515491167596792
  1859   1       37.25068105036528      20.344186058057673      46.788035583030833
  1860   1      1.8702318764852268      14.949113202811866      28.822541634904479
  1861   1      12.481547271395065      19.823460869972227      45.075967448119478
  1862   1      49.011049472404004      18.163563683052885      17.383298743307009
  1863   1      29.241860859034208      13.525518168037427      3.9439540774274766
  1864   1       29.62795689003989      26.853146867648466      2.9616508416788037
  1865   1       4.788240294818241      43.337281039027872      43.058790152264635
  1866   1       20.76254764588202      19.542628098422703      14.500010264493055
  1867   1      26.013326020820077      29.610840181927077      6.4749173764308869
  1868   1      21.574290183368809      35.969164304278713      31.503904030815896
  1869   1      48.080890427350056      8.6760580454773084       1.699731125928915
  1870   1      6.0061866658107634      28.051557221229547      42.569362499698023
  1871   1      40.750687469140331      7.6926217082552686      6.6468162779694477
  1872   1       30.45620859517339      26.464830346640749      13.609677443286252
  1873   1      48.291319698414028      20.124396324273739      12.170487975077407
  1874   1      12.403990711889776      31.084173110986676      18.014746839383399
  1875   1      19.056032524640575      24.642934972485637      10.464389851974403
  1876   1      41.378993847192483      22.904741811366538      34.762291320801644
  1877   1       23.56792071908696      18.880919457334905     -1.3623174140309662
  1878   1       1.681937963020669      9.7525589421450221      37.038159672757367
  1879   1      26.152464924613415      19.481693085135298      34.627885541213217
  1880   1      46.159267284976636      34.126672933636577      30.482475303020767
  1881   1      29.886724854322125      31.600248130070042      20.351292354811456
  1882   1      13.208944788798201      2.6013985284683168      16.601033063392947
  1883   1      11.301666300381546      15.886823191500271      14.137206821598586
  1884   1      45.407823571718481      20.022611218386288       29.35195596158664
  1885   1      14.546227988490726      42.332993895488556      42.349725755201874
  1886   1      20.855737751814299      19.559965634499012      4.7920614889704876
  1887   1      43.923873082642743      20.709536081878483      16.856307283388855
  1888   1      24.573142261565017      5.6367004592284236      41.892388537535147
  1889   1      30.552492247670529      10.879812628307453      10.629456125752025
  1890   1       22.14157958112056      38.081508786625584      8.4407340651142597
  1891   1      34.852080986397311      48.439495996767278      32.298726969704454
  1892   1      29.439909119145803      43.661387071156888      30.005147452303952
  1893   1      23.338891743120676      27.735802892814188      6.1691445762121511
  1894   1      45.446360357112695      5.6373694702361927      1.4833301308463871
  1895   1      42.850195310017732    -0.25959278029266591      37.771302342797348
  1896   1      19.311046302240474      14.013087794530838      49.327323513833861
  1897   1      3.6125117261169017      10.219653227180023      33.670726499904212
  1898   1      26.745505861162023       25.25712260995153      26.328233434091207
  1899   1       49.66696907743443      4.8936846762199959     0.94792937907350017
  1900   1      43.523382945802211      47.194276796958654      33.382807889538014
  1901   1      23.520774173903668      41.933859067300624      38.155641691921304
  1902   1      2.7943098242622022      14.462793429912278      15.595112010892679
  1903   1      12.131694542317623      3.7127823350454543      29.548147687631442
  1904   1      23.205277669916672      4.8180326083600367      22.442222876819653
  1905   1      38.923737947841587      5.3418380089114486      35.892775649064724
  1906   1      13.605708240971801      36.055566465130262      8.5712598223967014
  1907   1     -1.7749968454894345      24.077791803846793      16.409973164545516
  1908   1      38.743943853621758      13.829212245419201      27.192216226699081
  1909   1     -1.1421629165594067      29.937116984950148      41.456423491378416
  1910   1      6.7313243138833085      23.850168309358295      43.955553012083712
  1911   1      37.810666865393053      25.320552456486912      3.7435419450051777
  1912   1      18.147313550171805      5.3823467141324741      49.047918868541245
  1913   1      1.9705870250767692      2.6412180909831449      32.649222139706978
  1914   1      9.6478697577521046      5.0874020575153081      32.771189966059701
  1915   1      47.495566788705602      14.584291923333346      3.4548333931566511
  1916   1      40.057143413345379      33.874925028785675      18.591664651637238
  1917   1      32.312330703217285      10.862601063469072      13.399192613092685
  1918   1      37.499805806655289      1.7987455631808997      3.3182509533252609
  1919   1      7.4358515935835596      26.189831476861659      38.733847702020491
  1920   1      25.643055703935271     0.12001577162091262      18.389998393632382
  1921   1       47.05018417919554      7.8631109730243081      9.8338116255141337
  1922   1      34.691064353724016      41.916418663172465      45.411450266759957
  1923   1      3.4855577552444306      13.741248563473087      7.1068525776350793
  1924   1      38.978232331120232      7.6768581167902168      16.683007115674656
  1925   1       23.24653414421698      36.678517202579478      25.565696155556655
  1926   1       13.12112697221392      17.612405158544266      8.8504491811220678
  1927   1      40.846331288067233      12.471925904925451      29.494055473633157
  1928   1    -0.87457494671448799      36.343348190781512      25.137811691797218
  1929   1      42.881903392911802      11.312071443917363      27.103605499491316
  1930   1      35.243217745101987      11.743377718590336      45.295291121726521
  1931   1      44.825974216417066      6.2369022486956389      12.329150213303249
  1932   1     -0.2896614964204281      39.609737326044282      20.962244553667141
  1933   1      13.033352617649538      11.274427644336884      22.088120497278066
  1934   1      33.506293391899646      11.978308902278895      37.297557946573555
  1935   1      21.613373032934906      25.199172710201516      8.5930225217661107
  1936   1      35.134653610297498      15.033281565612082      2.6642473804673834
  1937   1      9.9980201877775983      43.571373789888376      25.359589294724902
  1938   1      28.391806314565688      21.705591469103293      42.417315752344933
  1939   1      29.053704456977208      2.0258274877061009      27.119476876800029
  1940   1      11.348630422355606      27.641509536530798        11.5174317758761
  1941   1      24.129714845995039      46.386520871363423      11.355154316696654
  1942   1    -0.85332768076883936      49.012819278206202     -3.0893731623911966
  1943   1      43.406987060515092      31.984332077658511      41.933872944321969
  1944   1      9.7313127412435012      27.423542654657084      40.798469904414205
  1945   1      4.8636226142314412      42.478544700861669      24.660276407851033
  1946   1      29.452981095125363      39.914817049636532      19.131736727530811
  1947   1      15.083298065880797     0.33387128086857959      28.510587981855892
  1948   1      46.271232260547762      44.327455210496296       6.437916899292996
  1949   1      9.6744066089577743      43.818734582960388      37.441146093699501
  1950   1      36.389180800277195      3.8045996961745727      46.636636160987464
  1951   1      14.727739666830956      40.202489534366698      29.963673015636701
  1952   1       33.63910569641633      47.222045784858466      48.485426528868288
  1953   1      13.809510226855396       29.08585259492185      21.006677902186436
  1954   1      26.710641772833242      36.323414755634772      35.851285150718027
  1955   1      40.086242187815898      6.3725862224898071      27.614502392135556
  1956   1      15.871216759071896      19.160483711246076      7.5139724021020466
  1957   1      38.925689020034099      3.4022019789201416      21.563808046498874
  1958   1      21.546937780740016      20.256962820254728      33.456014756884549
  1959   1      26.463662842991752      44.749491461076587      28.580655306479873
  1960   1      44.571505784693919      32.210515074448459      1.7655170399296403
  1961   1      31.144140299829555      11.773686233576306     0.10307084088955276
  1962   1      15.192504367923256      16.633799461597931      48.725600721914461
  1963   1       41.98504813606565      37.745056128897431      14.556061558505251
  1964   1      43.461561720704871      8.1387202233936549      8.7630734499275391
  1965   1      9.5963216749714881      1.5552285842421412      31.966375541130095
  1966   1      13.657661121289944      32.964603074804735       31.61859899399505
  1967   1      43.365346308870492      1.5297691032033351      42.293767423322528
  1968   1      12.205024095553314      37.130301769210831      39.182669024876994
  1969   1      39.904022459188084       17.96507503532235      8.2205628431243287
  1970   1      3.0087567636886701      5.6157116308499715      32.989279949859259
  1971   1      5.7360362547026957      31.026773786544393      51.895846223895283
  1972   1      6.9436186314473209      28.419661733567043      24.763375267287927
  1973   1      23.056043356957119      33.934556712358592      4.5385825163286508
  1974   1     0.43576144111742093       11.62406585833172      27.571073319677716
  1975   1      20.104542657074884    -0.79792949413637471      28.162743262294576
  1976   1      39.183544662800948      21.611415926637086      9.3466496169151831
  1977   1      26.859582422325357      20.130955403791464      47.945037646109157
  1978   1      27.537905416612386      46.638662652456624      47.915676616889684
  1979   1      41.269883305367536       41.60002289044106      21.616484321583357
  1980   1       37.95665003231705      44.806819997491971      15.340147276790908
  1981   1       10.38411752269476      7.3596371830499079      35.071115657686185
  1982   1      4.0386195549283999       33.17110627509517      41.241271270431319
  1983   1      17.413361373234391      42.678445098479521       4.695673451772401
  1984   1      40.034680633458052      13.040098124752255      17.691132842906939
  1985   1       15.44570780943123      37.305781587772742       47.97374139251923
  1986   1      3.3311777348613605      48.781347557068521      18.854627266900859
  1987   1      50.294149948609366       28.30003834878331      8.6806902016370291
  1988   1      44.076035370817337      28.036730748466002      24.536072223994907
  1989   1      42.516778089067607      14.920257215223646      41.559454734531933
  1990   1       7.417990964436755      1.9560274978210097     -2.7469323750134742
  1991   1      32.996379538814224      7.7856805519908603      20.644881265234449
  1992   1      27.968431972410329      33.004500016616497      16.863168739353025
  1993   1      8.4654234555226147      10.201449452440908      33.413208762944627
  1994   1      15.366846458997285      18.170933022832315      3.6517064705935751
  1995   1      33.709710636230803      37.232218256972878      36.002851748611839
  1996   1       43.72800078873432      13.787719156376408      44.756615415926319
  1997   1      28.712982034516418      20.085175329306598      15.388714855786208
  1998   1      1.0894116559409806      27.973605771127879      4.0459597391578868
  1999   1      37.310715275800014      5.0501071047545683      18.989352123390578
  2000   1      26.607932432010244      43.934740686652887      11.331297462965754
  2001   1       9.123803872663883      47.644675994218233      22.973167447035284
  2002   1      19.172405882875978      27.741786463876089      36.046004117381969
  2003   1      27.289500399010624      6.1743155812509842      4.0823609966847831
  2004   1      13.096615719895885      46.058855031257295      27.184434978218736
  2005   1      11.694128773097612      8.5987692976042602       23.24540951012532
  2006   1      40.816366276683233      47.546535969736304      48.733071306825458
  2007   1      31.040855675852047      10.191123551741903      4.6783323674143125
  2008   1      7.6673751555256571      7.1146905319826663      7.0587090381925748
  2009   1      31.034068351474367      18.374591017773859      46.420369916111184
  2010   1      6.4105986719967341      32.140261060617242      15.455774322134834
  2011   1      15.171511908631061      39.091734534589243       22.51416987261554
  2012   1      15.732695619734374      33.528972200489335      46.508119620238247
  2013   1      36.331773181147064       45.78402818336663      42.623884255848125
  2014   1      44.446331332590162      37.664802433514161      24.150196551050477
  2015   1      38.785240260855701      35.669643743147162      28.460858143533354
  2016   1      50.498244111260661      30.039356463515681      45.331095553468131
  2017   1      12.903659922101278      3.8525294147436964      7.4960090131340511
  2018   1      6.5564810377201761      42.178529249992565      11.199948295968248
  2019   1      35.902834643830886      12.637940891424009      25.939463281851257
  2020   1      31.040148878507605      10.103929784913641      19.188254654094898
  2021   1      39.022225528176847      36.685804274771954      9.8955442276051979
  2022   1      8.9872180517519364      30.711762201006771      47.421370973417567
  2023   1      14.380176740225293      36.066361065421972      32.817405258100408
  2024   1      30.942760790356537      2.2556455920265659      31.152420128967613
  2025   1      15.429677742692819       44.12719507650931      16.869205896197382
  2026   1      43.556221906280001      39.544088205370585      39.005274266015988
  2027   1       31.31795623780063      5.0045723082145877      22.126442289915161
  2028   1      2.0220638570405436      20.783845925413456      15.172019405865841
  2029   1      42.161650530961893      37.314746235699026      27.706743664259019
  2030   1      22.576123149219306      13.953036573044015      20.629032338294842
  2031   1      12.269993451648194       44.92261529451946      4.0676547936317249
  2032   1      5.8658767553387605      19.654248053709399      27.968534251407998
  2033   1      19.027027737983033       44.76876258910638      25.934837299533495
  2034   1      27.841038206858581      30.677746860748577    -0.21732868802147992
  2035   1      41.768701233342071      47.700244414773998      27.538686462715116
  2036   1      38.338285341267152      47.069142269807543      22.501321020408138
  2037   1      40.013000382147673      16.019457555846895      24.136169056140407
  2038   1      11.254911493476213      30.544640314958144       39.14918006975941
  2039   1      44.254524727359325       23.70040600241629      45.993632722662433
  2040   1      8.4882605456924605      10.088720385953208      38.234934571231491
  2041   1      44.786945558974566      23.693685862843552      3.7190140234653439
  2042   1      36.214299108945013      27.565797662266405      23.857415838418635
  2043   1      8.9677363454353678      22.101783547905985      11.035057548940083
  2044   1     0.47306584453264433      43.842218941329726      4.3690519994831636
  2045   1       31.77316261726207       27.04508721718269      9.0725899851721366
  2046   1      49.098042412701027      37.425085818696324      40.585863243072907
  2047   1      4.0518249828480304      27.053301534754578      1.9934913462783876
  2048   1      28.039368057863111      39.665097919490421       38.86758040492353
  2049   1      8.7420415056582659      30.801030966938239      9.1728343155521319
  2050   1      10.591669232125909      44.248475932159664      22.253554112498595
  2051   1      40.682612653544801      39.980089790516615      47.275036751685128
  2052   1      45.855765476006987      22.527000481886457      40.604121315043116
  2053   1      43.460878638369962      8.1441344289712774     0.37254213311988615
  2054   1      47.077233967770844      19.255768480043582       37.36142615781128
  2055   1      2.9785711255470919      47.988630867655097      35.110034416381716
  2056   1      12.969712314549623      14.340759566185277      40.886698680869102
  2057   1      44.989631239962122      20.675736311186654      4.9481477001389145
  2058   1      43.445587208331752      37.339357218436568      10.912693530784898
  2059   1      32.776180243590176      50.731258307595049      33.944410179325637
  2060   1        47.4218277766645      26.149420158141595      1.8379129506904965
  2061   1      2.3324461535476506      15.895031124976567      43.230284096527491
  2062   1      41.116549718052084      43.724119014607808      40.269348699746679
  2063   1      6.3763285564716075      5.5797373175662868      35.855567550829129
  2064   1      47.882960309502046      18.136788193929561      30.148827616001437
  2065   1      35.270219397783251      1.2694436550451729       23.90734511922016
  2066   1      19.709646543906555      30.079387710161093      33.540740989557975
  2067   1      37.453596183435977      43.080648422154106      25.370032897351933
  2068   1      24.632683648816062      13.561784921964652      17.681633008258792
  2069   1       46.32029803290154      29.864031507197041       36.91872603151522
  2070   1      8.7559013722340815      37.411836994386206      38.209217601465497
  2071   1      25.101814116139092   -0.097076808160546965      5.7757385645835404
  2072   1      45.381852503403465      22.689167500794689     0.14383530648147122
  2073   1      43.260394780792033      3.9752487145589237       14.37655405403866
  2074   1      29.156917665437831      35.911380316771975      32.497455518784164
  2075   1      49.792392321573949      20.656368271157898      45.904062644749494
  2076   1      18.215646994269054      7.1355479894671401      3.4152903528777476
  2077   1      30.799497772515391      18.227921612623106       25.31490713555786
  2078   1      43.546509532715341      27.748294667319541      31.225841153778664
  2079   1      16.097660670526857      15.623990359881949      37.127846386947361
  2080   1      10.699776391828184      7.1582297916509949      16.336509469771915
  2081   1      39.214532617976452      19.470318442053728      37.906651418044696
  2082   1       9.374070871863637      31.342768750330016      25.990636379207686
  2083   1      10.326544787243176      39.584883770517635      35.494327672308216
  2084   1      42.982888754361412      10.727322929172486      23.113242521639897
  2085   1      2.7696681983191054      40.786796695421799      13.473651864807517
  2086   1      5.4574174257023031      23.702202747692844      36.587989377882558
  2087   1      14.120913736280478    -0.16315784844532644      12.896908287895867
  2088   1      32.579538032766884       26.92705449999308      24.124908581639275
  2089   1      9.4126353529845819      17.061187728028607      16.763704933182378
  2090   1      28.218059200579052      19.644791014538761      22.244089679258817
  2091   1      2.7336142026503465       36.75703410800368      27.316120027941039
  2092   1      15.125229182729884      6.3797834109349854      9.9946015854284571
  2093   1      11.486135480961028      0.9918853524119966      8.4565788188570252
  2094   1      29.212133393255939       8.252854060947584      23.698046001702519
  2095   1      4.4978206068957212      46.702641686799311      28.235871900628627
  2096   1      10.895470492057242      43.471258510597529       6.510265255589065
  2097   1      35.544302329955237      40.363102263086368      6.7542600023601205
  2098   1      27.262080141600869      15.994087665344031      4.9145230028031675
  2099   1      4.8331882393340502      9.9218857204682802      43.043883069601975
  2100   1      16.526886001529089       25.80846680896423      47.130836309350329
  2101   1      18.038400206484933      40.826687864450662       11.09107240302283
  2102   1      26.406484359283635      17.023951101041725       46.98020260346086
  2103   1      37.986927522123999      44.853001044187103      31.891992079427414
  2104   1       46.99635136471489      32.265131061653655      27.761170353227538
  2105   1       41.04533463660794      39.526004886507032      11.064839183665983
  2106   1      42.081488843421248      2.6451459480457817      22.037876613009384
  2107   1      4.6158917512978501      32.726208085255053      6.4632313187919816
  2108   1      2.1815221129430369      44.214905720195802      39.849422864178493
  2109   1      14.365980099162098      21.181565270759137      4.5480252109345658
  2110   1      45.942681339103267      25.784808885055668      26.123344985591054
  2111   1      33.156226901402825      24.128776269038237      39.407648463119251
  2112   1      27.580446038985411       13.15616190479799      34.422558181379429
  2113   1      33.212541437155025      44.080944036785418      47.267146302414488
  2114   1      28.853296637491376      31.082319415638931      36.487715447862669
  2115   1      13.952170774946781       41.67926684799383      20.734457520144364
  2116   1      35.831460111680542      9.0392894845493696      27.866943572259832
  2117   1      34.447580417689721      23.756178020797378      18.550791767011088
  2118   1      14.211369662276841      35.439796379696141      22.419032020022595
  2119   1      18.834363114125168      10.911216711669134        30.3450788706586
  2120   1      19.589045973029297      46.015455929723252      42.433250771648851
  2121   1      40.694205648158722      11.755831013820156      44.257267742326725
  2122   1      18.329026661888101      47.161497330119445      11.473847014830625
  2123   1      8.6443200946171892      11.231061786925823      8.8748947251142791
  2124   1      17.483092582560399      19.443869683037867      45.986198425391422
  2125   1      9.5989930017288376      13.958758820804777      46.522580516160062
  2126   1      12.294921042810451      15.206967019172327      3.7211535373854701
  2127   1      36.182634667674684      1.1639020918566649      27.183992778894737
  2128   1      44.292724764394123      25.720557231530204       33.74516760449881
  2129   1      37.050963822575504      19.143703021807337      12.927538730109081
  2130   1       30.95314333713301      31.817034121415478      49.241207500322858
  2131   1      9.5688940976803476      23.782845269359449       37.56615640434287
  2132   1      36.983069794336615      17.301142393811041      25.723498666443145
  2133   1      7.5206564497082402      44.239400656430384      41.409569458353126
  2134   1      28.282462773617581      49.327309238618113      6.3598917797611607
  2135   1      19.858880826769372      40.382773544843758      45.984590769994966
  2136   1      17.263143202030317      40.621704090429198      44.040127668436327
  2137   1      42.063516263880324       34.96589909802649      24.819792796994101
  2138   1     -2.9409556835628812      13.178297616143828      21.922360397276591
  2139   1       43.47744197877995      15.363240023715296      34.621709565738733
  2140   1      21.373908204860289      26.240124362464144      21.084098472320946
  2141   1      30.885693171405567      45.080082382143857      1.0649278765555432
  2142   1      36.914817334658515      38.156979815848672      17.593271526638979
  2143   1      21.120199795799888      38.255111376689563      1.7131360722583773
  2144   1      39.784729961337035      37.539879204309415      19.822473157850656
  2145   1      1.3548417741629242      2.7384040275937425      16.196087131123384
  2146   1      34.556430026031791      18.121702899678361       7.714364676946226
  2147   1      8.6588540813895403      24.043027781478994      1.3884460411263186
  2148   1      14.052061727598659      34.361975929070113      15.560773404347552
  2149   1      16.207489922361933      43.154974815554311      26.629735991179981
  2150   1      20.779131703554064       5.740410574119224      4.6361837829860058
  2151   1      25.309197536073498      47.095748893450732      23.508742583305615
  2152   1      1.5991592809683557      24.008475764638916      14.742817802804195
  2153   1       35.70268280365201      42.507922606919458      3.1850559415207398
  2154   1      15.220176547527466      26.944012506149825      38.825896241074602
  2155   1      28.966091144320448      34.327143596761069      2.1608345242391818
  2156   1      38.821705912060708      5.0758722097700941      39.224033214534309
  2157   1      26.217033182503513      1.5140218102815548      22.483462226411415
  2158   1      45.733475123482307      49.060111988754002      40.357653545897421
  2159   1      39.439151651021476      20.492973059827658      1.5058048167131426
  2160   1      43.885157302950724      34.080794238757782      9.9019077300851386
  2161   1      14.319865611000434      3.2087937541086418      13.573293246996206
  2162   1      33.689386212112893      4.2328251234309375      24.405841787133905
  2163   1      7.5672578630125402      14.705567793799275      32.046051103839446
  2164   1      42.486991343601531      7.5025556377888245      23.879517047877378
  2165   1        21.4821847607782      23.936958625880767      18.426537063423652
  2166   1      42.109313041463075      33.214695070629745      15.703265476716911
  2167   1      42.561124061983236       9.151584198392662      43.803213692392397
  2168   1      7.1050372874981385      19.198695359454376      48.558831208406467
  2169   1      32.337868582258665      49.060851382796805      41.785911744969738
  2170   1      11.271634447354433      45.650245325752515       43.52186671902804
  2171   1      27.800624080950417      40.814927561820674      35.440725151226381
  2172   1       30.80223408171641      12.518469052462201      28.798391098302879
  2173   1      17.192979399719945      35.331216978031684      40.590622848202948
  2174   1      20.991363235730912      15.112713803515526      12.559760367487398
  2175   1      46.657260740429031      3.7228397941109836      13.739530947602594
  2176   1      15.680609200522252     0.81511799289826914       15.45954942551953
  2177   1     0.41578981948469723      30.446153147373568      6.4041527504952338
  2178   1       47.79107545135696      24.571309411160605      4.9851567333859679
  2179   1      29.667735553655209      11.655483244489259      36.777221577673011
  2180   1      4.0494718288992075      25.572607404583472      44.012744748597406
  2181   1     0.95762598450159486      27.575494837082665      42.872642257288369
  2182   1      28.060770034279283      28.184850240868357      39.508283882266497
  2183   1       18.88923402251956       31.82295191016733      20.023690335038168
  2184   1        38.1431798750925      46.252340125455937      8.3701970106526939
  2185   1      19.193733306313923      7.9733924633201561      37.915223866327089
  2186   1      6.0943239348816505       32.39650908800779     0.15883088681320984
  2187   1      39.594105424304082       30.41243641393643      2.6612962450635842
  2188   1      15.111720420467833      41.966078803459574      1.7958113565479734
  2189   1      17.567634291056901      1.3664658434443244       26.38890762734928
  2190   1       10.94862300634361      12.324623982714623      39.148225916641231
  2191   1      15.332754025886443      33.577107343474005      43.241643967723981
  2192   1      45.813256042577542      5.7389602513520126       5.078509108233912
  2193   1      15.564197724699667      21.347341638005393      10.065469404968834
  2194   1      40.640733987789268      23.946691303476928      4.4796207432388515
  2195   1      42.354230045887135      19.303214266709958      31.594564675369284
  2196   1      45.522117857636459      42.049274313266842      25.031920199036765
  2197   1      24.445379720927566      3.5711115902155388      28.807325301238077
  2198   1      10.038203376603363      16.183364726554661      36.693825835899744
  2199   1      10.413671248703844      54.178520170081093      9.0711439753074821
  2200   1      23.579164975763593       42.16310260520796      44.817304679617216
  2201   1      26.341043084341379      43.903644917724414      22.873231941858155
  2202   1       40.60564087601508      4.0939919299221295      17.370120642830159
  2203   1     -3.3557547595426827      11.286399046119728      29.586062019653809
  2204   1      43.570079738388628      3.7683603864076862       18.47171401059045
  2205   1      20.691350071422381        42.9398515045118      31.735471530366844
  2206   1      11.870864167476023       9.750236976216927      5.3814138369518627
  2207   1      25.991417091673689      34.392460904292477      42.325132566067552
  2208   1       36.26870982359609      10.944344800800044      23.098404081250766
  2209   1      12.640613165578564      34.510674090467198      45.200167801457923
  2210   1      40.523804934978678      43.558472481698047      17.709993972311906
  2211   1     0.72186084900138892      29.051129343317889      22.743315680769424
  2212   1      28.329215625195388       38.33608671530574      12.653085197606403
  2213   1       20.81300488560683      41.302372367187239      9.3644010723612841
  2214   1      10.386741705623642      41.271593432781657      9.1333419555311561
  2215   1      20.734845929378906       34.78549831962858      7.6679146433028205
  2216   1      13.941405296055086      20.056725718176494      1.1750401612659069
  2217   1      16.200578059004204      8.3211212337364486      27.937363970297387
  2218   1      36.641930041811541      34.296346857276653      35.496078215764229
  2219   1      16.529858385254638      22.005282018684156      23.832416400247045
  2220   1      46.206452096265338      48.292059562473248      22.240522117595685
  2221   1      4.9675498153951301      46.740626482736737      21.059962303499681
  2222   1       12.44561489235371      51.416818461805306      40.145789382690658
  2223   1      37.867387644163315      29.128380500478897      26.229342275736204
  2224   1      47.910918084480272      3.8384926311913148      25.815195240974983
  2225   1      29.417436098597879      32.965156647872107     -2.1433821876477586
  2226   1      21.748957962539613      9.2789859462858804      32.794740823598303
  2227   1       20.05399683177016      37.281205632799697      26.553835528791581
  2228   1    0.086711927009868336      9.0933380459053534        19.3755226513643
  2229   1      31.709040582239425    -0.76445626802916655      33.030930190310457
  2230   1       30.00004220467898     0.93750890290379485      13.295316463513046
  2231   1      25.092726910079975      25.221206319958483      22.288331747000978
  2232   1       4.430680884457435      7.5678060921132362       7.641494013370826
  2233   1      24.697447397255051      14.296132775331193      7.4553208320511084
  2234   1       7.317375989633522      3.5221530882253123       2.966160080019713
  2235   1      35.505524507305815      19.132777362407655      2.3908400293496426
  2236   1      41.900986798902856      4.0644438908667002      33.500945469251747
  2237   1      21.096017627094014      43.343989398987297      36.351249117363707
  2238   1      11.212158733442813      17.491134691310972      21.749069581790579
  2239   1      33.321291398738595      13.975294195308692       13.05433875270977
  2240   1      28.033500104735474      14.179240201350497      20.116505061707322
  2241   1      18.861676907378548      22.676107534144599       38.86803870856572
  2242   1      27.872177263838342        34.3230828744679      22.322278979084317
  2243   1      11.163165091196012      28.138450229157989      23.655810952221035
  2244   1      25.102404792400847      29.328554004908781      11.485570630689722
  2245   1      6.5215356441141035      18.094653890804349      30.651676890275922
  2246   1      26.643704536183296      44.135662386509644     0.99441209051192136
  2247   1      28.557340551304797      11.044524323708371      42.619786724095867
  2248   1      36.071827669667293      16.441802130310013         44.452805848931
  2249   1      13.177946802447575      36.966490843612505      26.318789465945841
  2250   1       12.46658240912682      43.322240174704703      48.783045614280795
  2251   1      34.521459413835956      6.0058224394777753      37.729458037954956
  2252   1      39.934855302724841      3.9972275436274276      3.9007042201566677
  2253   1      2.2823935327835869      15.194862120255191     -1.5445756692917161
  2254   1      19.780888499624091      21.601963974783292      1.4558892304984099
  2255   1      25.554752395847018      45.367676328341716       6.125824731807981
  2256   1      13.432493223367773      24.062165930013023      36.907352014727685
  2257   1      43.935040368425078      39.686894051800849      8.7718226264117156
  2258   1      20.094443966508752      36.164626261943873      47.823901603634127
  2259   1      19.083359016110652      39.964137921884635      41.411447374709873
  2260   1      10.278140912989096      35.294983129237004      20.858938508434619
  2261   1      7.7160263745808964        9.38875624924788      4.7572717168789529
  2262   1      45.171752946229049      25.675356633610768      41.474263554791982
  2263   1      17.363450115856885      44.043537182461847      36.092573453785029
  2264   1      31.834761168019828      4.7222934477787701      28.524800271139313
  2265   1      21.140142206040803     -1.1056343544458254      24.139813833501524
  2266   1      22.466677293863171      20.590454706940982      9.8073385976717784
  2267   1      16.074702306470407      29.290415514593857      33.860874268106095
  2268   1      19.252150058260483      22.707744193783345      32.477139885503604
  2269   1       24.32883382086516      24.711582546274929      12.476757898207259
  2270   1      7.4753016725624395       27.64908604202412      21.190421147357632
  2271   1      34.130331222313572      9.5091826614677135      40.689034304452221
  2272   1      28.193092014600264      41.178433989414479      22.049305960878876
  2273   1      16.123415142766348      32.146174970540187      13.724675376823521
  2274   1      47.398563461747905      33.034270776125467      35.994300300336967
  2275   1      22.282487849609186      6.4304066574702787      13.950393828463381
  2276   1      28.504103192379787      48.218810680503154      20.795027263630068
  2277   1      11.049483031206286      13.652912781605385      9.9627198039023632
  2278   1      19.781545417976112      14.761689987321965      19.041226000276545
  2279   1      32.834781777774914      34.544877060818763      11.015810605060505
  2280   1      33.867636506319826      24.935889950686025       12.01715669650879
  2281   1      21.377585845708381      24.558084554676412      27.726419721887162
  2282   1      23.628700686767964      8.2537870065755055      24.533049413417569
  2283   1      9.4781388388028436      32.308108338622084      3.6536814767874697
  2284   1      33.109894714123008      24.780407917584078      42.569476457676764
  2285   1       28.64565416557479      5.8589778847177989      1.0726846719936642
  2286   1      26.794781640731379      47.164782611013379      8.4902370061257688
  2287   1      29.088588370706759      17.546353878291708      38.621499474072706
  2288   1      45.624367145245564      11.021739322902615      9.6687909791142967
  2289   1      40.306427349664602      24.999526632114609      37.903639412554199
  2290   1       10.57400823029835      31.803087265586591      29.358991111717202
  2291   1       31.61963905582969      42.915257331008576      19.184897217835534
  2292   1      20.442222233749991      27.516967107189853      28.890147031424874
  2293   1      48.170592549943123      21.717399150632101      43.315266819133043
  2294   1      31.437837037496433      2.8305439114715547      5.4012745803169535
  2295   1      3.9639102547681611      40.888502177029302      27.418048795356722
  2296   1      28.382761948726834    0.062725668822178879      16.656271197123747
  2297   1      9.3251901823319514      50.477743250731827      40.509140986704004
  2298   1      42.518664488603086      28.821664973318939      7.4207002756100788
  2299   1      43.024547849118804       14.71851069773396    -0.29198599325497726
  2300   1      29.691685819975635      29.547580869881639      17.584593705409706
  2301   1      2.5587922361747193       29.89844027250604      32.614563180434516
  2302   1      6.1379386065967196      9.1704906043270817      35.557391564950322
  2303   1      26.337493438842149      7.3620622796720339        31.6629497487523
  2304   1      40.424326527192626      14.013093138086768      34.937901408680084
  2305   1      1.5258078821007013      47.826157060431534      13.807600996574244
  2306   1      36.780303703136845      30.548456605496426      11.310576778714992
  2307   1      34.214325136218605      41.703747832089242      41.753348766442713
  2308   1      37.128673593876385      6.8064402936116348      41.729545437991383
  2309   1      42.752747888353561      19.395647651097111      35.433579281064674
  2310   1      30.764412368440102      21.629186671728363      48.189423066277215
  2311   1       27.59341141296208      22.428977770825369      24.824439020550738
  2312   1      18.515022188731091      9.3311525830086861      48.278885803575449
  2313   1      45.160157329452822      2.5134242463818497      4.5438836650076624
  2314   1      20.153512244190708      4.7512591307534819      33.492395650054725
  2315   1      47.449072452250398      46.662356788343764      4.4061795734435316
  2316   1      26.636887715236067      22.499591127389753      11.355791400599593
  2317   1      40.104875041760891     0.93636650168769853      5.4902252681919848
  2318   1      10.451475240530026      9.4507496304090015      2.3586681856296003
  2319   1      2.6035994271165075      26.425711376158649       23.96589781739792
  2320   1      25.603820721351234      19.251160984170038      29.447925501590184
  2321   1       31.54305003378261      14.103241645252416      10.053219374335987
  2322   1      17.598586275575407      45.301527522193282      29.010590601307413
  2323   1      3.4962971163353456      45.637177045740202      2.3564802433484102
  2324   1      15.918168475332871    -0.22553166262110075      22.319266487828568
  2325   1      19.891447830222926      12.045520824127873      21.315988455892693
  2326   1       34.33358021954713      47.650361866503403      44.825097738825036
  2327   1      12.938575220267264      30.565235845483141      26.152214825501183
  2328   1      33.944217092330021      11.818057565980924      10.571839986573707
  2329   1      12.163811108279372      20.036243692301348      27.553128866681259
  2330   1      22.517277863540905      23.492678008737705      33.775229893130422
  2331   1      15.765531825243853      12.153720292111007       17.67225491405388
  2332   1    -0.82717136357565857      26.680439633803861      11.920821908259091
  2333   1      10.738506469770295      11.187823419728462      18.861430436855162
  2334   1      36.733140193730158      31.289572167356077      14.641703715950388
  2335   1      19.771737069110188      13.462530835309996      15.315871350162665
  2336   1      22.978619370239763      16.157859235355364      41.342504125700195
  2337   1      15.517321524546114      4.3537865686009267      47.290483522022015
  2338   1      39.690839129593442      30.765305468241909       17.61746792086614
  2339   1      22.190077301409744      25.892059028673632      43.146753955183087
  2340   1      6.0779617100563934       40.13043945353521      4.1921058521519345
  2341   1       17.06222057446799      24.490780957623389       7.751076649518331
  2342   1     0.21979178975619537      27.146893046545905      29.313337362361843
  2343   1      12.103842764552727      26.330226900781483      30.037477707293352
  2344   1       34.53422418435494      14.073902113459971      23.246347066532831
  2345   1      22.591167664662088      34.981632261825865       49.41038403782526
  2346   1      44.059380451033242      44.587702338570097      12.470697473899728
  2347   1      18.982893987842345      18.101697240355669      40.528483798541643
  2348   1         15.123939892272      27.797778181748907      6.4841334413598677
  2349   1      2.9223956615792974      16.702013205880064      40.075156870041525
  2350   1      23.730684889084362      1.8053854185994582      3.0830650735635476
  2351   1      41.137735590763121      38.862617032157445      6.8946976220953111
  2352   1       39.10164254860512      44.459374742471468      20.945339988305523
  2353   1      46.509029107252687      1.9308344418807515      17.272131696842784
  2354   1      27.155580231111678      14.207712303263268      15.665411248356003
  2355   1      28.461693725978108      8.1451548521218911      16.679551570090148
  2356   1      29.030220214063558      41.503060961374786      27.347849660072768
  2357   1      53.242720757357162      27.057172755465626      37.060118447970176
  2358   1      27.857582724749896      6.7457083586213624      46.090118830295182
  2359   1      3.8767393128097019      36.679292505149611      21.467742806452797
  2360   1      14.072742173159369      2.3912570952450984      32.356026144495509
  2361   1      38.985459179735308      23.133134916850761       44.05111253016441
  2362   1      42.135305084847623      19.662162467363558      10.201115185348225
  2363   1      24.228775442419231      43.922305705963431      15.062015524648356
  2364   1      36.369119875585191      23.659785210709991      35.923804317673728
  2365   1      14.613616204276884      47.047781152761438        8.92163649300233
  2366   1      39.761278242786368      32.367962324919915      24.617304745722258
  2367   1      10.751179117057861       17.94743370086854      2.6587357988264766
  2368   1      44.209797210118268      35.401158656893962      2.5167260951405255
  2369   1      48.728250364863989      2.8409211647189196      10.967268560135794
  2370   1      33.427296162761799      16.995764544772008      14.885884436279088
  2371   1      47.487034670863849      27.947487819218921      19.976862892779071
  2372   1      25.270359237981427      1.3217084981440363      46.051982941272563
  2373   1      35.617616531765925      35.786925371875498      31.212691720859802
  2374   1     -1.1797463640948616      24.411127005909261      34.152948595929359
  2375   1       24.57516814779839      2.9880480728551553      25.183260731326595
  2376   1      9.6174838883944815      2.2379196334818645    -0.17526527100161818
  2377   1      26.991531152631016      41.244610432306516      44.922610138736189
  2378   1      30.338417330838876      33.457922706399671      34.292954511010471
  2379   1      11.946561287272695      1.7633596096077002      2.6591202767972919
  2380   1      22.879869547900071      29.134430001072428      31.564849825418271
  2381   1      19.683762328891024      35.076859366369035      34.153976206926252
  2382   1      24.412144686597983      13.602378020947148      30.992669404727756
  2383   1       22.07457990040524      12.361402364087335      47.887946652272056
  2384   1      29.321928494043537      24.644277614204348      17.914949944533728
  2385   1      3.1339896320753273      16.401286893026356      25.935171953259719
  2386   1      19.225611990872842      1.4666645611746623      12.339207326787268
  2387   1      26.124680112609148      2.9487026490167847      39.747331869437765
  2388   1      45.398683490642782      29.684760687395965      48.338410756284652
  2389   1      35.911301253172468      3.1296636060465639      7.6788706850918063
  2390   1      11.895462222230554      35.904153688388888      5.3909235429707811
  2391   1       6.768605879366322       29.01064904692322      14.602962947101618
  2392   1      14.916127308002883       17.68576624254429      32.595830965533374
  2393   1      40.946833036629265      20.660462992711146      43.209859971790941
  2394   1      19.623761980680541       38.06918464725036       13.00899945578549
  2395   1      26.078257058302658      33.497827371411361      46.030082393508586
  2396   1      30.118299073828343      22.044306966418041      39.393326902758126
  2397   1      9.6991210240846595     0.89450808864144438      28.420647760257687
  2398   1      19.239960573750285      11.450652015542424      45.664667773562222
  2399   1      24.543145037243228      23.619405775771135      28.041632670486941
  2400   1      6.9594969476187805      37.264793192361267      30.277047682399516
  2401   1      11.138802733529568      42.984508191464428      41.455352566024153
  2402   1      45.899861668296886        32.7471751104001      12.113774009932413
  2403   1      6.0082468054644593      43.383767099053081      3.6193862333929374
  2404   1       14.21625394981214      24.042178891728085      13.304756087776441
  2405   1      13.531451713897532      8.6083880286516745      1.0221753854173377
  2406   1      9.7123918465019852      32.320824421345208      22.219334893326671
  2407   1      42.029422890281339      38.432201293937517      21.743488791356658
  2408   1      12.901759366546482      17.483935798046289      35.652221197592525
  2409   1      16.625087746174991      5.1994959159159908      44.108389272106564
  2410   1      17.542990971329779      34.959380709766506      14.922386430652967
  2411   1      32.377152728454838      38.084657607723237      44.580969117448866
  2412   1      14.897687773129784      17.721259476127791      22.915440307979964
  2413   1      31.383190958381789      41.170188950734143      22.000135696350501
  2414   1     0.43288423484453425      12.221117331396691       17.56483480748193
  2415   1      36.462430928211361      32.931517089604782      8.6557913385337404
  2416   1       6.446884616452178      31.031949143010877      37.027664525663923
  2417   1     0.52413040287666601      7.6455774757056227      23.815745810962081
  2418   1      30.349455446052978      6.9813150228118159        10.2340711506258
  2419   1      34.211802450945747      18.448369074841914      28.685392576016465
  2420   1      34.775798858027983      21.387681464219789      30.209995367010386
  2421   1     0.57398781666489229       30.70846574927949      30.035277175650954
  2422   1      25.798801720390749      23.005813881480115       36.33943611787879
  2423   1      7.7960441974610379      31.390433983968542      40.032952001263247
  2424   1      -0.535970956047362      15.617645365689887        37.1537255505974
  2425   1       14.62774898444043      42.379016082350084       34.90579306196279
  2426   1      6.8145268949828051      39.124282770828003      18.690685753068109
  2427   1      13.169032730214546      39.112283327255703       5.141168020346182
  2428   1      23.519566117302737      41.654731072507552      17.392550355222646
  2429   1      6.4051053602105918      27.806358793754608      30.582619392117053
  2430   1       36.65416436711125      24.166297159748332    0.061709457491218755
  2431   1      4.3104465961531231      39.097796437595512      45.409274114512513
  2432   1      10.149454737718935      16.140577113348407      26.037396709095425
  2433   1      12.884444530249397      22.893251429297212      30.073435815417938
  2434   1      21.954473415783493      40.421254518410521      28.204315767241127
  2435   1      23.435437564030167      4.7653897978270328      8.5970569595004189
  2436   1      31.710623371130239       24.15942339744451      15.539412989419478
  2437   1      13.206795958364008      32.706916114936952      4.7464928082726843
  2438   1      35.912920195484055      9.2840690025566719      15.209982383390994
  2439   1      10.942301952606751      46.424103496687131      30.524682560685104
  2440   1      36.172772939621332     0.43584512207630571      49.095476467733313
  2441   1       38.99800602145045      8.2329223650441037        39.3357083755443
  2442   1      25.267734313488475      15.773957211401196      12.907304425196314
  2443   1      33.540746363750394      22.234976144410638      23.026915631610855
  2444   1     0.89146769101583412      50.999466861020316       47.43226068927882
  2445   1      18.151060705787877      14.653918085573274      22.167064435125724
  2446   1      13.782460260059642      2.9358515238876901      36.570295061482739
  2447   1      9.1128592416386862      21.271725261754174      42.242719507898201
  2448   1      44.809940165755847     -2.6548007525786086      47.215074030802882
  2449   1      11.203325302543147      38.356910875177888      7.7885935532850148
  2450   1      11.845358002941609       19.81229858696447      30.869902353283145
  2451   1       28.39464429066004      16.454282327064824      22.351748813384894
  2452   1      42.773820362917611      12.736615806571828      38.587709669778974
  2453   1      44.545378629063862      20.483340611011091      44.835075916101133
  2454   1      14.792193465767031      43.623089102466899      6.5913754141930747
  2455   1      39.329877903533543      38.731264372707734      43.870187979241649
  2456   1      9.6247933148191187      4.1134728381523198      36.764993244610743
  2457   1        7.06680374917714        26.8180339052427      35.140601193987422
  2458   1      5.9696680746216195      21.188867444103661      23.114294883270723
  2459   1      35.882156786173653      33.507358957272345      25.117387170686492
  2460   1      37.292246987711266      25.071328159937064      12.465931909528326
  2461   1       26.08516209085218      6.3672047952374031      38.210554274813447
  2462   1      5.2981897293676425      6.9556231539656022      4.4229971746420516
  2463   1      49.085048115535805      8.7590017712576422      5.3701975160357254
  2464   1      5.6800506648803921      25.289467126496007      16.141579153918645
  2465   1      31.728681002593678      23.580262772605995      20.714104671202033
  2466   1      30.558193471033881      4.1419660435203207      12.206527082293372
  2467   1     0.22561800554332276       15.29857322922984      24.748567222448749
  2468   1      34.135500065885296       38.84914532786766      30.726939148915363
  2469   1      16.982406812722171       20.17892496626785      32.103912710337127
  2470   1      13.164331822528489      5.8866432461611655      41.885563497110404
  2471   1      45.874258045247139      26.433196179326092       47.45184297426978
  2472   1      32.935197540859789    -0.12456971222338374      29.729498860561371
  2473   1      44.069976862145083      45.227604084015645      39.554435774047768
  2474   1      24.500616697127771      35.779946562847975      40.069664011592167
  2475   1      33.874643782029615      24.806922034654932      29.810619018770261
  2476   1       44.59703890521466      32.909571437737014      33.750667263697338
  2477   1      43.407041032479796     0.69888154860684737      17.071036421867223
  2478   1      15.220497239692188      2.8738059170821511      4.7760572207542911
  2479   1      19.965302692877568      44.044091976979189      2.3327053624719265
  2480   1      9.1405450775376789      41.583177482585413      15.953889269023703
  2481   1      32.259327239860376      40.686211248398031      15.770119073463388
  2482   1      46.131068440127628      41.274857908341026      37.932550715858099
  2483   1      25.863549621035354       36.90395407546616      44.479384846375915
  2484   1      1.7910475946401714      10.922443504824461      40.339280304985799
  2485   1      47.119561847590326      45.554960748453695      20.078488305182578
  2486   1      30.305089499794043      46.408033862843332      40.189554069257646
  2487   1      24.684466709947447      31.208388883941559      33.334259967929839
  2488   1      50.180832476746282      5.8804152181445417      35.988458136221531
  2489   1      33.453284004154959       39.99375696446608    -0.26812346415409483
  2490   1      34.189373421659482      25.290679050014823      33.060835962952808
  2491   1       8.662397090017075      47.781389171137675      12.700499279219011
  2492   1      28.581091177536578      22.674996602570673      46.227299094162056
  2493   1      11.702618998113223      22.848668006927518      49.160488925367389
  2494   1      37.041901922112601      12.592166576525905      10.950638610202903
  2495   1      15.262420161294079      41.572774652587036      39.012711910729877
  2496   1      14.946499079090865      45.155968902579758      1.2483110527344177
  2497   1      33.029211961467773      22.851664227367056       35.93146268684508
  2498   1      32.102118067040372      37.207235957978327      15.041822218017947
  2499   1      10.964855020887585      22.826557039896869      16.681286344230401
  2500   1      3.9957755383242426      13.371930788541858      26.535796959069859
  2501   1      43.235432714847278      18.145569446357658      7.0015080737177779
  2502   1      2.4724729932389056      30.139908761129146      42.096806584077463
  2503   1      13.500869376648113       23.33653428852643      26.711084724945263
  2504   1      37.740637302126096      31.918115510948503      37.035218742778667
  2505   1      17.379575273513201      30.863982842337109       10.87419321053218
  2506   1       25.86942865033626       29.81497823328554      36.662597737036307
  2507   1      20.006605902149548      42.468163022222868      43.475875799280836
  2508   1      5.0236384216708858      43.600990650872966      13.565319279382297
  2509   1      12.257498643213225      3.2673577728774905      10.758360977798738
  2510   1      24.569469636590103      2.8299513870615631       15.99826551650175
  2511   1      16.181339202639126      48.224415139226274      31.623988694629219
  2512   1      16.156928537751579      2.3873877177438816      9.7603445742067194
  2513   1      25.273873068278949      34.541962472352324      18.331059123597583
  2514   1       42.62964908531486      7.9451262630294863      3.6831519433351434
  2515   1      21.204295104004217      43.426362689863332      -0.849132622508046
  2516   1      20.808826587658857      20.871624284494498      30.247786508485429
  2517   1      30.280160884217835      27.274216751338397      33.513488156391325
  2518   1      6.8985430554964404     0.74009204533199813      21.773248007513111
  2519   1      35.254581611808767      43.027861464403919      34.305164608021158
  2520   1      33.073853335059134      4.0750329653653496       19.68311750957167
  2521   1      33.343154797872309      49.012730040712931      15.744189700199721
  2522   1        12.7791109227206    -0.41521658048430132      20.465541711434245
  2523   1      17.815999211169913       46.29764062959385        3.33787314272133
  2524   1      17.961990247658175       28.48956052099409      40.161083442134242
  2525   1      14.840750058699445       17.66310295432168      14.383564969534035
  2526   1      14.801140774269014      35.013501631709694      18.746565707816949
  2527   1     0.99825334931644516      18.506056188884347      8.3133369538186788
  2528   1      17.853416151181719      39.323402515582792      4.9800924307827499
  2529   1      27.057258473995731      32.442444407627477       4.390140084246581
  2530   1      25.908857548149108      23.535802586188687      33.026151974660849
  2531   1      12.216895171536452      8.3378278553819172      26.617413953429224
  2532   1      46.596893959603392      26.728742173314789       38.50284809168339
  2533   1      7.6815040079413288      41.246427063286781      39.696412903933371
  2534   1      49.863231291653804      22.694701811068484      30.928289103386845
  2535   1      30.802325821881318       31.28254649405751      28.170492212900623
  2536   1      34.253248597887172      19.358214999358758      45.265631550164549
  2537   1       39.65006168350569      44.481693832182671     0.69054741443580925
  2538   1      37.000682834444873      10.288056751795116      47.955766178650556
  2539   1      15.759512442282329      9.0952065434159319      33.173625177742117
  2540   1      37.928367527477349      39.144300470611782      12.123476748503554
  2541   1      24.667358130696257      28.623408053585194      26.372552021560566
  2542   1      37.646937042081369      42.574479794639188      46.819938409985966
  2543   1      6.9993026335493802      10.387502462954513      28.213719748016814
  2544   1       31.71052734474355       1.743826575782202      21.737416788075841
  2545   1      12.900354588102015      20.771300504836343      8.2385860485758009
  2546   1      17.270207889005899      4.3653889373417671      27.773895178970768
  2547   1      1.5617006035469767      21.002161419007709      37.182694630548461
  2548   1      6.6710422934930165      34.810746712344688      10.846427486282568
  2549   1      17.577360306671743      43.189525347817678      14.494960485858892
  2550   1      44.694708493681183      9.6982312167625224      35.613488894302783
  2551   1       39.99824042137795      13.361302459999225      4.7802996745428414
  2552   1      2.2859659183024235      23.502218851341805      35.118128538615935
  2553   1      37.151144018523851      3.8580857931236681      25.511039987374893
  2554   1      6.5914326373765739      16.178192465745429       3.156244119624342
  2555   1      7.1285380902017579      23.352635328928418      26.690354937175201
  2556   1    -0.37951174561891937      5.4753120919820919      33.274859619791343
  2557   1      8.9107581452330571      39.066511261447403     0.84385627420889731
  2558   1      34.736419498578194      7.5889827994043966      7.0527152820119161
  2559   1      31.007547542842545       14.14154390514256      21.721310435047986
  2560   1      46.702782121372955      9.2989762449021285      46.689676690062512
  2561   1      26.384206134803726      42.297875296050897       8.499988643236966
  2562   1      11.990911087184374      4.9752962979473043      48.361775228664591
  2563   1      25.414891464141281       16.70874614193982      27.198452590757331
  2564   1      14.659650343495738       19.26495909274955      25.688444329976925
  2565   1      16.632240602687894      38.350125512917558      36.189870794882793
  2566   1     0.86196387427352239      7.2796620044296612      29.093907543814588
  2567   1      3.0183763339540635      46.185369204742756      16.572030617233175
  2568   1      2.0019903331426421      25.879550802302788      6.5561904970561047
  2569   1       32.27868249820478      47.550391138259954      12.606566801670047
  2570   1      3.0557338134374907      20.168726929765352      24.743386767237656
  2571   1      36.277446615037768      5.3168868725851564      29.318873717125228
  2572   1      47.486628757819155      13.304256936871994      45.930620127397233
  2573   1      28.059622956572593      18.022286063546037      19.225242466429716
  2574   1      37.008891899356101      20.195081400500857      16.442505279833465
  2575   1      13.289974454488473      43.548085268566219      10.178786762086375
  2576   1      14.274951252668769      6.3429795326546143      29.701605711768668
  2577   1      15.296277915746233      8.6911583313580891      12.197407524881868
  2578   1      15.476740632040944      36.871535141523196      3.1948371704112963
  2579   1      8.2506205859505695      6.2894244747873982      39.670274086311657
  2580   1      5.9001220713738709      24.865020903967462      32.460265622061534
  2581   1       16.49865594502862      20.079305208369483      39.911510330471771
  2582   1      32.592092803980918      20.911023909748067      16.210266201242636
  2583   1      31.417337322986654      31.852290589065827       31.76215987839829
  2584   1       28.64535353653249      24.892658929754475      40.465430187485104
  2585   1      24.756310599734601      27.534750844203113      14.241238754136567
  2586   1      47.684725615516619      39.694858219495018      30.894506747093196
  2587   1      26.799129640057377      11.479442156096205      10.554258147914771
  2588   1      34.585344262292786      2.4655922812998079      41.095101820831317
  2589   1      14.877930318670922      45.252717515983058      13.655954208105127
  2590   1      27.057125996827427       9.540428132600951      3.3832440200484419
  2591   1      34.529442567010335      32.354615532917968      44.194886675306911
  2592   1      34.036507352154558      44.702047214772136      28.872255626715898
  2593   1      35.638546160581058      41.327021463150707      37.075762253450755
  2594   1      10.600556780346512      32.122123946743926      33.445976593003806
  2595   1      36.697902477159438      44.134925768398276      38.570607383648252
  2596   1      40.700921119807866      10.055643739986348      18.570330509894919
  2597   1      46.730629293711516      32.957348503051925      8.7305152656513734
  2598   1      15.996399759134304      7.8596277347465255      46.625907880694484
  2599   1      6.7723343209980946       40.46305860711378      21.691925715773792
  2600   1      19.622201545062119      33.326582437427383           46.2419609628
  2601   1      41.664064362062632      10.047362782151247      36.946548597661319
  2602   1      27.740400021096971      11.082112122281352      29.532967961548039
  2603   1      22.969993220061571      39.891201642598737      22.983991679314798
  2604   1      21.699913840936791       39.36749715321335      43.350876888068569
  2605   1      3.9546137518281808      7.8033512021529958       13.22667289640259
  2606   1      22.540369918568739      16.796479400217372      4.6179771882948568
  2607   1      37.470729051639935      19.502150888312126      30.656224535826418
  2608   1      32.290667554614181      48.625379628295541      4.2299956960621063
  2609   1      37.107248705387846      14.637490871129371      30.297803799542095
  2610   1      53.968003848890412      23.278992679381361      2.7603727260531112
  2611   1      41.615555166441283      10.748422190753725      1.9779113005302094
  2612   1       11.35540514216957      1.5868763871984244      13.764871083031945
  2613   1      34.287491649429732      2.6902886339683501      31.156628586025523
  2614   1      47.453419576727008      8.0975178279883959      37.766164996971412
  2615   1      13.102536378513179      11.483717938293521      2.6595790545253291
  2616   1      14.144559486472085      25.799882669681473      10.280321881371242
  2617   1      19.377650934780227      38.225933344402428      30.793307517273316
  2618   1      46.857106101196436      27.268206697443041      32.327398164034747
  2619   1       25.29700104785638      32.795587921869497      1.3072824318329914
  2620   1      8.3401666124168354      44.750658196949189      29.713368735290661
  2621   1      18.676712018873143      38.510449622810157      20.590483311498737
  2622   1      25.759380188880726      45.877998880746475      40.558684509199793
  2623   1      6.0096268905264498      1.1339453949588436      10.120752985780218
  2624   1      6.6949876037282845       9.366721079701346      21.370408832128799
  2625   1      41.408252984091227      11.267819163766875      32.889917088039113
  2626   1      43.469323723641764       20.05520432879171      23.424701219406622
  2627   1      19.996428232516259      31.371810092240526      2.9863982768467885
  2628   1      41.255150608349311       31.82414062631759      6.6914905729480312
  2629   1      21.028861240877877      29.430842811490049      38.111754922923438
  2630   1      43.779694476758614      46.009772624762803      21.535839612074827
  2631   1      6.9277507246710197      47.267997230651766      47.970224130085917
  2632   1      43.085190146571563      31.020842964934495      11.166190469487772
  2633   1      5.0234940209771706      40.194546177966963      41.639851534512786
  2634   1      11.352533601379719      29.131460921051126      45.624057815164711
  2635   1      21.193002256738716      22.599416529534988      12.763938314573325
  2636   1       30.74601511654166      36.206897221559821      39.497720064036102
  2637   1      45.712067860782646      16.237746086210564       6.947789625203785
  2638   1      8.6219971467602665       16.15173161851072      23.182747430475988
  2639   1      6.3921714661664115      8.9255071228720197      10.375811472570817
  2640   1      13.886041310759817      5.4659843402435007      24.002687768026171
  2641   1      12.655355904142541      22.598906447694137      23.049951054060411
  2642   1      31.322296433221279      46.569455709260097      21.445405801483066
  2643   1      9.1497094545634337      18.792904528576894      11.529003842329999
  2644   1      7.8899232154859051      12.330761281245451      40.611107811086512
  2645   1      35.867161381725332      46.084489886326942      35.939630637102546
  2646   1      14.839403946218285      8.9471892698956879      4.2640912248957488
  2647   1      10.256518129111736      6.0281084751476222      25.052453401573594
  2648   1      1.3823648053318647      16.948242382999993      14.209470941599589
  2649   1      45.672698311722456      29.010924724371602      26.923631794000489
  2650   1      31.990683949075045      34.951990330589254      47.709154948390868
  2651   1      34.901133629733643      14.329927848124509      18.903016841609656
  2652   1      40.509496036094902      31.986183091255352      28.729040761421658
  2653   1      36.327602295385709      22.578596307507489      21.361779077760687
  2654   1      20.070435996837691      14.336948922919779      5.6455775093479916
  2655   1      49.296220910410675      43.177753031324904      8.9876054741487419
  2656   1       39.30620417279988      40.787250095565895        37.9213142923834
  2657   1      11.554562684759569      7.9991089759575527      32.436588712592034
  2658   1      33.108116996901046      17.932239177080767      10.971564167433122
  2659   1      33.202222192838967      5.7615225729736288      34.581250408303596
  2660   1      42.297361708669058      23.955258429757425      43.259723642628941
  2661   1      16.912391441605866      18.597079976377273      34.970280169060075
  2662   1      10.535247773613584       14.24320799106804      33.732923152213594
  2663   1      33.211838438727284      21.334114143701683       3.370761615006419
  2664   1      39.805934316881959      35.495747608946381      15.768721674669907
  2665   1      1.3357221375254125      6.4035621851345583       11.73969488574544
  2666   1      27.167661081040556      48.281223497250352      28.344310574522002
  2667   1      44.446080766926059       47.53782992553468       2.458625385837427
  2668   1      46.339428591392419      5.0995623677992423      44.865890035969208
  2669   1      7.4022519868883387      37.815949960641703      41.431039456538691
  2670   1      13.204497616870977      25.218637856447117      33.626061162748059
  2671   1       13.51225291410913       16.60699614779794      27.423407209238103
  2672   1      2.3749235134823627      23.003370238821741      42.104071130704824
  2673   1      38.655241984141838      37.074502602142381      25.357525018560768
  2674   1      5.4928516146418946       18.02419939986024      23.674878244959888
  2675   1      8.7078317215841103     0.49631680254968913      16.674867635120911
  2676   1      3.2626684565292603      42.688329303299966      10.927664870730709
  2677   1        40.4646020955539      2.2804453624896963      27.989683427953551
  2678   1      40.986555713898959      37.557861428234332      41.219899512743105
  2679   1      2.4164791850011338      19.783382401304635      29.092737103101364
  2680   1      2.0599437795888993      41.431850758057628      22.134351859563498
  2681   1      32.484358921550246      9.4853955389406774      27.489119535650079
  2682   1      9.4045679086760465      7.9302079184101135      20.157470754169722
  2683   1      19.659200730853751      18.899276844962543      18.135833666533411
  2684   1      35.667467060134108      23.617952400751541      9.6401586725918875
  2685   1      4.8078435151338361      26.003559699091259       20.01487106171766
  2686   1      43.191813907294062      7.3179462830021489      27.934845919191385
  2687   1      33.413197419849816      37.526865207883581      26.231676076179102
  2688   1      39.001691208417625       34.73078877603654      7.3112967035287326
  2689   1      36.008838023009922      6.9930266948649917      45.959499426354782
  2690   1      21.260524705104007      46.583151205258218      49.401319605377694
  2691   1      36.080352012610305      38.283109763021457      43.386304526909754
  2692   1      24.548816814543397      38.394431317913295      37.357018652257103
  2693   1      32.662470763796492      10.208162041693029      43.339175723654165
  2694   1      5.8993372436307157      25.936495937056954      48.276762341966709
  2695   1      10.293981345020669      41.107920226535413      28.641130044327387
  2696   1      53.209783235069771      29.506608669913579      39.444099444554404
  2697   1      34.886003283106284      36.396774955879479      23.713105089063404
  2698   1      24.041604850262416      13.283548421300017      34.429879313330972
  2699   1      3.3912472898627835      39.099516677152877      33.401264578636741
  2700   1      12.479757900713032      17.185381683145071      38.875512178348117
  2701   1      46.844661456375768      20.571170188567134      15.583394029141269
  2702   1      34.818672090904052      29.536207610497751      7.7609121087592063
  2703   1      47.442654318356738      30.932358129213068      20.792312141695458
  2704   1      21.007093816038449      3.1084463265509581      1.5692285842595461
  2705   1      13.103173991890607      19.651444629182869      11.376220927669292
  2706   1      27.929278570069695        25.6318142481766      36.691526119104608
  2707   1      3.1360143298428378      8.6029217839687799      18.594649974958628
  2708   1      10.642199428754093      18.403149532008459      42.684309330024519
  2709   1      39.374891861465471       15.93190399540555     0.81748323469585371
  2710   1      25.270317679725583      31.795837821928927      9.1694090715322396
  2711   1      32.403252620278998      34.845814823398094      32.083614138985709
  2712   1      14.398152684577948      3.0856578611795298      26.422459256828066
  2713   1      2.5049068596220332      5.8396260873758807      26.254327743022515
  2714   1      33.605779248264767      14.315877325186186      29.660659266568612
  2715   1      17.342104548555042      21.522122329045384      29.165508845788708
  2716   1      2.9873304530686902    -0.13662164537868215      40.637463626276372
  2717   1      37.476344153865149      13.487683148389699      46.829362523872234
  2718   1      9.4384280629258495      15.144607296537583       40.30756112730564
  2719   1     0.78905180937497166      32.965236224170027      32.656476992897936
  2720   1      42.218101105697009      37.018122280227225      34.993880155941355
  2721   1      28.950037250386355      23.221701656520274      34.634562504801508
  2722   1      42.249105630900615      10.692486557327589      7.3343742845839701
  2723   1      46.887428801463713      38.259601677465632      34.789580496474947
  2724   1      30.103960119188681      14.533724446229272      31.324047985926253
  2725   1      18.216578416175068      39.366826982848913      1.3233045495928237
  2726   1      22.176915085909215      46.803605796313519      35.698776234578126
  2727   1      22.662632189688079       30.74077659661484      20.476384681986364
  2728   1      4.4057224471069931      4.5914948486558718      1.7296924568412715
  2729   1      33.244910584368469      13.083789662458754      40.633703988178596
  2730   1      7.7250259679770883      41.296138099559265      43.172621970865542
  2731   1      6.9155692936592663      13.840989146353566      5.5511440299580546
  2732   1      41.382824322869588      1.6370983116002868      31.352991718667074
  2733   1      6.5351321309317063      12.795683474774167       2.316826055633479
  2734   1      1.3764427667176493      36.181015777463593      34.914276755700413
  2735   1      15.329166619090079      23.442037215393491      20.787431586918334
  2736   1      41.852473929625162      46.275124260558115      18.395279036342153
  2737   1      46.293222639490999      33.341598704603236      43.570944148183479
  2738   1      48.732593067669669      23.820252500951202      28.196556114406167
  2739   1      27.571634714722141      11.004870080655136       14.74980523317582
  2740   1      10.537886625261669      28.940442865597049      33.990274164922255
  2741   1      2.4695981986807829      9.5076340828550716      1.9989226427271025
  2742   1       36.21021550693424      15.168635576896889      6.0217429508824383
  2743   1      29.672585655276301      22.370093925576462      11.916975996221229
  2744   1      34.876862269909985      41.659258079308714      28.432456258305546
  2745   1       48.63848525102533      12.547559940142962       35.35535073727376
  2746   1      20.247176195224572      43.386835084243934      11.918780577433843
  2747   1      47.306085704438097      30.602330153012407      33.843873651428325
  2748   1       33.80645390315194      20.924836312020265      19.853076039032906
  2749   1      4.4480343794157173      51.430736461873387       24.39037523325338
  2750   1     0.27938161374613624      35.280483017073003    -0.32595095062984547
  2751   1      46.432456519145227      39.856765134733301      15.818772553445203
  2752   1       18.85136705997262       23.84208916174574      14.719553999905875
  2753   1      23.744162529453622    -0.31550796880584625      26.298382057785947
  2754   1      24.004703781577525      45.062352826710736      20.705073047266282
  2755   1      5.7488562382663124       4.844286019697873      12.767083615032433
  2756   1       32.97905596490628      1.5561221607973046      26.280005068650397
  2757   1      30.717556361867569      32.410404461750701      10.108720014930157
  2758   1      44.717319147700643      10.161504775137772      38.785856782093731
  2759   1      3.6573553232219211      4.6654892068103999      10.304813060694043
  2760   1      21.646015824003612      47.217130386065222      17.263160885507091
  2761   1      32.806813057412789      41.123650053152481      8.9923600037475104
  2762   1      13.382268586475766      10.136165681091985       15.94723122429577
  2763   1      38.604928460054765       45.92341553328982      3.7285972034977903
  2764   1      22.861342258228682      6.1784347283182752      31.641870690262323
  2765   1     -1.1834139956870362      41.019992638086919      7.2427071859034315
  2766   1      44.625777043949107      14.592150481121942      9.8066722983227077
  2767   1      36.774182723506428      34.512839314957404      11.485153131059299
  2768   1      32.192379088815528      8.1944709304993637      36.694592678822346
  2769   1      45.266029645882362      37.953893966941386      5.4298588167211985
  2770   1      31.413981660977004      29.429062192345047      6.4465678144255731
  2771   1      21.757989253006375      28.104099800676973      18.395179261748329
  2772   1      19.697098028465863       24.15449440595183      36.137053835036546
  2773   1      2.7172812288937149      41.191358648145233      38.844752416978331
  2774   1      50.133085683347225      30.130042455446887      38.681124561521806
  2775   1       13.79002784347951       32.30616864883379      37.998199539123803
  2776   1      33.274170396211332      15.063283290100545        36.2988289233665
  2777   1       17.87364684754408      6.6505546964844191      25.264045194356733
  2778   1      15.863757841623634      18.019699447546163      10.625847647424195
  2779   1      30.993497400663742      39.349790206823961      29.025291227700905
  2780   1      33.851880270295368      25.949860444857947      3.2416949163642248
  2781   1      18.188815964726857      20.935701751847343      13.098066605060499
  2782   1      5.5327266911731705       21.55908636619094      41.940079595560377
  2783   1      15.293505520426931      39.323596869004056      33.364851558475749
  2784   1       44.08186417613895      32.859596351983747       5.388833342799404
  2785   1      7.3764508500657389      33.943469877473717      35.976915773778984
  2786   1      43.960634364762605      11.517362681903064     -0.3035624635591232
  2787   1       22.26054938500738      6.6670229351946633      35.010184006119701
  2788   1      22.595534527474562      13.385921573805378      39.152975182921189
  2789   1      7.3577534750393943      19.020627454780247      14.246107319643235
  2790   1      6.8046445272550988      46.439097536544374      35.396762349404668
  2791   1        26.2099379165772      26.787851875842495      19.418082567570643
  2792   1        26.2019355007874      41.657330722004424      4.4280870806840182
  2793   1      23.489617728372757      4.8756851881982257      45.556442267858031
  2794   1      44.895581942935983      16.830745337516706       29.98846628438795
  2795   1      38.298865587988921      29.804319478187196      29.972640499418819
  2796   1      -2.991968089788227       8.588236923758382       31.37075306124316
  2797   1      11.289762675829058      46.308674615188082      11.853753384988957
  2798   1      32.353411335433762      33.459542870985473      21.417086142949127
  2799   1      22.582786036597479      34.617247582342252        46.1718404204249
  2800   1      19.887677757216977      22.662491615341146       7.638830424703194
  2801   1      24.909229458447179      24.111012218342935       17.44440976984664
  2802   1        20.6850137676877      28.787669708270712       42.41897474017135
  2803   1      23.223781420827816      35.551383981694052      36.287564835676221
  2804   1      18.553541235177146      28.408958201651373      23.831138523480611
  2805   1       40.56242776913016      34.190273847925539      37.943315782602575
  2806   1      27.453604058195793      11.619244691380867      17.946245384303158
  2807   1      45.420122562495678      21.256951039905186      9.2885376525634733
  2808   1      24.176804050035386      30.171306880813269      3.8657009395967101
  2809   1      18.964082038812471      48.346020125894192      48.100687854002999
  2810   1      38.368209315855673      37.357672571392349      3.7195511564055104
  2811   1      30.399877098619189      43.239908296215951      8.0949822608352555
  2812   1      24.459333380884193      10.087885105276905      27.053583435124217
  2813   1       30.93633488377311      4.4718956660611315      46.848238898677373
  2814   1      9.2425097615961072      9.8029232152229131       47.45700576961309
  2815   1      34.287154784835579      10.120950405338723      18.828718508075383
  2816   1      40.979595736960661      7.8530064731214235      30.664886049084839
  2817   1      31.169404953163085      19.237337774946955      41.036404458242124
  2818   1      4.7708957491810349      21.062235997558105      38.444825406587356
  2819   1      46.370330399578982      3.2695838408436266      20.324174635661031
  2820   1       10.13752572506155      37.080799613103316      27.543853902015922
  2821   1      24.399785185508236      19.964629528469509      37.615789042370942
  2822   1       12.67102308222297      13.748376161056658       16.41055430533514
  2823   1      30.545042601785898      4.1934141378955552      41.736325541980229
  2824   1        22.2849903588342      41.350345804922206      6.0062585418204559
  2825   1       40.31943580492355      7.3882600293686806      13.720951095709644
  2826   1      13.374634092992968      45.027831053122888       20.10225912062479
  2827   1      45.625845477573066      5.0901228377409353      8.5072228887415182
  2828   1       14.83818985803369      3.7260510052266942      19.640934672258265
  2829   1      8.7791759639924525      6.4507507360980094      11.962617688517511
  2830   1      43.229475806941892      41.062869012694598       32.51730756070328
  2831   1       5.771499930141168      15.111784176247349    -0.79658613097807718
  2832   1      14.939111725073971      46.854955213725532      4.4729791578330449
  2833   1      31.475528107288778      7.2955604249438277      43.853665499814696
  2834   1      24.893903358834908      9.4779981006940979      13.422218396231484
  2835   1      22.832249788908193      15.770895229610813       36.62692060565049
  2836   1      15.668983522469553      6.4842909204907588      21.252256939015677
  2837   1      9.6538505686989282       46.90336505244241      3.4618431935306244
  2838   1      34.099572192888196      1.7220768786553202       37.67951894185444
  2839   1      52.432636953726316      17.470863399494679       16.58429786532184
  2840   1      8.2863470982306211      42.850930702073349     -2.0413414198089352
  2841   1      46.108564047188665      42.435260198583222      9.5728638587773123
  2842   1      21.981556919363022      32.470520044660589      32.144984975769383
  2843   1      38.139490195330325      32.383852231253819      5.1010059342992813
  2844   1      29.854035707865666       16.09026694726132      34.563518100776221
  2845   1      24.007484753214978      13.245028081373016      10.456200872405116
  2846   1      7.3998067181912415      11.705186874994268      14.012126722281682
  2847   1      25.758985826858115      6.8281125638615912      7.6939479600958371
  2848   1      12.418834886491114      34.403377720394396      28.201308264357678
  2849   1      36.812070404483173      14.634500748028799      41.595375427439954
  2850   1      30.146019018063608      31.662726698602611       3.779319280401888
  2851   1      42.671252579468245      18.827152758286545      20.402268095924835
  2852   1      18.420032822858957       24.19973249732551      42.095289464559322
  2853   1      5.1615991231058427      36.048947022755449      44.525959222458482
  2854   1      1.1722853689284616    0.047750627876715315      50.076732184173046
  2855   1       33.47200092291073      31.274525110047747      11.773635588070777
  2856   1      35.604964380145113      28.459626574395095      13.305324054008224
  2857   1      47.566027126147873      19.045603660505432       26.77516225262492
  2858   1      26.545719971112746      40.287834350785822      48.542921189146497
  2859   1      38.646407422256885      40.992934925101771      9.5388157177802508
  2860   1      18.004631825288484      15.795025323252602      3.5670862244355668
  2861   1       15.26053749819958      7.5408882719893136      16.648083771752752
  2862   1      24.409619646630208      38.698394847751096       30.11915812869934
  2863   1      21.902887747164247      30.282214037737084      45.146672700042132
  2864   1      4.0215471807574312      1.7419141097019695     0.14193093086364528
  2865   1      39.764592693999198       40.59504623428839      14.298497593450291
  2866   1      3.2201146377574474      36.146465804746668      30.486590153905077
  2867   1      38.916570549747135      45.883956551742727      45.203521871599229
  2868   1      41.230468993520788      49.224940547800472      13.549581000508374
  2869   1      19.206920606020262      40.917079490694313      34.727940554577003
  2870   1       26.85541026304023      2.0573511403343696      49.075816472671661
  2871   1      5.3561796241051427      6.2139116602467901      17.827841464962034
  2872   1      50.757187626599034      23.834891218562884      2.0785672802040671
  2873   1       37.06208593794431      19.446307894578894      5.5405330839134717
  2874   1      31.866329245482127      41.770153943193179      36.194450076820274
  2875   1      32.876037345973401      33.290316692186948      14.201827300087714
  2876   1      13.203871575062825      19.752722241780422      16.339347280268935
  2877   1      44.475026970597305      3.6991208812426097        47.8387830176069
  2878   1       41.58454320431261      10.198362505230556      10.640821200060628
  2879   1      28.891684136464878      25.567867617435883      30.875086265176307
  2880   1      8.9326648900295051      33.635853741009441      7.0763906133947083
  2881   1      51.660699350026626      24.797440522372302      29.187390381990571
  2882   1      4.7646588963212553      17.555291885972046      12.350032199889583
  2883   1       26.57266438887142      35.342610538616803       25.19502132767601
  2884   1       41.07368927403526      2.4979873853899619       44.57347500417746
  2885   1      27.211010381803995      22.536770514489607      20.944749191204597
  2886   1      33.407266608586589      6.1415507710019641      41.426356395134981
  2887   1      44.204882955231881      35.980334618789016      42.703982028639935
  2888   1       14.96507893944251      27.902147890589536      45.443518522414216
  2889   1      29.818708829940313      14.274636576572837      40.766585986011556
  2890   1      12.494922513788813      48.321165288558824      32.866469338390026
  2891   1      48.330615463594754      21.101929302715142      5.8979691411840287
  2892   1      37.553042354603605      48.730235771635527      44.367073529578185
  2893   1      29.173358314472246      43.760815036889092      3.2870415907897179
  2894   1      28.793319601041606      9.2776497402940006     0.44687422195915366
  2895   1      34.803444390459923      21.712236895203624      6.4246463098263984
  2896   1      12.552683426697362      11.019905676235069       8.533011159618189
  2897   1      18.887958957817531      30.952944078659566      29.553707375638265
  2898   1      12.445066347493956    -0.69243564656650169      15.901418284955426
  2899   1      43.901973050284695      29.914401789810743      34.860149685832582
  2900   1      20.791414817333912      16.914284181845172      48.631833386588525
  2901   1      43.489164798497974      23.350816682220191      13.025166401945553
  2902   1      42.970027095028485      35.653684984573466      39.278507646408016
  2903   1      24.236481445389916      32.324909178578139      37.658983363363376
  2904   1     -0.7347364585088163      17.674951111730742       4.766236397420081
  2905   1      31.973811052102562      16.037534239023621      7.6192897771185883
  2906   1      40.668517963966146      12.273624847774574      24.946924281108597
  2907   1      38.234049990931425      43.326277760340936      35.797918503219336
  2908   1       23.78522892500726      3.1597468152583748      12.689955974239563
  2909   1      3.3897103128148443      29.070044402972169      6.1742166736659509
  2910   1      9.9083908764683954     -1.1372445217395715      38.552548602468036
  2911   1      33.683137884230426      9.0554016926017216       33.99999047046434
  2912   1       31.12044270304451      37.042075684557261      1.3193439316308782
  2913   1      11.741200588702426      23.791409461584792      52.220176059917037
  2914   1      1.9952301176020968      34.042334719575976      45.049616121156667
  2915   1      41.606982278930666      21.634589623117371      27.096280262829534
  2916   1      9.9171647457952723      36.621216348142113      10.102410897323947
  2917   1      23.239954469896681      32.769101782764238      16.682508524414033
  2918   1     0.97244679831500647      36.123636676842978        14.4015253908372
  2919   1      43.043781693302186      27.170625486920482      10.973332174529972
  2920   1       17.74608584630413      10.063787463700496      22.912938828550526
  2921   1      32.789021896251576      29.922440303195405      37.752864984805477
  2922   1      31.918880967604693      19.616807545331813      7.6067036194382629
  2923   1      36.787614363069977     -1.5093940780503803      30.148676150649347
  2924   1       14.28127841858829       45.48749495322182      35.946704261083667
  2925   1     0.57183837948664618      33.702719003673096      11.805464428900821
  2926   1      31.149124136148444      44.017687155781367      11.064398256589994
  2927   1      22.264173165444824      17.338695051684418      19.128986718783839
  2928   1      27.155003248258488      6.0919062870103833      27.310433599559651
  2929   1       5.063570922431202      24.693765749022639      40.943523126136512
  2930   1      43.055697430380626      40.379030921547702      5.1330212011578498
  2931   1      8.3372053863493711      45.603251621036783       6.539589107744229
  2932   1      16.862889574816126      10.259339426296672      15.140405328372943
  2933   1      1.7532635580143656      31.888460974227591      18.311253333792848
  2934   1      35.953505131688644      43.819668337471924      19.918696666767747
  2935   1      5.9405364043553517       40.15940266049536      13.761218559638515
  2936   1      35.744216161825733      38.481402970830544      33.468246172250161
  2937   1      1.6881144451420911      5.9087322205474617      16.577694929094793
  2938   1      9.1325194680204778      2.7398075815518705      10.368366508698712
  2939   1      22.050459735808055      33.686530814435308      25.407278030913524
  2940   1     -1.7806550400112375      1.0566229977317385      27.777508606284663
  2941   1      29.257175259494673      17.179286907592399      11.654838366091735
  2942   1      5.5636534220439007      36.062833497118014       13.49422149622394
  2943   1      17.880794075896532      5.1736502678933496      18.587023792298371
  2944   1      13.682629775924177      13.485422994591344       36.24747702411225
  2945   1      11.898623973119902      11.862654343799367      47.701631336088383
  2946   1      28.741845672204601      45.460892782443196      34.236829727286363
  2947   1     0.19886730123704671      35.602146328182485       9.403215760102178
  2948   1      30.046527134138934         48.603706395779      2.0862020429725288
  2949   1      42.605638496229467      13.172226660106498      14.648788082851869
  2950   1      25.324529030204619      18.908360489525577      40.980617459511414
  2951   1     0.76406749903111471      2.3112448297386745      19.376533419582628
  2952   1      1.1278426393561454      9.4284682657518637      16.046499370363037
  2953   1      13.421926774885168       28.83152291151535      35.440578471587493
  2954   1      41.518783319495107      23.401814597146799      49.181933991773839
  2955   1     0.35438428386260773      41.743568507307273      49.992642045146496
  2956   1      30.778784541318906      48.379584439180164      36.032693393862417
  2957   1      32.752991801472589      44.212663954641869      3.8258538297738243
  2958   1       23.04191789771447      38.922255199639089      15.983007331014846
  2959   1     0.10317330381950807      22.072850726201068      18.217403256757343
  2960   1      7.3405816358596478        33.5798819657876      24.109848411801611
  2961   1      39.838711364509223      18.257048510989289      15.736007226493077
  2962   1      4.3647544949846608      17.496818233608938      6.4825541529562649
  2963   1       4.091859011384015      22.367701049598828      48.702156316568214
  2964   1       35.38026898214121      37.152373924315448      14.422740909463457
  2965   1      19.613708315429953      11.728568144176611      39.765260698842518
  2966   1      41.847970845847833      3.9106678864847453      25.435806939196205
  2967   1      24.217388894197928      47.029766126655076      46.868006489583301
  2968   1      35.143846231724098      2.9682049938471642      16.282045494947756
  2969   1      34.202677917243193      42.094965787600941      12.106458622936806
  2970   1      38.747711481603304      22.924928813015519      19.255733355765265
  2971   1      13.019849469675853      30.906493974844341       12.44070578472062
  2972   1      21.020349631716609      43.418423667568689        22.6550154414901
  2973   1      13.715246949155537       44.12755217522394      24.126397972858047
  2974   1      13.216041592035157      2.6564512995163523       22.12168364803383
  2975   1      40.114267293190224       28.46829553348347      45.138462988025353
  2976   1      24.348707712952262      29.016078243684529      48.562722347603824
  2977   1      2.3522818004823534      24.178076509345683      18.096675789932039
  2978   1      36.377852206173003      32.774857009878353      18.173489441723039
  2979   1      8.3137900140362202     0.80624297384326804      35.068885426071645
  2980   1      7.4815880187966997      24.878310050393331      13.572061663220447
  2981   1      8.5492097075353808      14.127616727877017       12.08006489706948
  2982   1      31.283847701907355      47.100980165792535      9.5413874630591344
  2983   1       1.754916887248654      42.699797538997288      18.117318000070462
  2984   1      42.819738989334006      31.647385239306693      23.379656434835582
  2985   1      16.879223699200342      28.075295901537999      30.256308560304774
  2986   1      45.632768912295845      14.773062400929375      42.125559472530028
  2987   1      37.429542591954636      25.509225609902575       17.48980085363975
  2988   1      40.056790779894591      41.578888020708895      28.205931377619088
  2989   1      5.0454139800815208      43.014925121550647      20.746671663765781
  2990   1      45.958437951213092      6.2489667403396538      19.004533372938695
  2991   1      47.057109666202606      6.8714829155309234      14.881801662742793
  2992   1      29.771587107229323     0.44165198802491962       24.45336705106072
  2993   1       16.61828925555168      3.6983888792846686      22.535954963813019
  2994   1      30.523791715507095      35.573407718948523       43.78110970839856
  2995   1      8.1523076585224246       14.31926296149441      43.249771823537301
  2996   1      48.363851584055936       10.55446719171632      11.588154391362563
  2997   1      35.341822425486598       23.44153412450596       26.92056089154126
  2998   1    -0.58444388994236474      39.973544250121321      24.239330724535531
  2999   1      36.028492778079475      9.9761063138044523      5.3878424705837826
  3000   1       11.23033109994115      46.840926177680302      6.5692290129565558
  3001   1        27.3629626735766      29.218437428410496      33.712357379305033
  3002   1      45.761888877440455      22.559227725728537      32.223835863675255
  3003   1      46.347310907473876      12.467965693102496      6.1553416571717579
  3004   1      31.545155871160144      43.193753496420989      39.133291459533204
  3005   1      20.910905249491112      9.6184476023021936      2.3444229299322412
  3006   1      18.549989037204274      16.383937699819334      14.910394436432744
  3007   1      14.450070633004259      36.764643359591169      29.443421111278894
  3008   1      15.688284400309252      46.778370157551272       25.28778847188536
  3009   1      29.992258859120653      44.113504937755749      46.057826016868788
  3010   1       43.19979843158665      35.888989398058484      17.201349638799798
  3011   1      8.9531198712895446      24.042394842977018      40.761247277401999
  3012   1      20.854755995046219      37.564222691072686       5.017181202933731
  3013   1      43.809517200089225      10.785183618298984      17.148946155839269
  3014   1      11.899664715938604      29.628040398221895      48.863017576856421
  3015   1      29.595506313324424      27.319679516113368      42.338788420484704
  3016   1      20.227523838855642      26.127487464359316      32.010208671790672
  3017   1      1.5664950665798492      4.8297872812355118      8.1274382299374377
  3018   1      36.700022051537424      32.866272331368265      41.743920922946216
  3019   1        17.9404846904301      28.829335433529437      47.107502293852313
  3020   1     -1.9492068890161065      5.7680194866019407      28.554856836340623
  3021   1      11.163435807957406      38.576275345879019      44.647433793676107
  3022   1      8.9450467195671379      46.508229552742272      26.168718235953762
  3023   1      4.2244503765666206      4.1803042511254107      45.760813715866945
  3024   1      24.253840323338672      29.571392345168089      40.238401788555926
  3025   1      37.710838771359228      6.7474877119304306      5.2224319250269833
  3026   1      20.597347060300208      43.723167844109945      28.335373461601414
  3027   1     0.21542495347889709      42.869635424776369      33.078226015565292
  3028   1      18.737451168753346       48.00412618531692      35.622717606040204
  3029   1      44.212833589837771      31.217315243991852      30.138927793539555
  3030   1      45.888246942062892      9.6065552936051901      21.597916753236667
  3031   1      31.327566174439823      41.487861323048186      31.476945101447466
  3032   1      12.918512758440166      34.704932759684972      11.996235179201125
  3033   1      33.112588855335645       28.67533749738535      31.235930667982434
  3034   1      42.325448232132722      46.236460989713464      10.484911175454728
  3035   1      46.872862212507691      23.411853655634101       37.62507735292192
  3036   1      14.219976624750537      38.088788354198364      44.703757817219945
  3037   1      34.051925797458118      6.9009263975894282      17.429840836295792
  3038   1      22.608663370711351        18.9398037035164      23.293780811239795
  3039   1      39.826380223482055      10.352049831684736      27.322155917283538
  3040   1      37.363490711208549      20.046411376413285      24.039051677324633
  3041   1      33.590668752977074      12.673028883771126      32.898756109727728
  3042   1      42.508656727746938      47.568554209628651      45.073739543177695
  3043   1       33.98315240868741      33.608821504678502      1.1156329329474322
  3044   1      16.202213155699219      32.541979393677643      17.298908174362342
  3045   1      49.317189086791608      23.446946870315283      47.486288437715473
  3046   1      15.744924655758544      48.980360130644442      34.770677752513436
  3047   1      17.241682124536744      8.9593594322629713       9.490103186482628
  3048   1      39.628042522657466    -0.80788387640629034      36.712349622682432
  3049   1      27.068056920923922      26.543434907879998      12.069752294418128
  3050   1      24.490456208064852      36.082440864053098      33.173942675934676
  3051   1      45.444958949329958      16.346083842296895       44.96192727998514
  3052   1      44.473337644158761      12.383166650376147      33.166837364279097
  3053   1       36.25931900976903      36.229390999386254      8.4354521707015362
  3054   1      25.582006550108474      17.974407844029592      16.691722401271942
  3055   1      32.422601298406114      29.814376806309095      34.443798711624027
  3056   1      38.404732266852768      37.170103381414151      31.875099214974206
  3057   1      3.5384331171708387      29.611987620628675      24.904406551035287
  3058   1      13.456119501740968      28.171631773290848        41.7496515290864
  3059   1      35.556515086634832      17.673335898460365      47.758470118300885
  3060   1      39.707668362778328      19.949868753430227      18.529193613462446
  3061   1      37.908206195675724       24.61894947107098      24.335177952140775
  3062   1   0.0072849081982501659      18.123499206534479      43.464192429447571
  3063   1      7.1482284071918807      28.343608336795214      50.017240480593401
  3064   1      23.672216525327077      8.3796914411291556      5.3059971030265514
  3065   1      6.7657023410045172      45.894244585860719      10.906817430069367
  3066   1      35.060028009940112      47.796389971063668      8.9474893703694018
  3067   1      46.695214824396508       46.90546421383273      37.648231548122439
  3068   1      17.221614970728623      9.1271397295378573      18.422915127857571
  3069   1      11.901351311669742      47.985536681303429    0.055829259295823969
  3070   1      22.580997333579887      25.200433016316932      15.475030368402916
  3071   1      27.157046874469323      46.530955618916742      14.538831905368164
  3072   1      19.528938951084104      44.920691434186857      19.664474195704567
  3073   1      15.445969877892605      37.119765573550694      16.183334175714336
  3074   1      35.485502733797198      11.651885890680116      30.152798885962692
  3075   1      45.558440754239378      43.776623232251389      33.513334971120877
  3076   1      18.084649759142241      42.530781331124395      21.572658905045714
  3077   1      16.301778095919616      27.089221171657726       1.936122439397215
  3078   1      37.335359923559515      40.210544756125898      30.912257354913862
  3079   1      35.924852855814677      37.592167069536359      20.816002189477015
  3080   1      26.302346340830024       4.654796617731475      33.799739490275968
  3081   1      23.125000666575499      25.968109859883366      29.827064028026154
  3082   1      30.114049894183474    0.017723044362534853      45.847658741096119
  3083   1      12.300773836367958      6.8323739829940111      3.4784095722408286
  3084   1      24.872063158197736       25.95722661821458      35.102099162313749
  3085   1       48.56218025625973      47.474063701441366        40.2572204749045
  3086   1      43.553294063991636      17.526380766204813      16.167470285193222
  3087   1      37.623288838580685      42.419571211881951      12.222590394174933
  3088   1      42.628840089098532      14.868425975248757      7.0914143748721639
  3089   1      25.180820606061491      16.075737193718119      38.816404930749542
  3090   1      3.9750686361285994      30.813378630870492      29.921403852146245
  3091   1      38.761449512864459      32.893059471847423     0.48044550476088099
  3092   1       7.927271741721448      38.846773069613441      8.6319921523270136
  3093   1      31.409299003999575      26.084243575004852       5.965427155848805
  3094   1       22.84921360732606    -0.19631515343787723       20.70645124024222
  3095   1      24.618238526604472       10.82858692755334      7.9339788056068326
  3096   1      11.353029165876229      25.825309663761246      14.146538489616139
  3097   1       24.09785555622517      33.175013686893017      12.203206246232748
  3098   1      4.9698445913508271      21.726916091056825      16.224584104024228
  3099   1      27.882056252919263      27.026279991415791      15.884963723193154
  3100   1       29.95021964730061        28.3752452533659      47.971438067390444
  3101   1      41.868021337698224      14.513624921671418      31.870138542695784
  3102   1      19.390972312434823      4.6882445734401186       7.301304789540727
  3103   1      12.342080308810839      33.013423580381478      9.0670901118258236
  3104   1      20.060682635867419      40.364881359417097       15.13565789870778
  3105   1      13.667758088390555      45.405501331806356      41.127517934559584
  3106   1      14.578518647155216      38.758966484561604      41.477219812004947
  3107   1       38.65314130468844      17.560011830833048      46.340881639148158
  3108   1      18.555419045397727      24.350428799466041      22.330619902035188
  3109   1      26.950932786640937      34.231512734997509         10.737355716503
  3110   1      2.0738483698789851     -1.0249297378300541     -1.8113032933465096
  3111   1      34.109056180072976      22.176184365290048     0.49199029451277737
  3112   1      42.835495271155672      22.343345593289961      7.3424292770765947
  3113   1      44.343680940127307      27.241316074010665      50.358853646932857
  3114   1      7.2578636090122375      33.582992585091468      20.701942521435178
  3115   1      5.2825282164605962       35.37020976774847      4.1702044135913763
  3116   1      43.932475814707999      38.860250764365347      44.980060170466672
  3117   1      21.650131145892647      21.758103566935805      36.911547811006493
  3118   1      17.129308307052892      35.371469382934201       24.26437342274734
  3119   1      25.693275219265992      31.242989023914102      14.922471528263925
  3120   1      27.975376172214069      14.148513304785897      28.457622317628935
  3121   1      14.474719621724956      33.738342056122207      25.396940435971924
  3122   1      32.367050353452427      44.822221522600074      34.728294465061367
  3123   1      39.549670409809018       31.03803684803562      13.260715171331544
  3124   1      5.9794621842574891      28.700132453077789      18.187352474592988
  3125   1      26.668431271452253      23.256196252970287      6.9398160171958736
  3126   1      27.617193755925019      22.789700103777729      28.412766561704288
  3127   1      44.602600430374309      40.265246516362808      11.946847812969283
  3128   1      37.493467167590012       8.781823443777121       12.34866033678971
  3129   1      7.5685116916028141      40.139730449805192      24.523632179273228
  3130   1      41.986531554140477      27.859450951240422      40.238697474891154
  3131   1      44.293972907798135      35.143958278703074      14.372740727820258
  3132   1      18.569650047050747      26.733014844672862       16.76809411976992
  3133   1      24.638450846238062      24.879444447042001       46.53768684577809
  3134   1      5.0844551904065289       48.17979139020165      44.849385782473433
  3135   1      48.349850195956847      43.806868343308999      36.206611972302454
  3136   1      38.797138738542593      6.6819450220917398      23.148626855139074
  3137   1      9.2485664607987914      26.440801136519941      44.497447242071239
  3138   1      39.448375405953925      13.972127765457767      13.029473004675861
  3139   1      1.1609990322087205      5.2551272283177504      44.369627415361158
  3140   1      36.332800286809743      18.279120519026041      39.601984684311638
  3141   1      9.5486078336009061      51.866507098024492      6.7955380424472231
  3142   1      26.481637343254217      36.240776763160952      49.307177966135882
  3143   1      35.152696945328323      39.222591678339192      10.411673007042468
  3144   1      7.8610821649929035      42.367654229384421      19.353199903045024
  3145   1      17.804424121316433      42.117963979034229      29.569086378492482
  3146   1      17.791724266968831      35.509786218878823      18.281446770730099
  3147   1      11.126017361801891      33.064375200747364      48.488008883939614
  3148   1      11.930184208817051      24.819866480017026      39.529858792917494
  3149   1      3.4857957832543729      36.299326955467308       17.41478282332643
  3150   1      38.703561955510786      14.326881063810603      8.6934382984857113
  3151   1      17.089014017665104      44.726166124463894      44.881315168549023
  3152   1      22.802533089859264      13.360567180546012      27.303952412284353
  3153   1      26.251120890402937      38.653003091620612      7.5697172279682627
  3154   1      36.790125956685323      16.675054885822338      16.742358655283102
  3155   1      36.442247167348995      13.587796271461773      15.098405113611165
  3156   1      2.5329629778825891      14.173951495511488      10.053321911720547
  3157   1      8.3538278907934753      5.2780463529770483      42.815054560244548
  3158   1      35.290457381940406       46.73696460567669      2.3592520548936999
  3159   1      42.657386808162698      34.722840008883544      21.609001725192098
  3160   1      42.709641922817127      43.031031951586201       7.834292061625594
  3161   1      40.903054938535561      20.102724968765393      4.8497806310768095
  3162   1      6.7391116510752438      42.315152366510034      6.7365051621542715
  3163   1       36.00905921967167       5.222983875071284      22.040377746271584
  3164   1      36.852870169299635     0.80206734768177546      20.412457465877207
  3165   1      22.171031794004005       11.20687157469545      13.051357728137251
  3166   1       2.621952846281923      37.925523234622517       37.58472518206451
  3167   1      48.625324073434491       27.81918871547137      25.789103976054797
  3168   1      21.685407149892693      47.678078614236874      7.0598921724992802
  3169   1      5.2653450443179297      39.997716919549916      31.086263424431831
  3170   1      12.194542802640523       15.46904418921225      47.984062664727091
  3171   1      26.094045672831431       40.56867924364532      15.661600280651733
  3172   1    -0.23350218729490671      32.349084024203108      50.209781792347513
  3173   1      31.027185690918262       17.11167280260582      28.312344461825916
  3174   1      19.518610178487535      19.480088255287278      9.0782205831126532
  3175   1      3.8065863641428632      1.1880000077767821      12.326466553165726
  3176   1      10.060503573228807      19.505155915076511      35.571619707948656
  3177   1      23.525773968052587      15.154850897408721      24.800730324487471
  3178   1      27.641072946635731      13.145479481540457     0.91700143856221061
  3179   1      11.924618905518395      34.322634145136398      36.316919641501137
  3180   1      9.2970264537670939      13.767630066658569      16.091939911286726
  3181   1      43.662593414982261      32.434482457303105      26.864436377201166
  3182   1      26.189689314627557      29.754222259282312      21.501433810480869
  3183   1      34.160171640045611      14.460310984421533      47.337004515304429
  3184   1      5.2141132134319124      13.815543915830066      41.976348188732061
  3185   1      11.992823563605636      37.014751130755315      15.451514173583817
  3186   1      37.126560818228263      6.1139670009001659      14.464909886733279
  3187   1       42.55798425504387      26.820649163486017       21.79506335463579
  3188   1      7.3926829971692065      4.1378293607433676      19.426003166637546
  3189   1      28.161714361962538      4.3016169759988037      8.1665933812717029
  3190   1      45.762961494488813      22.770052076232727       25.05333302861656
  3191   1      20.449571668197525      38.315149373269605      36.723528548310284
  3192   1       18.55119505109942      46.980246098736146      7.5553766692167841
  3193   1      5.1662314749664979      50.382167516484721       42.20093005426105
  3194   1      42.419043572321492      5.9964149991847728      46.452198248705407
  3195   1      50.146819076734921      16.439628941051623      2.4870959008286455
  3196   1      5.4584084581637757       43.37312333238426      32.036027434367021
  3197   1      26.549375223165448       3.916804807845303      44.568567624090946
  3198   1      7.5508867290434081      38.290636199721803      45.603938445219057
  3199   1      14.715833769311862      29.775603538507269      3.4752953047195354
  3200   1       48.63265667692508      15.582813138825607      33.636334948492419
  3201   1      42.774934643029439      46.739465152899363      5.5368884715572824
  3202   1      7.4843073454330264      31.943163320523258      30.407089553410874
  3203   1      36.380935452111629      31.313549166909212      22.286431878737492
  3204   1      17.139405504091357      32.171570991835466      23.874895177037867
  3205   1      33.392200541070252       17.58697399903981      22.255326615692951
  3206   1      44.779252251750833      29.260449672626926      40.603921231614699
  3207   1      25.013042278583491      34.794903968255042      7.8607762097350902
  3208   1    -0.20062121770244026      17.192882863581456      10.943256909565356
  3209   1      24.560941900341625      37.900024994163132      3.3753226796397393
  3210   1       12.54909834015303       21.21093964082915      20.291476811734483
  3211   1      28.333112944694665      20.409166906783963      37.292434064269969
  3212   1      33.128243364001364       16.21501429198063      39.264513651913909
  3213   1      11.153566263426518      43.759812900641521      17.297005065104813
  3214   1      39.585279165706453      8.6862295017490236      45.087235719115135
  3215   1      12.867011863870069    0.038654766895199082      25.133639493045923
  3216   1      39.104026344419538      28.056598983462916      12.228047493693857
  3217   1      39.414583788613008      16.743624425943771       18.68589534684714
  3218   1      25.542721823689504       34.52927985786917      15.019879833055244
  3219   1      28.091558167663049     0.96632196857487229      41.505558655504281
  3220   1       27.21627695908634      1.7777791248139041      36.946695695957914
  3221   1       30.22994245542387      41.806081287706469     0.42957672606184877
  3222   1      37.166281855951667      17.070788467587303      36.724079512045201
  3223   1      20.036860928567219        14.2916949476977       41.83867614384296
  3224   1      4.7446190866949038      13.681412360550077     -3.6184720283306402
  3225   1      16.085583579983439      35.290997965597249      35.657492896132901
  3226   1      11.138342116459269      22.757956738276732      44.340210047864545
  3227   1      44.018730905716907      25.986952094739291      15.151346427376966
  3228   1     0.74312713185820889      3.4802353216969251      28.652431318340732
  3229   1      23.767828450879566      6.6103070277885356      17.231035169809456
  3230   1      37.728138400637107      46.648453970766234      18.991927329991274
  3231   1      35.571713119153252      40.445588909183577      15.256289358329225
  3232   1       24.69080004288687      38.710273142464452      41.593008077194668
  3233   1      22.293570510330444      26.667247930935421      24.767881739067366
  3234   1      33.523442907947299      6.4526349749020424       30.53686258714286
  3235   1       14.77434897341776       1.347003389496902      43.965851716956017
  3236   1      40.029758912486244      19.018517041988183      25.862176972857274
  3237   1      41.952759046557517      14.548333435803336       27.25832577319558
  3238   1      43.296694889199969      44.817002477944541      35.929677483488462
  3239   1      40.425356715157882      30.211221678477798      41.898374996440701
  3240   1      35.191697874475253      20.883417507156548      37.458490274643438
  3241   1       49.24039586932696      35.015807740096143      38.195244007893841
  3242   1      5.6673863143551237       11.74358469030779      47.601630344746575
  3243   1      30.720390725111137      25.297915110204819       45.29544247810955
  3244   1     0.59707045765528144      40.946696064692539      35.824360287491025
  3245   1      6.8365220396041346      21.060252743235512      5.2932587268390492
  3246   1      46.058124451168318      45.848423488826057      27.737489191880393
  3247   1      5.8554052655940971      2.6525125877904903      6.5708963050023126
  3248   1      8.8465785384181874      37.206386654462854       5.357893587125572
  3249   1      13.163767099697381      26.492794002475151      26.833016612673031
  3250   1      6.8489104905604181      8.1570603580553911      46.267064957686728
  3251   1      12.280586549840971      39.368954600447879     0.66948302170616714
  3252   1      46.608134123579212      39.245344457926457      27.916733464177735
  3253   1      32.402173212279919      16.437317521850687      43.911770787156314
  3254   1      20.871414928882505      1.8892344851424765      16.562295001331002
  3255   1     0.28424328953347894      33.086442576512674      24.377520257232213
  3256   1      19.198824611035107      7.8046523430658086      34.240968336053356
  3257   1     0.71727294179283574      19.423157775750163      40.452132957930381
  3258   1      3.9129840194387904      39.998361104154462      19.979949332779352
  3259   1      23.122144672166822      16.116773095802014       15.21904175758025
  3260   1      22.939751893077108      42.453779140756311      2.0859140335370707
  3261   1      49.043746183956472      45.374380954465501      11.763932918839808
  3262   1      12.576968469395812      20.066051817539865      37.661944084408852
  3263   1      46.802887487325791      20.244885346550433       22.32932855939714
  3264   1      4.3782199715229044      39.350716811851242      24.390517101822834
  3265   1      17.080080549685892      26.396014259857992       13.07170314939532
  3266   1      22.587544491966185      27.192157296736131      11.668694292677966
  3267   1       21.85794134412863      23.466044345086878      40.346462392008995
  3268   1       11.36469744728552      36.456647387743402      30.587574859178229
  3269   1      47.941402596902826      18.514053899826667      1.1705017039650534
  3270   1      3.9330850636512475      36.464368656318726      41.201025875145163
  3271   1      23.347154109943773      24.203718994609428      4.2299459446568042
  3272   1      19.102312861775488      32.307443910612918      8.0294956979814405
  3273   1      17.804858427777667      2.0261659822435067      29.825555203758267
  3274   1      14.659978943306601      41.400900223107705      47.210669280124861
  3275   1     0.30146009202765961      48.100312045433469      17.050292471778075
  3276   1      5.4556549253197417      4.1716448032103086      27.341279554000387
  3277   1      37.553779953105888       31.88781935993541      32.463503329791841
  3278   1       31.05652949385723      13.682376032462512      44.963079794954957
  3279   1      16.279267810220208      32.584244902132816      28.496610029545433
  3280   1      9.5530835939809258       17.16350251287535        32.7946680403629
  3281   1      14.673291923033261      13.780942224503029      20.576479046594031
  3282   1      39.758447142169679      2.2516071626602381     0.99972830399892509
  3283   1       8.220232722916089      12.986743821729405      26.488770435620481
  3284   1      27.233348522337362      25.494911707991303      43.427173890787437
  3285   1      15.963564559791456      22.471299806401877       2.066186314595881
  3286   1      2.9214840383445879      28.825120909712599      20.301810267264887
  3287   1      14.860905266718518      23.494424982511791       17.60935061863773
  3288   1      1.6882402039256386      20.560640863014449       1.216010973337615
  3289   1      1.6107641200442722      42.448595644725209      25.483892770953958
  3290   1      24.287323141364279      11.449391252322814      44.548292120880419
  3291   1      32.956397557534572      26.911177751553055      36.446128403477445
  3292   1      30.298808341789311      23.168907267624725      3.5790292231951017
  3293   1      25.577656253363401      31.370235827551834      18.477804476966636
  3294   1      48.085385721344295      24.622362332126716      44.957003151962518
  3295   1      23.686547314936959       31.51674827221219      42.678240405754934
  3296   1      3.5607939883634958      13.291727351670671      49.526472831152198
  3297   1      29.481185801836592      14.201073360758388      24.519279202423363
  3298   1      13.327369780301494      47.344237848919718      45.614367414660748
  3299   1      26.203649512425631      4.9807002533394238      10.640049251979894
  3300   1      7.2147153211877226      29.226326936420769      33.172191206365319
  3301   1      32.262186520497494      32.770453032414636      18.167452072758458
  3302   1      42.797321678644472      20.587197990347224      1.7438227074021788
  3303   1      21.402837097164259      8.8124321056433423      20.990381693727436
  3304   1      26.163271028417824     -1.8728829264670337      31.472019785472455
  3305   1      11.654040321884018      48.355853533639447      41.548275969972437
  3306   1      6.9947357259375682      17.103715128858969       41.54808843159536
  3307   1      20.013103840331802       5.041465427572386      21.869776050691701
  3308   1      25.668612683263802      29.842735480227184       44.85140539643497
  3309   1      0.3287729090072864      26.595214263906804      17.036183197616467
  3310   1      51.877328788010544      3.0197031062844859      35.735858738605181
  3311   1      38.394097036919071        35.5829324507405      43.521663489907979
  3312   1      26.980336078732595       5.684781953689277      23.821014662154916
  3313   1      28.785737029918465      47.052508197831912       11.51768368604411
  3314   1      43.958766433109709       27.63386427817942      17.802385582989217
  3315   1      37.047666864155268      4.5534877168094336      33.282374571835959
  3316   1      17.256252474398138      29.531162206911052      27.062646874051261
  3317   1      11.984455010661511       6.142796269119656       13.18198132904597
  3318   1      47.600177120644069       37.02263996584928      2.2614652115705143
  3319   1     0.92749970742741261      25.650767367965926      21.540592079390127
  3320   1      39.945684329794602      28.569295908187708       34.76967351250449
  3321   1       29.99794451516307      24.642457760249695      48.607785180104116
  3322   1      28.879297024861636      11.751462656532684      22.307924645423871
  3323   1      32.388183648480549      4.4984201470747154      9.4902137816617689
  3324   1      29.981496607524601      34.293288402492848      12.711549377771837
  3325   1      6.3052269414872377      5.9893092210616707      30.051727703745392
  3326   1      1.8151343555678818      44.387423108460908      48.294710345193813
  3327   1      43.831736926628828      5.9569615409805374      36.888758067605941
  3328   1      4.7527368088039434      13.978498500295464      22.387530535573962
  3329   1       24.04012769412731     0.47034465489981658       30.53919021786335
  3330   1       4.360933221241809      20.916035697547859      35.010269984376365
  3331   1      32.362094136595417       6.416449109282012      2.1700142006812224
  3332   1      5.9147850479018516      14.344099335018223      18.781671511512219
  3333   1      43.275920296669142      45.000958720901018      42.919159952297498
  3334   1      48.708152564100104      16.085046595453711      40.864890224182844
  3335   1      42.340250121473225      44.257886188103285      46.128018814251533
  3336   1       34.15169390063776      13.022736563975764      6.8991854066836753
  3337   1      10.922652611606132      40.679828567644719      20.789597498947959
  3338   1      20.207884138277226      8.8071571135684277      24.672591419150681
  3339   1      45.639792990166121     -1.7355706943925426      44.013977536078464
  3340   1      24.290676084902948      22.849235573242421      24.857103573074344
  3341   1      9.9374175914001928      35.293056999667662      24.274459184021708
  3342   1      40.727993466514221      30.861411223751759      31.860381086660013
  3343   1      28.390707745782457      43.634714376499389      16.435157104380938
  3344   1       27.43662547147564      13.263268324704718      38.791964199015737
  3345   1      20.626924748330801        47.7094872406823      39.169439275082986
  3346   1    -0.74331336015371341     -2.1064998163628603    -0.66443538641284705
  3347   1      19.049538864393263      37.716330726142552      44.047894692409919
  3348   1       18.43548241208811      34.993701236169095      30.915115685360387
  3349   1      3.9702058047815827      40.472734849036179      6.7682465549268871
  3350   1      32.710649757242919      29.481118779950322      16.057107425529598
  3351   1      45.288420135602593      21.341458621909062      35.353245081866575
  3352   1      11.747506898062822       39.98854131162782      31.469379434578446
  3353   1      45.615450528208441      48.028108346895195      7.0853361727291357
  3354   1      10.591891036532168      9.1193179300047511      13.611795880802543
  3355   1      19.344370236710301      7.9902501005530828      6.6416994517449046
  3356   1      13.803928767861624      9.9961867224222676      44.848010048712872
  3357   1      23.074197304511255      8.4868605242092663      42.877838786275532
  3358   1      10.055492774411526      20.727976154693447      4.5866883127936875
  3359   1      34.520383968567103      25.228422358278241      21.490868452598662
  3360   1      43.452535586617543      44.619852820635408      1.2314457715473779
  3361   1       19.59647493178894    0.024368566771012276      21.670590234077622
  3362   1      40.841194563692639      12.369791041270256    -0.89049171061960508
  3363   1      40.678333274295461      27.060597069216072      4.9911602313744137
  3364   1      37.454570721982122      26.979757893148424      31.608024666865955
  3365   1      47.280481452252054       34.48305516042177      3.9940338843818437
  3366   1      19.051453472202414      41.498723982970063      26.610866230764863
  3367   1      7.5637910006591431      9.6644587950104963       18.18641513202115
  3368   1      32.747982539582409      38.379845054643091       19.89160751439805
  3369   1       34.92885300092469      36.760577761976378      5.1270430089436667
  3370   1      11.514277234782535      38.039929803904833      22.566101331171897
  3371   1      5.6796062349752559    -0.77440985353935654      15.701559591791302
  3372   1      49.905946531995362      5.8439158349288665      19.896971916871667
  3373   1       14.71339826311632      16.729119774137189      45.596052309305399
  3374   1      40.921509601221935      22.774814998596998      23.260215303020161
  3375   1      39.750094666515558      4.9507619322323331      42.819850314354781
  3376   1      19.551619864095258      8.0610799798055623      45.640991562833172
  3377   1     0.43809662770738228      47.025095529921892      33.133984010161299
  3378   1       30.86798488634879      17.650161675435463      4.9143932739497869
  3379   1      46.338377942414013      42.152284884745114      3.8107945171168121
  3380   1      18.142854884406873      31.059044701350199       44.39021759397437
  3381   1      42.026303280557734      26.775993134973245      47.085870146067251
  3382   1      6.8663500249294946      22.989972649225116      18.988588968647836
  3383   1       19.80137467115733      25.119987846462319      5.6725246709900867
  3384   1      42.155768885865484      5.2795889178340518      1.0928916996666769
  3385   1      7.6997862416327818      44.547597236861854       49.50963212893992
  3386   1      22.943621451424303      36.076430700634589       43.07713952954181
  3387   1      10.657130845023804      28.300895908575658      19.315322693583454
  3388   1      40.571011081029781      26.936228474485038      17.873585336308178
  3389   1      4.1443591247386529      5.4152288103342743       41.34784323321125
  3390   1      7.1228371612782908      5.5423549376571719      24.014035363961135
  3391   1      8.9689396762984011      36.389066405465172      34.621670044799046
  3392   1      29.754579448780994      6.1379791509076416      39.104365458734058
  3393   1      44.023214104077816      7.2790298705459113      15.623265609415403
  3394   1      3.2974070240113598      29.869741723159052      36.143760374170405
  3395   1      9.5446911368960201      34.694082557323185       14.58141648674772
  3396   1      44.831813305169597      32.973189958660285      47.292042648893869
  3397   1      5.8851208266972685      26.897426167822506      5.4523779608582474
  3398   1      12.285701805066951      15.610564785219118      31.150882065826881
  3399   1      28.400617403635849      38.576736574069443      15.831422762543037
  3400   1      15.960189925362434      22.167532113288498      36.137694426799705
  3401   1      26.998435192494465      2.0117583407459834      13.323990847574629
  3402   1      38.944830023340856       36.80929173556062       46.69469022592839
  3403   1      48.768016732885393      47.663717887820361      8.2954165841721945
  3404   1      7.3268916199679825      36.472733253910484      22.182260133212431
  3405   1      20.208225391507078      13.928754665238193      33.648431765742721
  3406   1      22.550432316575076      31.491601465504857      29.193805161635787
  3407   1      40.877303736956655      34.040620709813481      41.243195309321578
  3408   1      38.909055662528125      42.639472199689024      43.252754504114819
  3409   1       20.62428268076739      44.792850229613954      6.2157800856979089
  3410   1      9.1488095519570454       26.36858072630794      26.699979505690315
  3411   1      32.269842750164166      12.555225448325274       16.78289259353339
  3412   1      23.011209321979997     0.84551222865897602      33.601111598180552
  3413   1      32.113976525731388      17.473224005174774      32.463320708936671
  3414   1      38.645317825862605      26.055291051428931      20.504416631969271
  3415   1      24.168569868171858      9.6380558381740435    -0.25396802679760483
  3416   1      11.976485055729448      10.150849582261751      29.486859795446328
  3417   1      24.372794026200122      36.160541078046194      10.945635470531837
  3418   1      37.809573017651445      2.0786495744542064      38.058900005381865
  3419   1      21.225773410801402      10.759282296079355      35.885427213293539
  3420   1      15.554974355526276      15.854574015478899      17.266909212881739
  3421   1      46.278360414557568       38.46981314584211      47.436591720494299
  3422   1      41.442573732385576      17.526427537641759      12.708328686117889
  3423   1       36.29810457181506      31.309718325100711      2.3569066076661005
  3424   1      19.805927523329263      37.218317861652181      16.154878229248045
  3425   1       33.61110270960814      7.4153025467101594      10.730402552101857
  3426   1      28.589765920258596      7.3280591378936961      20.090343240138761
  3427   1       28.35648547945339       29.40962537954703      27.363400478145596
  3428   1      5.1090464466745331      14.195888219383971      29.564448306762287
  3429   1      44.843433511936553      3.7325867938850186      27.209811284522011
  3430   1      48.779462450059675      12.160551174902636      8.5461056446533252
  3431   1      47.718199968523642      12.253042124586109      39.796048397277815
  3432   1      32.311173800931549      30.044423622869978      22.073049699209065
  3433   1      24.994180490483537      22.060560259464282      42.609852612604648
  3434   1      8.6596629306985964       46.88721758673973      19.162188130204726
  3435   1      4.9616509673276594       41.71622254623594      17.540545296902962
  3436   1      20.794983540951417      18.867992475283295      45.374149397984695
  3437   1      36.615900444574208      39.756854024683769      1.2480011120125338
  3438   1      18.813365477618916      8.4218126584586877      12.339101915234973
  3439   1      41.194464041263842      41.145488443444663      50.366488351505446
  3440   1      45.844785751013234      18.358244360725987      34.376613269227725
  3441   1      41.454404999589649      39.884733945928062      25.712223218081355
  3442   1      29.079867490951674      16.168689310877912      1.8695224640592925
  3443   1      12.548423108249565       36.01720821193841      1.5500029557889792
  3444   1      46.694043248661799     0.89590845937957242      34.228116547021187
  3445   1      29.577517384829033      33.177342479152593      6.8007010546617499
  3446   1      44.556221874657197      15.403970577546005      19.809079821159127
  3447   1      3.6453052644886217      43.724305774648187      6.1541512212104044
  3448   1      1.5314262856456753       47.93728665264743       22.65075198845496
  3449   1      25.451655722515543      3.9257582147164052      6.1787431296403152
  3450   1      1.5178190494044976      51.330274811357796      22.623432532232659
  3451   1      2.3753936650536618        16.6828595370486      35.750876698787152
  3452   1      30.192916473948735       39.20250314857698        46.6374330630115
  3453   1      34.026787194881763      36.534116030396341      39.359395329955944
  3454   1      13.317468834175198      29.715335617465286      31.942929949781355
  3455   1      15.071237748072834      13.274950606986685     0.13367430085138005
  3456   1      1.2358748317183408      9.1114868834595981      9.0844068083766025
  3457   1      35.123177699315747      40.489329086338202      19.176297829013272
  3458   1     0.24391302210545376      12.695019086951783      22.789374433468986
  3459   1      10.872289175862162      3.0305244210008526      25.697919988572611
  3460   1       27.77397375681495      10.630113738731056      45.824679983822001
  3461   1      25.408983205055812      47.037599162175653      43.556746936210786
  3462   1       10.26095083992643      7.0988480318453906      46.124080154794775
  3463   1      23.591412511416436      38.163735482086388      47.317362283920268
  3464   1      33.951194940022489      4.3900318482379417      12.245140110065888
  3465   1      37.781638251465665      11.447360334003733       19.33346565119129
  3466   1      14.734187095872322      25.752769311393383      23.636110548392828
  3467   1      10.219832515845763      20.753719793002624      14.006785015797307
  3468   1      22.573280448470342      25.018452167310549      37.269786197814192
  3469   1      36.413584741103136      28.707212514323498      4.9340017882098524
  3470   1      45.216500334785408      17.850013052115223      9.8683241395359573
  3471   1      14.075160696927558      32.295172055342725      22.477628483127774
  3472   1      44.036404163145669      20.057387176004227      38.462036839859827
  3473   1      43.154871166843087      8.1469588888725681      20.618530733062858
  3474   1      31.681934465533093      20.239746740386771      27.858605523982813
  3475   1      17.607829247750516      44.237967792837956       40.29260700776166
  3476   1      21.574082843781202      10.655264762539341      5.2265768621983257
  3477   1      9.0538722069281725      35.958787788038507      1.6902658399766914
  3478   1      2.8118620140696713      23.862445331294605      38.342044721449859
  3479   1      40.891152083586448      42.722674326519623      11.675924236493493
  3480   1      10.210015916837479      19.946521010911216      48.189692096611957
  3481   1      46.080007431766198      39.865041497646494      41.644471620925344
  3482   1      39.114927704270777      39.164484629681873      22.501720820095226
  3483   1      9.0082607980370515      25.240940584995009      17.774890299010199
  3484   1      7.4411594336372282      45.818851273725741     -3.8243942521924321
  3485   1      28.882093859523252      29.088867802446028      8.6421633300585174
  3486   1      18.847383585692359      1.0214318474544517      33.012339761325507
  3487   1       43.89545282468027      39.177166446184096      1.6992015124569491
  3488   1      29.727381998859826      4.7532122120831239      33.700699078108528
  3489   1      43.287803811539504      40.364645493170009      28.383650988375347
  3490   1      1.5276281900351696      15.542464971801127      18.658655793349695
  3491   1       37.31979865899288      16.982299651160552      22.387102302512741
  3492   1       27.40132035981625      37.045296327049869      41.181996289749776
  3493   1      44.064016054028741      24.452703410637699      38.656983003782926
  3494   1       28.52162487569996      39.199093385230817      2.3669219530872123
  3495   1      3.3231557860639569      37.222607498621628      6.3245909571892174
  3496   1      22.064186885058756      36.169226260059979      14.112972460682844
  3497   1      3.2852310720585431      36.993464133355481      2.0631865525720858
  3498   1      48.446677473238552      28.417727800412504    -0.66137416734251253
  3499   1      42.175398406620417       12.31606521308305      20.444012691669766
  3500   1      32.609851030058429      12.521639865492038      25.680871774498332
  3501   1      17.971852100016914      46.992327701131103      15.525029246346419
  3502   1      44.456595674577223      17.921667857243609      26.833933027681638
  3503   1      16.091780512814278       25.49285571294552      35.760899093643054
  3504   1      31.820092136617969      44.707381048845377       26.38162248423599
  3505   1      3.0827365157591173      33.342481217432564      22.477428304261036
  3506   1      19.497455597712325      34.180680065678104      27.474444183500072
  3507   1      25.552119777728802      2.1078469527833463      8.8949264187911634
  3508   1      7.7659849190414922      35.820291507864091      17.068667608915131
  3509   1       7.982218598540066      11.115876844467323      44.667931238121696
  3510   1      40.810934940103508         10.764677188933      41.135232431946676
  3511   1      41.960396734594411      47.561124117605146      40.764333084855195
  3512   1      22.204804145423171      14.433734893732682      1.6891878468840835
  3513   1      23.828429320645839      19.550313989915196      3.2888062239280051
  3514   1      47.299060782069176      15.941898012919228      27.820972133246034
  3515   1      50.205076964127571      4.7671015311654275      4.8419614166514462
  3516   1      36.728470684353631      4.6031311912647928      50.085609240784486
  3517   1      42.505807769468433      25.852103960159166       26.73326889993627
  3518   1      12.557818876335304      40.981342433583251      23.786566224604883
  3519   1       29.82277876978344      5.1507268533055788       16.15761991720623
  3520   1      27.119894402768189      14.551616315224249      9.6700672256294951
  3521   1      15.075530768550337      14.015758555201646      29.891249388146171
  3522   1     -1.3919200252895776      9.0270960096632926       26.97268046771369
  3523   1      24.994144322676799      8.6762295454715463      36.452181791614052
  3524   1      17.231712329214034      19.597088146347325      1.1407655128445504
  3525   1      16.288701746540386      31.516673788035963      5.6616821545500384
  3526   1      27.667637979579027       19.30142161443543      44.963349085697374
  3527   1      22.506871042333625       44.76816460935818      40.695096726388087
  3528   1      9.8316902223104936      12.802904412273188      30.990722227605684
  3529   1      24.957027158551124      33.420398990308456      30.708668359762164
  3530   1      4.9847417803877567      20.144207190043282      2.2649218336981072
  3531   1      18.461048644610489      12.705613366869343      3.3492656545307153
  3532   1      46.584992607345463      30.093400950257173      24.009930410536487
  3533   1      30.116163445768809      13.166502840513962      12.969880368853492
  3534   1      8.6844909774488688      28.922389414232896      5.4466397405687541
  3535   1      3.8816523398331229      1.7896628316942602      3.7346976637534257
  3536   1      32.867299588467525       7.679506583013449      24.492827271105725
  3537   1      25.646482571022087      30.285542103355979      30.065677698232484
  3538   1      8.6477880916187431      20.616080162254715      18.201042637228262
  3539   1      29.813599271983719      34.897670322098193      25.074074537599426
  3540   1      24.878654843605666      7.3398676453921947      20.262042408294388
  3541   1      44.822401696345565      3.0454282269389839      23.611203350115115
  3542   1      4.2828410575256788      9.8112354176105239      5.2537215783163278
  3543   1      42.585091814675238     0.88492223031846429      7.8771657090451059
  3544   1      45.094169395219531       25.87046279261909      20.262324055698759
  3545   1      36.904724746899497      39.061107458614771      46.396735912767532
  3546   1      31.559064291146377      37.617893758165877      5.2911710625659758
  3547   1      46.009926664391884      36.844625965481939      8.8039323571354018
  3548   1      19.820959302579006       1.153097338029559      9.3040096711261313
  3549   1      3.4969451382527912      18.862136216333102      42.550886959236877
  3550   1      3.0474140508690288      29.757029036939922      16.052241219105852
  3551   1      7.7145328616294213       7.570722040634311      14.754153757889148
  3552   1       4.307475979563903     -0.8321943239633065      24.607842731088276
  3553   1      33.614694197528728      34.468001202096481      27.486658637475838
  3554   1      13.277548126860502       11.45266574284039      33.329670377100697
  3555   1      5.8304630464106317      30.393162765199616      21.027479147655036
  3556   1      2.6305907107103583      10.156591933985336      29.432042861646121
  3557   1       21.59951394669466       3.170043693358239      30.303252746644127
  3558   1      31.132546438999366      6.8739639000532637      5.4563045728591142
  3559   1       34.80086987006959      5.5851980067049141      4.1698667274485937
  3560   1      9.3502640206543788      21.639925061183998      31.061373777730218
  3561   1      47.639557089210655      15.759130292557728       21.18289094475281
  3562   1      29.924117028906952      36.849978141379509      22.251947880723709
  3563   1       25.44756050141557      43.997659644408323      46.549857210116251
  3564   1      18.208868791269271      37.414839582419283      9.1761992923636662
  3565   1      6.9422992064977054      35.745516043722695      47.444806636089162
  3566   1      17.516613953432547      20.633766041892507      4.3575897799258545
  3567   1      38.998574754708983      8.7318418602163916      1.6759526821340591
  3568   1      38.246170071186746      35.797281977282857      39.837145248879416
  3569   1      18.685279498616062      22.569199131515365      19.625233920348684
  3570   1      29.072015808214445      36.115470293427698      18.401820791283608
  3571   1      24.871306824335658      41.546527680411515      20.409367162797167
  3572   1      8.4815905916198773      33.957175854135755      28.035199934494248
  3573   1      18.372271681398843      32.123419446631608      39.882110262803046
  3574   1      22.850094176119622      11.828762101855752      24.224366689335291
  3575   1      36.451562770982036      22.223831382883215      3.4886824396103489
  3576   1      4.4489102841557875      27.012787467252192      26.793652077818919
  3577   1      39.506684646201357      33.219215421736621       9.966648240018678
  3578   1      46.058618902829664      42.122122874284393      29.492194426576489
  3579   1      40.237138960538459      6.1574471477325057      20.146661902367246
  3580   1      43.209547003634185      42.577212041713182      15.773075936725919
  3581   1      6.1659228856199446      8.3308691798892038      32.283657991729413
  3582   1      33.806057251807559       27.25266832546172      18.142704707155051
  3583   1      24.289478295830421      5.1340789033602041      1.2227702522293504
  3584   1      25.246508520595466      18.246287485316532      6.1615605240875349
  3585   1      42.194675059164048      1.6493159548134837      3.0228500897208828
  3586   1      4.0782706163045619      33.092764116422387      32.288062135390703
  3587   1      21.008568415831959      4.4918549410879178      11.175225498603359
  3588   1      27.617459457623017      6.9756099786546812      42.079111129985606
  3589   1      23.344058537971641      21.173995159910049       17.97051543192423
  3590   1      33.237332275377277      11.072936875938753      22.369893482594499
  3591   1       43.37994938890337       5.572721672230764      30.956994857003036
  3592   1       29.04546796972296      30.270950073564642     -3.6251409917841078
  3593   1      23.463221003808258      17.639061056196738       10.37789545622676
  3594   1      8.9759162738914622       39.46321661883831      11.846381435444661
  3595   1      33.869426492213456       21.59296124803344      12.033125130654573
  3596   1     0.83180766027545028      24.345659950550576      10.149549335308766
  3597   1      33.763233613011501      28.232395093685231      47.887245669693428
  3598   1      3.1091541779323029       21.27011027748749      21.419555448360224
  3599   1      30.568337106593784      25.692958713191416      26.768641386759484
  3600   1      19.769302833833716      34.171005244386528       42.43454930822648
  3601   1       34.28488861005826      35.960183202603623      18.252615769293836
  3602   1      15.973021471037686      16.913983805412119      40.189714839846722
  3603   1      6.2247279832126301      45.360973606513653      17.761746683923739
  3604   1      39.962054486413223      18.881374896789715      22.599214819345129
  3605   1      47.004931957159194      23.585547583259171      21.859370381670583
  3606   1      21.861457570451368      7.0762456044822803      48.489869608255667
  3607   1      43.539095490692098      43.467585164157136      19.117027923974693
  3608   1       10.55862690413738      13.163198698425601      23.146927882400362
  3609   1      26.705504782603139      42.857875791371676      33.059694534602201
  3610   1      4.4160684102561749      4.6854979315332734      20.841139036787641
  3611   1      46.895734502360526      44.927383351446558      1.8527584223428246
  3612   1      46.060919050608163      41.710854431674093      21.690530597627145
  3613   1      19.228873832077575      31.146377948100675      15.167519365347731
  3614   1      33.184351494309496      44.088668903400823      14.613473343073192
  3615   1      14.957074594916282       19.16638324147317      42.782559882311958
  3616   1    0.010930513084147941      34.746827041985199      18.023827624659855
  3617   1      30.532680419739837      37.737641415580953      36.774355123064232
  3618   1      35.211592010834529      24.894136706902685      46.095904999522837
  3619   1      32.236863093389893      37.946300639640249        10.6652315136886
  3620   1      26.995448313517254      13.446842472758375      44.956946661062176
  3621   1      47.021404406344828       49.06667131037721      14.047650289971589
  3622   1      29.258424381270295      28.781343180264052      30.813416215382997
  3623   1      18.145710246692172      13.802420475989214      28.563457181430987
  3624   1      32.323891898748684       22.63544215545717      31.832080690799106
  3625   1       44.84717235699609      29.055244421916324        21.4205002553892
  3626   1      18.606418828384406      24.554077681475881      29.504939647022386
  3627   1      29.815509872463554      45.601381268224522      18.702498113630085
  3628   1      1.1492912569132541      39.139683768828696       44.11321849977007
  3629   1      19.800868063881293       4.427195306682191      44.057124277865157
  3630   1      40.723338278918874      25.371750290426316      7.6977198099429547
  3631   1      39.881896759204118       24.73193522767107      41.264782619886901
  3632   1      19.971431960413213      12.412643373675838      25.708782289914939
  3633   1      14.361302100231743      30.005814297389229      9.6798758950988937
  3634   1      11.110939337609137        14.9888782367627      18.952445450293695
  3635   1       7.038473865177842       42.03456602878898      27.068166896412638
  3636   1       49.03434749717826       49.09121750217529      36.860725741575571
  3637   1      20.555168541563397       15.57813265533632      25.767075666726875
  3638   1      48.072151217368202      9.8326463293231345      33.034290249849626
  3639   1      22.873114215104849      7.1735327055117653      38.799110354295628
  3640   1      34.119262663371849      28.936711833347548      26.446271346918973
  3641   1      30.344055138011377      31.083251409577546       13.18612959936344
  3642   1      28.549067596753336      36.433895492629524       46.17711556014379
  3643   1      35.650335939987421      28.199838770686114      37.491097336112233
  3644   1      16.799353083215042      32.532166775682853      33.529259714742061
  3645   1       18.38049983961541      20.084303356290491      42.778414787985753
  3646   1      19.473732749752269      40.103523969649935       23.54871705802325
  3647   1      11.452194083559984      24.170001915726928      11.101960403883755
  3648   1      33.897600616859549      33.518287322931009       4.950894779231068
  3649   1      45.184330561343735      9.1368133805758287      24.832162373178857
  3650   1        21.7155316361657       3.691256775923164      37.574845941300119
  3651   1      44.783724478815351      45.401030222486312      16.556378728621528
  3652   1      16.036401730100668      4.8840535921010542      31.961445628118167
  3653   1      33.798513779424731      29.169242934744275      42.813704268428417
  3654   1      20.762103216450534      16.292532804216833      8.8319954121713042
  3655   1      3.1865977905129026      41.592378868404104      3.7207437573363507
  3656   1     -0.4134100553525662      15.156443045993278      16.044488068719872
  3657   1      51.366083342879172      13.738296495468774      33.979319774811295
  3658   1       14.17958681971429      18.390320157478577      19.130445306771914
  3659   1      6.3110877698701326      31.304769523831606      27.436184747026847
  3660   1      3.6600373418887262      36.427307309853745      47.390777604241059
  3661   1      40.841954568147742      28.235686636223402      28.643145759110052
  3662   1    -0.97939729360126015      27.400207540595382      6.6559728415711552
  3663   1      23.168454412883246      43.634256673480095      25.418998058996543
  3664   1      24.310900691514586      23.189433888880121       1.289833041570797
  3665   1      30.817323813629795      2.0008646810665938       18.43497995988978
  3666   1      18.680740462199051      18.661328302906281      28.184923189603396
  3667   1      8.2114435697924524      24.609794171025634      29.569191143313486
  3668   1      1.7004866469956261      11.921780288613439      3.9516345626837821
  3669   1      28.485024980643853      38.088152027410771       25.01482572818945
  3670   1      21.018979203577238      37.150392580960215      22.881932112665588
  3671   1       9.772226853195054      18.774215612061926      38.908578030127728
  3672   1      5.8690822429572727      11.526789771691256      31.518397875773772
  3673   1      6.3447615422530443      10.860471855844944      24.861416270144474
  3674   1      35.598889386445371      23.019351207926505      14.461014524801655
  3675   1      38.304836384643146      2.1634337576276681      41.128023486078412
  3676   1      22.169770778677673      31.596181467839795      7.2785377221709782
  3677   1      31.643435750960471      19.442537708370004      37.665529850348399
  3678   1       39.75208578338404      21.543977447857742      12.485897066610374
  3679   1      33.685299685469076      11.773260821782408       2.324476599481502
  3680   1      13.541805719328782      26.726288484484613      3.8471834117413337
  3681   1      8.5524970756556566      31.431066803875289      12.971993834283195
  3682   1      17.574799109976937       16.93601304072337      43.320751634439411
  3683   1      5.7921872786300952       3.065737933826707      16.490050150056121
  3684   1      3.7125714924760329      11.297930447145685      16.921534695141659
  3685   1      11.181425541272867      30.613833458094376      15.166332571291951
  3686   1    -0.24042102232235421      3.4356004313848008      41.722175319551852
  3687   1      2.3550163818964482      49.625814952822495      43.789485855297023
  3688   1      12.750222926692365      42.948562229670088      30.130521264593707
  3689   1      27.848485377522032      26.977510443066567      22.400564262448601
  3690   1      29.695114973090039      16.693796930316712      14.862376403198375
  3691   1      42.465825724559643      46.172459842319768       24.36407428859987
  3692   1      32.224348530783175      13.573582580801007      4.4368969129665796
  3693   1      48.977050611585945      41.076607694601293      41.744119497460801
  3694   1     -2.1531373646283192      3.0771454869111445      30.309095695179604
  3695   1      34.013375848804159      5.5791517914883579      48.161329370068003
  3696   1      18.735315303372104      34.768071320442395      37.898937239083118
  3697   1      27.400114685586185       12.38301267202174      7.1778272837316948
  3698   1       45.55755981094692      29.933925501712014      6.0360206758546058
  3699   1      48.689781996657509      20.463774540608192      33.569058655945057
  3700   1      20.115060848861038      36.601952393074001       40.09809544043113
  3701   1       33.90914326065004      33.124927485796775      34.706897147567339
  3702   1      31.583932536961658      22.792171880394051      8.7934896706207386
  3703   1      9.3364578050229525      34.618285648396515       43.89689967267946
  3704   1      13.872151992123269      14.829278399285515      11.424340723789234
  3705   1      26.337845083979389     0.80981279475610646      33.426701582932949
  3706   1      27.110981753349716      11.234218254312637      25.474781767707508
  3707   1      20.153928347007579      18.781118976077078      37.320374042142788
  3708   1      1.1891310232271792      39.728854544968101      47.433561264027844
  3709   1      38.644051824291964      40.634644072984855       19.67015321804891
  3710   1      40.269062613856789      17.473742098744999       29.64811554312033
  3711   1      42.185909144167383      43.681939674679796      4.0983481536311634
  3712   1      46.601488891950417      37.609600758812057       12.10866483915775
  3713   1    -0.74693597268389522      33.202354529080459      14.673740919184626
  3714   1      49.884923124150852      39.813562519007142       9.221751968548535
  3715   1      38.826612793006483      21.667009109751561      40.991548419867115
  3716   1      15.870210232054186      23.372395933654222      32.898591126049332
  3717   1      39.579745797560079      35.121717456326465      22.686355621266124
  3718   1      39.580187271571589       3.835929445654731      10.715605573263094
  3719   1      5.9566131411115117      14.999114607365897      13.798364530237937
  3720   1      23.816792957600402      3.5091085081767903      19.420483746634385
  3721   1      9.0874299097177769      38.107411472411329      14.985771843998378
  3722   1      15.307728773887041      5.2755110280248276      1.7749864667986497
  3723   1      46.375761345583612      36.844365211915559       38.83980934695802
  3724   1      19.035986636555172      27.243433514636127      8.0013703016470874
  3725   1      26.708951358660713      25.135611585451723      2.6946056266013483
  3726   1      45.612758626760545      19.575216462259625      47.891585330279803
  3727   1      2.3039738345454466      11.576348991637243      20.100497288384716
  3728   1      17.266888973547672      43.270744666793462      48.181657125947673
  3729   1      36.615082219710466      18.695763337776949      19.349323434040372
  3730   1      20.243754204261165      7.7069226516499114      41.088659671360951
  3731   1      37.224828995989036      7.8598824303504475      20.771768232593754
  3732   1       1.017172656553903      27.375826043850644      36.856675047940186
  3733   1      17.777861962814125      31.764075882402288    -0.11196075979262012
  3734   1      24.320618158893474      22.240729674548394      14.857479698195672
  3735   1      9.2694590470322442       43.70792184392819      3.6807731685618004
  3736   1      20.158251001522316       46.07852535549123      45.473940847699154
  3737   1      50.312632441736319      45.311240922128206      20.126521018905841
  3738   1      5.1826938952260493      44.193133032197913      46.985433296302709
  3739   1      13.719162890128475      24.878195234805673      43.061297704661527
  3740   1      11.084895024110617      1.2450649494026991      45.555645847372318
  3741   1       31.48501028460463      40.000017470324025       41.00692592840587
  3742   1     -1.8882621453904884      49.619585680064638      48.910937522470633
  3743   1      15.760079229764793      12.271886044469142      25.454166119881176
  3744   1       17.75453113972501      35.656679677397726      5.9978906754161274
  3745   1      24.036275088789257      17.376139824434588      33.100804291949927
  3746   1      6.0521984772849713      12.389867867601572      34.689617529305046
  3747   1      12.788275174066634      26.169510267719058      49.327760939539665
  3748   1      23.311502719358561      15.285503325924667      47.275861549730294
  3749   1       1.426522563014442      44.077455649215302      14.697213467737617
  3750   1      27.180128889466545      9.4613390439669445       38.93561517843716
  3751   1      41.223854206713028      3.3299082500400443      37.570446838765704
  3752   1     -1.4868471957797047      29.519985262704292      44.549830733074138
  3753   1      15.459003749526648      8.7845983091287163      24.752498083226936
  3754   1      17.256945776852096      15.548105029810888      7.0079335068736883
  3755   1      45.335329258925483      30.090253789354662      16.278437290301039
  3756   1      44.658870489628079      36.981988829212874      32.579957666758048
  3757   1      26.158995562843483       38.37814536112991       18.78872485068727
  3758   1      11.033407276789573      34.491360359474974      17.519350545662821
  3759   1      38.226128641035039      29.315532113443311      47.774434924879785
  3760   1      44.040722863844003      2.4029746465009967      10.166459079441159
  3761   1      27.501686246603072      33.048301679777921      39.001155259665133
  3762   1      16.606618913242343      20.270472208759042      20.910518075702115
  3763   1      13.237943054466534      10.002656264625923      36.820357386381339
  3764   1      22.096768513998526      38.523077159022222      19.972756396241113
  3765   1      35.165306037117347      26.318256365365912      6.9258643715442849
  3766   1      23.775898824682841      21.820315689687153      31.222761418305641
  3767   1      8.1898991779209958      38.941061503051131      32.856443471895787
  3768   1      1.8201458388338461      49.745080214559877      25.577683683356167
  3769   1       20.07728053501005      33.553829465596237      11.070968634502993
  3770   1      11.816242729661159      15.245997966139406      44.427024846618714
  3771   1      32.337004985006722        17.3071186894961      18.403410086058454
  3772   1      22.421173556411695      8.1595212085203954      10.039345197875736
  3773   1      27.552315951573974      21.322766681103111      4.2568848195083442
  3774   1      37.156657220398486      27.530934304032947      9.4566898029911268
  3775   1      40.674460862886114      37.360554425335209      38.076682367612946
  3776   1      33.472535210765095      16.190115321511438      26.313033270953706
  3777   1      36.560981300050585      44.014216179073728      6.4339967586104363
  3778   1      16.584141203043039      33.650075159178691      21.183284792710595
  3779   1      39.488818868887854      28.249645883876376      37.855665676682754
  3780   1      12.704018854638004      4.1213519201734901      45.359223908908028
  3781   1      15.677892124186958      40.869693940907162      15.647421246334167
  3782   1      26.578009538399979      37.410444828546659      22.643555363277635
  3783   1      48.074340188167341      12.571508943152955      31.198992089036135
  3784   1      33.956614487702559      19.604316971911725      34.819913770941291
  3785   1       42.13605831909296      34.019194087389572      0.2129139248575759
  3786   1       38.76080423289244      5.8581955390719633     -1.1914377948583115
  3787   1      31.537776346027069      32.032468923665135       25.23301997253731
  3788   1      20.497560766460314       5.736200412972754      28.441342882775956
  3789   1      32.570907740352283      41.231924617171117      25.992940177751194
  3790   1      17.780247447514544      17.290586526826797      20.126183980864351
  3791   1      29.749312826201638       20.85052139334309      19.429543879631524
  3792   1      48.734323929126212       24.58471234489928      24.672100161514908
  3793   1      39.111795190982157      46.103832570203132      12.509242483228579
  3794   1      32.294631027391098      9.1160239775014098      16.243478497791234
  3795   1      7.8595113465081408      1.9817920164330407      24.726530575634467
  3796   1      48.292718766163816       24.68348443317165      40.543721391540998
  3797   1      -1.773314601346474      42.772384111907932      17.872657507692058
  3798   1      45.484675438630454      6.7165991711139679      22.837660894439221
  3799   1      38.222460693176956      13.145935168216532      37.494444349046098
  3800   1      11.747948073887811      41.235051967417355      37.826821105882622
  3801   1      10.125339798602818      24.836822393099023      22.080620942382453
  3802   1      1.7166278985876726      25.858032450978047      32.068290436472338
  3803   1      5.0651503003785967      27.717834922032178      10.139202205070385
  3804   1      32.676954250340394      35.663053536939508      7.3222970435576835
  3805   1      15.673876910796604     -1.3102077076599936      19.134315283356589
  3806   1      8.2464547184201304      8.1995180588011287      26.047085500547819
  3807   1      22.282731455378435      28.754964739962102      34.988511609169606
  3808   1       5.983695547227291      28.778903642762121      46.806376811863466
  3809   1      32.424784651788691      2.1698696256456946      45.246639507862632
  3810   1       23.21370670746153      1.8105449165550891      41.774256491348147
  3811   1      22.587062321803298      39.139604288267812      12.869648438996999
  3812   1       38.61834561058469      8.5582030127036681      35.191007101154284
  3813   1      39.613060683956618      10.269189090551267      21.588483992723653
  3814   1      23.049600324761482      19.416758819906445      27.378722758081132
  3815   1      14.312241542782095      44.858607632404748      32.593881539730475
  3816   1      31.954023195744625      30.546326088154515      46.203220739115842
  3817   1      33.548026323417005      45.464028095739678        7.01666463409643
  3818   1      21.486612392250606      30.791985741155848      10.387060797075295
  3819   1      38.739266309787361      1.1804154286443953      9.1338542902731099
  3820   1      34.961195684123993       48.41421107175259      39.877398112331271
  3821   1      3.4987945109132399      47.506670608209618      31.427879067919331
  3822   1      26.075316831830801      13.100918595172592      3.8884948604297986
  3823   1      5.3909390090005642      18.902454203791507      20.633079966359819
  3824   1      40.632549306101261     0.71777693626668004      24.411695118953084
  3825   1      12.527286236361181      5.7241760827111428      21.128998139776535
  3826   1       47.41089833257233      15.588387392270899     0.30844174574058658
  3827   1      2.6291212137442965    -0.78850113779772335      5.6033287580586633
  3828   1      15.524198561432344      13.915671783769655      4.5053140437041606
  3829   1      15.446206039863359      22.754649422811521      46.746569850690967
  3830   1      36.937065660709465      5.6059764857238781      9.7688632131968163
  3831   1      40.269656364174161      32.744135311784532      45.055433838646863
  3832   1      13.116342941950512      41.256024638889492      27.216745307336158
  3833   1      42.069578919726752       29.13535299630286      15.281483220686155
  3834   1       16.48762833085949      16.249624988916977      25.732139821612353
  3835   1      19.273961891189753      18.821034594648086        24.1246844145838
  3836   1      46.027897526873687      33.960857983498748      23.240735593148216
  3837   1      41.300573689357634      34.984943073926885      13.000960580917322
  3838   1      2.3970780327678423       30.70973595494619      51.297861641544884
  3839   1      20.756401079827388      28.190959331194918      14.876306150349068
  3840   1      4.8632169926346043      21.141441717815958      30.592092851209863
  3841   1      5.9198267236932613     -1.5126226050402833      41.720161959115188
  3842   1      33.306751626333742      31.935934155008507      41.010332585648236
  3843   1      9.1601660548070036      14.489992147698601      50.189309492180122
  3844   1      5.8491183873323926    -0.47684034215318188      5.7070633496635521
  3845   1      45.185549509991979     -5.1490312852733293      45.016930998206597
  3846   1      12.156480835100037      12.914826833416528      27.580270557080599
  3847   1      7.4728744867959209      44.898201309167845      23.517604242828153
  3848   1      21.521008760712697      32.089231354092298      35.766616436202433
  3849   1      25.691531642771452      10.061761825186528      22.675787932906605
  3850   1      15.396035977318979      33.474621021555549      8.0879132975957866
  3851   1      4.2037566327978455      24.156014546410681      10.068276134683799
  3852   1      48.492380829488802      41.512697221853308      11.972148896774829
  3853   1      17.693836953846933      15.875357553156123      11.692460366529648
  3854   1      4.5212765078306578      10.593370376391762      38.373124217178621
  3855   1      42.291447244270529      7.4388329265833564      33.597556841420513
  3856   1      2.5049010575647106       11.92639723763754      46.673427675524621
  3857   1      4.4788671339487394      39.552345571700016      10.891225217446413
  3858   1      17.793965187511002      28.419818010997304      4.6434028012424209
  3859   1      29.347931160990886       8.512754622789064      26.943007746540832
  3860   1      27.947754371602436       18.95497817897397      27.288071301722464
  3861   1      31.000477617610137      3.8895491176869839      37.138557178451066
  3862   1      23.293208401625211      5.9552632926894624      26.986639537733279
  3863   1      28.708857355716603        30.5726871836554      24.364893503398175
  3864   1      3.8338201679743613      22.294881150575112      44.935490493638277
  3865   1      2.3286384891266545      42.463674922927623     -2.9974014389827448
  3866   1      24.335559171623963      40.815275069474694      10.678606873918172
  3867   1      17.851769378210111      1.5476014262895534      6.2592191591970545
  3868   1      34.457863267889763      30.669721571464834       29.16848752369199
  3869   1       12.33355492989257      40.533881332501103      16.777905596067701
  3870   1      1.2515210661218341      39.713661818358737       28.59620047064945
  3871   1      20.892327409312777      44.553129182164632      15.619645931087335
  3872   1      14.838692387717435       39.92580044699401      8.7169441656888242
  3873   1      26.626528776115745      19.378151321143982      9.9635064692648303
  3874   1      43.041940735909705      28.699507884619294       43.04506534798864
  3875   1      23.734027516835873      10.327789808534604      39.433978282396218
  3876   1       35.86798614750537      7.8158796638325718      24.882735077960771
  3877   1      46.029027630901126      34.541655432856516      19.630729871816367
  3878   1      31.634081565794286      21.922159401057652      44.997965523236168
  3879   1      37.201147116975761      11.711308403990961       40.00312089671376
  3880   1      9.4220587458943701      15.782312202936838      29.412262721073819
  3881   1      19.281783775813057      46.813741375655248      32.409114091129098
  3882   1       13.88181004832999      14.256495694588549       8.149826502061547
  3883   1      45.807281201867262      13.244422149665564      13.500125832732635
  3884   1      12.656421149279854      11.835584114048373      12.061893914889358
  3885   1      8.5020485226740554      34.603338320574771       31.80979279830996
  3886   1       30.11924525054318      34.380918058922582      29.689544507393052
  3887   1      33.367902612702977      44.191759126983456      23.138308823790251
  3888   1      5.8830169096004825      25.530651851420188      24.298203685621115
  3889   1      35.120291029330083      15.604045607809374       32.45704611087185
  3890   1      45.953026347661471      3.7341725645264909      39.638253406802576
  3891   1      14.012276512016307      34.732383489622478      40.347499435957928
  3892   1      39.202359132605643      4.3223181516558116      7.4487454914703859
  3893   1       20.18215443101202      14.926821700772942      46.256764714715942
  3894   1      22.205011712360331      31.948007696216447      48.136880468844268
  3895   1      27.665581499450401      37.793400202325969      29.603430617464134
  3896   1      21.901443744512388      21.579731916755129      21.538695541078766
  3897   1      41.021960687250278      38.940983626745464      30.332951446527098
  3898   1      21.083346938971264      21.591459287807695      24.771230925131078
  3899   1      30.917327763488924      27.152168559901835      19.802370995680885
  3900   1       39.23077325572109      17.558128408532845       32.77907246735581
  3901   1      46.267364745194172      17.455199325313455      14.239568820680377
  3902   1      36.402803812091406      25.083197850910548      42.834434477576458
  3903   1      6.6900550993794541      19.112433702634846      45.214807588152006
  3904   1      21.658310073751995      4.5774152805579593      40.668427174159845
  3905   1      24.005327374535678      31.219019149360644      24.066792355811476
  3906   1      29.528134920006877      7.2288780525419467      31.447523536055282
  3907   1      4.8054940473145411      45.239828096848214      38.154330896428867
  3908   1      45.727161224148176       12.86329904155247      36.915775059690951
  3909   1      8.9209998326035009      44.393889859811502      33.161926565003967
  3910   1      39.370124799869927      17.578839068862564      40.999501885483333
  3911   1      6.2737059031202254      38.651129502960778      27.102965949553845
  3912   1      16.707070112440253      13.766814463424341       14.15195428505776
  3913   1       49.25778981746766      34.351799106355337      41.696201851715728
  3914   1    -0.77868365277266527      42.597828311456709      46.960194208105598
  3915   1      39.038732584749198      9.8267411007805734      8.3303695007201295
  3916   1      45.061786405733777      13.806668508264124       16.69405828091989
  3917   1       29.15933429678071      0.9050010456397507      9.8515437677504032
  3918   1      21.427485498989299      33.528101830486236      39.611288387126727
  3919   1      6.1168078081869908      39.483833356170528      36.758803807271796
  3920   1      12.117689169949445      29.532578176091128       6.915841786922007
  3921   1      26.778212530756043      20.984484068558903      18.083034695907664
  3922   1      26.140595386881426      27.158374017817366      31.435818443851698
  3923   1      36.223901356496945      29.963582574212239       40.64242689629635
  3924   1      38.479707913630314      16.427233655830364      3.7703183638718718
  3925   1      7.9324482561989376      16.821341192823901      9.0171532055572339
  3926   1      9.5004248646481333      44.401757809918969      9.6835967982702957
  3927   1      39.291379371690041      2.9795107971873676      14.119724709998454
  3928   1       10.37737318950686      37.580609370372159      18.285079226090609
  3929   1      17.000853203704516      43.911619856784426      10.509599373677968
  3930   1      2.8638818410781215      32.203853180114002    -0.48472729884292381
  3931   1       23.48028599391516      21.178700934875664       6.101958511384324
  3932   1     0.44117780310284965      29.210633039294258      14.321084708741621
  3933   1      3.4182409096259394      27.602006900589149      13.464858114217991
  3934   1      16.523755428515759      6.4282879900258756      6.5212362014098169
  3935   1      42.027958075438754      22.341138439995209      40.377389519342216
  3936   1      44.232970702092878      21.736303045457571      20.486529875486926
  3937   1      9.5986926661784668       4.579896422454576       14.61289862736413
  3938   1      3.3454238611136602      18.159400379790149      31.670446075226529
  3939   1      40.925596179131283      24.736238212034817      11.535451411033186
  3940   1      46.158043062785111      7.1052383448629337      40.809814886720744
  3941   1      11.800218152958339       6.169337352099789      39.005537915839795
  3942   1       17.38841082111297      43.308937374529371      33.103154043466276
  3943   1      35.341520092743977      9.1360785133007685      37.083507864302568
  3944   1      18.970549065406718      12.673921845628563       12.04718460111261
  3945   1      10.471364054342226      26.898069866577234      37.444533174739639
  3946   1      11.588851674323625      40.944451434662312      13.378111168813337
  3947   1      8.0646763688792014      28.015529764273577      11.271315604738305
  3948   1      13.607112527387677      6.6710986927663889      34.662126352895456
  3949   1      36.699299070663891      29.985675580529364       43.81792433243789
  3950   1      25.604074197760934      10.956650476159307      32.722837090205743
  3951   1      16.019514659129609      3.2215179591644945      41.204710507415392
  3952   1      12.420352171166686      20.977223477541891      41.909602990312585
  3953   1      9.0510537499655772       30.86019002040149      18.032450627866261
  3954   1      27.954144609670333      35.519289113257528      5.2496530957798049
  3955   1      41.609587461127227       24.08443683092295      19.428020331871615
  3956   1      9.6794929485491892      3.6478487030135929        22.6559065188925
  3957   1      29.710501303480502      42.545529668483468       41.73429134037157
  3958   1       40.52499932696778      7.2584760257115226      10.117695648644833
  3959   1      49.252971960481823      38.700013402191587      16.874488865285752
  3960   1      -3.422196412406997      17.285757864820781      2.7942046971810832
  3961   1      16.295577218074822      45.428356779132649      21.454192623402772
  3962   1      41.654165118163668      6.6605904019252025      40.342169603044375
  3963   1      26.439878346606694      13.918125597421801      23.071874415078124
  3964   1      35.520174444842525       1.416618364730245      13.451901534822095
  3965   1       19.66074717038304      6.9756306422193486      31.170594755503565
  3966   1      27.507129811521409      43.587661622181216      38.294096373336387
  3967   1      27.043535143948947      5.2857874370694082      18.088435814944894
  3968   1      41.478213238263123      30.008954657437585      47.784806465598798
  3969   1      40.167009483279422      29.540568665711159      20.627338244716913
  3970   1      29.624693003625211      19.101034368506461      30.974030795323987
  3971   1      35.744149454029454      46.222821064362229      12.799083919795473
  3972   1      39.162500802148564       41.22801780100648      5.1397459390333555
  3973   1      36.747829559284973      12.655823647534836      33.042726663750479
  3974   1      25.656963438607686      25.933535179858822      40.211997896270304
  3975   1      13.628114238507612      37.734863457361143      35.717767053155015
  3976   1      8.8398881704799539      29.331413700417727      28.453230443322003
  3977   1      28.120333468535392      32.815992633867602      31.906763579915101
  3978   1      30.780791168130968      15.377555645668002      47.824268883964528
  3979   1      38.856858862840646      46.650284632117078      39.674438169592058
  3980   1      46.717952954435894      43.740138310079217      41.101053919559945
  3981   1      43.110313511287771      44.937699973696013      29.808413534778484
  3982   1      29.821080776018171      5.2751055765194108       25.51548997606713
  3983   1      38.773128296625863    -0.76963688551996534      32.780301413923986
  3984   1       17.41387457576964      26.063333282442205      25.498709695168063
  3985   1      49.036512075191276      1.5658651985329266       4.944127247459015
  3986   1      43.197203859280648      4.1683526102162132      6.6184098229802082
  3987   1      6.6342014805592822     0.50948227580303374      1.8063660759186135
  3988   1      19.961841569893473      27.478186727161816       1.882778355451237
  3989   1        7.61771034384864      21.979224608140225      46.692150682139456
  3990   1      39.273198112839871      45.208721552509857      28.972590081898673
  3991   1      13.273151897199964    -0.36662420083716046      38.724440473914875
  3992   1      27.765870998544617      4.5326656124567668      30.821407650351325
  3993   1       9.543425652207878      12.615340117529131      4.0758854617459228
  3994   1      2.5493541888902063      33.612852786815246      26.847470828405637
  3995   1      37.082112304866314      7.9490079094025816      32.234798296374194
  3996   1      12.526768299001057      18.155570414209414      5.1469774978026788
  3997   1      42.533716734736387       35.76358620415072      46.025483590454776
  3998   1      35.352763514413212      44.293708333172134      9.4021787731488082
  3999   1      46.298937874299078      30.053034533431529      10.272968384181379
  4000   1      6.1002867561716716      16.219146117647995      26.892056122585149
  4001   1      25.992186477924299      12.672520506957962      41.884140933678594
  4002   1       46.43889138205104      10.627618786305018      42.844058564810233
  4003   1      32.557534563291668      8.6893618425201673      47.465196105021057
  4004   1      30.053675739468137      11.423683048557361      31.957880967314235
