(written by ASE)

4004 atoms
4 atom types

0.0      48.780000000000001  xlo xhi
0.0      48.780000000000001  ylo yhi
0.0      48.780000000000001  zlo zhi

Atoms # atomic

     1   2      37.207213956250847      39.882491445320845      34.614597718372167
     2   2      37.744929368830114      12.274589285265865      24.927756146491124
     3   2      29.444966931979579      45.284443354340105      28.480686550894738
     4   2      6.1095171511138116      22.787692280653104       30.49644780773307
     5   2      36.429814477667584      39.503374228670204      24.311515593005623
     6   2      29.999804133187364      18.986232866579869       17.62139332453247
     7   2      15.155390107542088      24.286296591149522       15.41024201309348
     8   2      17.191672679204096      18.941527249621906      17.063593384207426
     9   2      39.532095903636218      27.081797170712576     -8.6688387802979125
    10   2      6.7254733193981799      32.795342643896454      46.562151238181592
    11   2      19.134881967040343    -0.37688826526898828      30.177735688965143
    12   2      8.8216807490198725      26.560061570598251      11.377192041234082
    13   2      30.602083954421218        21.9076226727434      13.717201714357831
    14   2      27.312661712702639      31.375050280561943      33.147520144418188
    15   2      36.682668038695937      4.2171035591902806      6.4531103140857198
    16   2      2.1447195202967344      6.1378067454416847     -1.1432981392666695
    17   2      7.6683935076545033        2.03596622320158      9.4818346857032747
    18   2      3.3370038092930994      16.368865819461693      12.210941387970365
    19   2      34.003936553336104      11.628944209140117      15.294459924325791
    20   2      12.785579373852695      25.695128389263754      24.956286081705617
    21   2      44.301979350117044       37.54271152613866      13.974852426246041
    22   2      8.2331751428344351       27.68304652427668      46.573007701851104
    23   2      12.616578794933311      7.3246901507549191      44.398366536450069
    24   2      19.566283887296954      4.3272443272324681      14.441257279034932
    25   2      17.845388889542043      14.129143310156628      41.258576730352551
    26   2      12.942351306547257      40.946684755885627      12.860979408371559
    27   2      9.1046850298011055      32.278103226719729      14.631362101102029
    28   2      0.1013444427947003      11.419673430328826      23.391145508883902
    29   2      29.039296063713937      17.919158691443876      22.211425123776074
    30   2      5.5680918418983945      34.345988475707244      15.197348668533859
    31   2      22.235435779346652      41.804285101257612      13.317791682671821
    32   2      43.893555340742225      2.8891553488166388      39.513591950657926
    33   2      20.607327869713426      9.7669049597777207      27.132892465938802
    34   2      7.7129735463221953      20.672184826209449        21.4175413120083
    35   2      17.045743199143566      31.660298663224332       25.49533494393657
    36   2      8.6992469583989589       47.00475530235164      13.435547235963707
    37   2      26.366791230548245       41.96120610983052      5.8239404678084457
    38   2       42.28506035397298      16.688757893290564      47.704795310369796
    39   2      14.551268902919249      4.6422795656379767      2.6976808036338769
    40   2      31.644937752383143     -3.7420705345195051      25.281018816696893
    41   2      48.734070723878212      19.185068243335131      32.177621625240185
    42   2      32.928971047548863      47.279396217757032      34.670725295302795
    43   2      40.190540550543815      5.8214929750017994      7.7581149379735788
    44   2      47.432920471923815      10.083749804162396      14.481232652264726
    45   2      30.449736206542976      40.345012234755494      5.5986937265154619
    46   2      23.851705925757628      32.966653797490409       44.69065952627772
    47   2      10.388479296461787      22.194364728045652       24.99572466790794
    48   2      10.079958089161583      40.076126603061674      26.580928586376899
    49   2      16.583538090550718      41.454391958461152      7.3300078920568028
    50   2      9.5576506872243314      46.875890626526065      50.598193960713957
    51   2        28.1263458736505     0.86813724070100273      30.940938981391831
    52   2      33.704711629983962      37.959368388165977      7.5421300971161536
    53   2      42.892182388722723      32.100605622126352       1.734711241197572
    54   2      2.9852555247844457      11.582347952986453      6.0492163817661977
    55   2      30.987232416382973      16.370318045862405      36.925799052023287
    56   2      1.2711754940526769      26.653097010895074      40.807779101268814
    57   2       5.037927965781698     0.89096122121140142       34.81898392166638
    58   2      34.611749068526777      19.750476516613293      19.400481652451631
    59   2      24.014588992362238      16.355395999978057      25.429232255961896
    60   2      17.986672044099336      42.139891769909852      2.6930303471663923
    61   2      25.442832853538413      10.995022180724368       1.719805932985597
    62   2       52.91064527839977      30.856240432567031      42.679527617316424
    63   2      18.099550550917304      22.127658211041542      10.025837557332714
    64   2       21.60945506702614      3.9199583169950465      47.689111356957014
    65   2      13.276143921332675      23.969396244541592      8.8481402738690225
    66   2      13.004751067279786      20.406269705070113      41.166832685256779
    67   2      54.465375713585175      30.227799248497234      38.981646663355463
    68   2      32.437783987630638      15.635909880449272      15.921655994090894
    69   2      43.006703941140898      20.448676167139379      20.934304695623265
    70   2      2.6161212680758843       38.93029084335955      26.164853951844858
    71   2      26.152321815961077      14.511768719561291      35.693811453911358
    72   2      12.595989693811312      23.225298900245765      45.645614412066401
    73   2       18.03899402753493       25.37286459566371       19.66210469949462
    74   2      36.485811094397299      24.226579984256759       37.58735576356618
    75   2      36.504256764276882      16.323151449876651      21.619659755381768
    76   2      11.154395690767753      14.502978603688645      12.896478130912346
    77   2      47.536202991906414      12.753771747149385     0.39880748536249377
    78   2      50.045102286948129      13.752839199116201      40.776781815707025
    79   2      39.385978034800317      26.545452891908781      9.8430877420314982
    80   2      31.901900327294324      48.432786551024272      20.358767432795702
    81   2       38.90836591428382      26.199529272811727    -0.83995538613568088
    82   2      20.147733410456013      14.877869346606477        28.1651342550308
    83   2      27.876388679410546      2.5773542908805012      15.501046785569736
    84   2      27.562622930140463      4.3465392221281993      42.446829669596028
    85   2      40.459086814189419      16.766201183121389      2.9764989050132522
    86   2      44.386749524028666      22.654174986024188      24.309230789279241
    87   2      10.083536283561855      36.329824512471184      45.530899813665911
    88   2       9.805376094525954      22.895797952413339      8.1932821265824085
    89   2       11.74208349655302     0.29441151263893106      16.001967057581616
    90   2      31.117841190922846      50.615151252495465      28.095096890080764
    91   2     0.37553082995223719      23.826611638821493      53.223266152498603
    92   2      32.080220848794994      36.083758924809302      18.863249259202963
    93   2       13.62923509913438       37.98349894325181      46.874869924212064
    94   2      51.270277202522742      8.0878181753134584      21.238382998921008
    95   2      4.6030549960579066   0.0051398938830582034      27.757124278152027
    96   2      9.9542701565533864      27.261070803534377      31.554931071673362
    97   2      48.354196511830992      37.367940937111442      27.881779053226378
    98   2      44.257899980753265      19.877353615392664      1.8342145057936861
    99   2      11.613381248182948      11.547508488337074      31.534066980468253
   100   2      13.850005298164774      49.022206901403976      9.8863596776476292
   101   2      28.101087894862754      35.565289586189188      20.211908380280057
   102   2      13.320141384393308      29.562358726750055      24.685343470592336
   103   2      40.516664264712418      39.192382540219391      37.852068666177964
   104   2      1.4184122533853118      26.158366843256012      11.316796571620024
   105   2      49.518047630415722      34.799220848583118      33.227210180754639
   106   2      17.105373488853793      26.025618351969435      38.178812062469909
   107   2      42.186887039899489      8.1138564396766011      36.067835612431125
   108   2      37.311200342235075      9.9588514164619077      30.122355991970988
   109   2      23.134712706376892      45.524174651322852      23.101916846693339
   110   2      42.471182249567498      29.121408239892585      28.158746437591066
   111   2      30.863764765528931       12.77267862371102      17.272256866099955
   112   2      11.699245967169766      16.386794332530485     0.92886984438486975
   113   2      23.326128070597587      39.014237614502022      5.5269595629452271
   114   2      9.4333174267646633      41.902542723332154      11.261306024097438
   115   2      15.422951984768389      18.706207172973741      13.437459997998213
   116   2      3.4383294787670042      49.466356758624876      15.743211913246377
   117   2      24.297030571039787      43.943738878202993      8.4477463885082482
   118   2      7.7075082526635876      14.112159293802074      22.573760027091769
   119   2      28.925398283054776      15.509271208706046      48.691864914747569
   120   2      9.2037000185080036      6.9848800690395469      37.463575068431865
   121   2      10.140743190197846     0.55781359742151559      26.042744728055794
   122   2      37.686937474768207      13.011827298038373      43.856201910753981
   123   2      3.8071195657132124      4.3217150696975972      32.484416787989723
   124   2      19.550140078258092      25.578405355387996      35.463769538565366
   125   2       30.95463440277716      21.286661835591474      36.833579072596706
   126   2      35.283029852208315    -0.61145332012631648      42.708756450739607
   127   2      16.276952879309071      41.426909943877618      11.774145510329289
   128   2      19.847567753162942      34.441050996411064      29.126813898176049
   129   2      4.8995907993226488      47.224742064316487     0.54424035298696705
   130   2      20.563934817643702       46.39390030136019      4.1028840210400084
   131   2      30.002918509066525      45.946146083159292      47.572329870712281
   132   2      33.910391928694381      36.128126098837861      33.940151241195395
   133   2      41.713647974827197       36.91373435734404       24.06485732459846
   134   2      27.818174335202578       42.45523205696913      47.157364600174418
   135   2      6.0581896203380587      13.226434205508056      19.484782385379802
   136   2      39.527544087159626      20.992117621291094       4.388201741518003
   137   2      5.3422295295651354      6.5476703533235741     0.64699145538987179
   138   2      20.494737360316055       13.39034841824556      3.1249846520993749
   139   2     0.65187286929652133       26.65059793313122      44.995899360494349
   140   2      19.584090449403174      25.063746074242083      14.187041142168862
   141   2       20.22618933968397      25.322704486880419      26.323662008305991
   142   2       34.67323956336346      9.0979953442349419      38.811431978036772
   143   2      20.877163648679502      31.313521109611038       41.25221153614946
   144   2      19.269361672314929      10.816571393797561      18.062948775648611
   145   2      15.602595599545285      34.818339029876697      29.942659348320586
   146   2      46.817824082417928      34.022829107379231      15.075195612019652
   147   2      -1.068004187469525      5.8880728792315642      31.166025428070057
   148   2      33.129701112279172      43.986838798853725         13.142817316935
   149   2      18.526271297993588      6.9907858643927234      9.8316869532780284
   150   2      42.008670213411342      14.058503833690393      7.0118183962081106
   151   2       26.49778328106542      3.8836920718696906      26.906728508098791
   152   2      26.435391804645835      14.866231861548693      10.974772352900303
   153   2      36.256665760470064      2.0690832252681615      47.434425875980942
   154   2      15.728479225505296      28.096352031254316      27.698870952116799
   155   2      48.330002435977526      45.398516090161792      9.5848399978405325
   156   2      15.168314741484139      24.056167566707934     0.56689348903943892
   157   2      28.708362759700321      27.065641868340791     -3.6275209166511053
   158   2       33.32012469849429      19.261146888584989      23.120761885510365
   159   2      47.850705361116781      30.854019483443526      31.439150993272115
   160   2      3.1979707146358902      34.400502601194944      23.602069466119403
   161   2       19.46954307410406      25.149090164923184      3.3187327007365495
   162   2      29.651349523735846      24.389846732569097      10.054071379159257
   163   2      38.754448494161544      17.394122016906916      6.8440555672108578
   164   2      24.509926170314454      48.694811484793895      9.6735312648537732
   165   2      29.032134565103132      33.362476783488951         17.196846414208
   166   2      20.309340097580222      28.609162038673254      31.595242299646493
   167   2      37.728467094884458      29.938917954680822     0.92714670034262547
   168   2      1.4619633289676039      33.293621654342346     -2.4729927234279203
   169   2      40.292225187504911      2.7133889143771266      11.886384347691676
   170   2        43.0558169942964      4.8274089011837544      4.5241487051710063
   171   2      11.128731104110919      22.226772612439113      36.611823775369494
   172   2      27.173084694947391      31.485151335900319      6.9681574312824095
   173   2       28.40688184183465      38.374165305406841     0.38198167685712642
   174   2      8.3731136280597163      13.280581072604544       31.07606449295707
   175   2      22.497818197969551      21.612135678257722      2.8488526462612871
   176   2      38.620939933284603      44.065887928265845      2.4646042056301547
   177   2      14.902262749739439       12.53581394182201      44.179339719043334
   178   2       15.51594704577856      35.043381001830639     0.26993570559308927
   179   2      16.851730427687379      25.335700265983213      32.173059065656332
   180   2      43.169732475273634      12.350505170734023      42.066812047387863
   181   2      7.9899803468884274      41.161383604465094     -2.6945418195269322
   182   2      40.666844821247388      22.545838272245469      10.034561032407534
   183   2     -1.5890375091670785      7.4209847534576499      8.9713011938619438
   184   2      6.1248955008710295      34.492049888570854      42.313622589639607
   185   2      13.543741532260096       21.48661256892407      22.591542750374185
   186   2      34.700603123958317      36.280936455077288      22.127446345784943
   187   2      37.059900433733901      11.483352011940614      34.627151656084749
   188   2      27.216132061642703      39.750229337586838      42.350284113014617
   189   2       46.44450469447824      6.4781172409151075      25.995419825584598
   190   2      27.431706397803126      38.321590420624695      37.729702686701991
   191   2      39.064528328446876      45.603548626697354      18.140557732265226
   192   2      13.283714872478111      40.397896513714777      9.0180017686487677
   193   2      0.1120072006807622      7.4115222718782885      36.277901040433655
   194   2      25.962147124507645      22.294344262672873      13.178112350420879
   195   2      14.517525469623596      14.134998839951173      34.228310274521739
   196   2      47.977799359375616      10.211291458708434      45.952630090835335
   197   2      15.814462063838089      3.3401075685365345      7.0112905291058123
   198   2      4.8933528739054397      17.241030757202363      22.305279296592669
   199   2      21.011516507683812    -0.11582003715314701      14.790171544164661
   200   2      17.938848799988257      29.780257898876986      3.5431584523018853
   201   2      2.5986090742130621      25.729716390549548      14.969357124384834
   202   2       29.01146836370463      34.936468380986092       8.958731489190642
   203   2      37.080206146660032      40.910165770090053      5.2498687706395373
   204   2      13.638701831022068      44.082922630052714      12.263097437941699
   205   2      7.7514835230827259      42.063316068659383      30.425811572340002
   206   2      13.397410974489009      48.158926889169315       41.41551093434925
   207   2      32.572873820567288      15.944765664632696       19.71483443934693
   208   2      4.4112349304466045      20.920133136163308      19.177661041563034
   209   2      19.834240569439327      36.537273102528133      7.7008129501024438
   210   2      6.5164238853578587      5.1236207752011511      54.477329743809193
   211   2      6.6120069359421461      36.776320274418786      35.629869081593014
   212   2      20.851558604274967      2.0884832487896268      27.079092822436703
   213   2      17.410445718018888      44.497758289484175      23.559646189407609
   214   2      32.125801795095192      41.922071596135609      46.276413649993806
   215   2      16.505427729166851      43.065654353153228      18.967754939111046
   216   2      44.343626518754704      45.963031840595455      8.3660877635653232
   217   2       32.94463881103124      15.437041258321495      8.6156463268520191
   218   2      7.9130856450614173      3.4434356351916557      33.837016140168423
   219   2      26.083983246621401      42.341728341588841       39.64808136644227
   220   2      18.254051031913324      45.737240390222397      49.097028874982982
   221   2      7.2297326102318733      10.016315396706805      12.260235025777222
   222   2       16.65584562564775      38.918370320682733      49.558128405124528
   223   2      16.487296888708041      14.996958680536371      18.995484530413318
   224   2      3.5822198605616076      46.001295787868422      12.500539466660593
   225   2      32.412237915929964      2.0203668761960474       17.60740714601603
   226   2      15.386650372459398      38.128020366085273      6.0355751184374933
   227   2       44.72896279747696       32.81268272400937      21.386131594403039
   228   2      23.084499197785728      30.760828618357827      5.4346290580790999
   229   2      35.728705656152506      29.895830751497453      4.3846940816323681
   230   2      42.135952353240576      1.7794837065929963      7.8979353259399723
   231   2      15.670345575670181      11.028268498902349     0.71109893323385875
   232   2      35.456845793342055      48.649647554996342      12.266384948868129
   233   2      31.587713099483512      39.407011930040959      2.4291298551676253
   234   2      23.284855318665734      45.423797725037204     -3.2565980141895436
   235   2      15.384848430591186      12.822374585298762      11.710473084535094
   236   2      43.871826675750583       25.81460453290607      36.011636034899944
   237   2      32.550365974866246       21.30407194884026      28.341889465788025
   238   2      11.942628793709945      42.180322579917927      33.038969829209471
   239   2      25.970579005148537      31.179116907703968      47.926940787591001
   240   2      13.996248717331552       34.07440112804094      24.636559742089993
   241   2      26.016910094690225      21.499318758977537       38.58364999343172
   242   2       8.804975664364191      32.920268262181906      5.0066242325787043
   243   2      10.560598455067712      26.899495964032454      7.9872994990006632
   244   2      48.072296339179566      14.522764392505062      12.974974693160599
   245   2      24.195430405061945    -0.44380076053019274       28.77805554676959
   246   2      2.0104278925982406      45.928945641743397      38.219332391192388
   247   2      25.297000861446318      5.5852076604078746      35.307174706536586
   248   2      44.390330703220734      39.154396273305778      27.308115184022803
   249   2       51.39563121877476      58.794749885439138      1.6772961302139977
   250   2      41.072532864248636      23.965847846555906      22.566265033778894
   251   2      11.594774646505977      2.2222056309347504      30.891036319312047
   252   2      19.743383283509456      44.071348014983521      34.557050137021157
   253   2      18.769230441277067       6.705446621248397      49.291495999679384
   254   2      16.205665550641964      17.273173366824512      21.637585701679168
   255   2      41.427845212116857      40.969906717678455      44.985981368863143
   256   2      44.646445632556144      4.7022746215382396      36.209819986151508
   257   2      9.1185958218814509      21.395110866587288    -0.72134097645116968
   258   2      30.658489958052563      38.422799509160086      16.719826226238901
   259   2    -0.15105322150723086      32.126970597070319      19.255223498640859
   260   2      28.963693519394916      17.097557882897846      29.388602338735442
   261   2      6.1170522414242896      26.908653141905834      42.355274152290768
   262   2      35.135027875801576      17.816973942615522      11.408716619066805
   263   2      39.904376005767908     0.32773442608577696      21.660826647609653
   264   2       20.71669788848337      6.0737263695192318      37.195424628686446
   265   2      10.324771049809996      27.554920165290056      26.810198365779144
   266   2      25.185780271784783      41.610372410199979      24.261906621361213
   267   2      43.485371912615619      22.040191303179757      32.810333114377705
   268   2      13.771350712448553      28.437114553118938    -0.25098860856603522
   269   2      41.958194148646946      27.245338912325629      7.1411361084145382
   270   2      44.787914395957451       9.690125523312215      18.133569254917148
   271   2      40.134688575812525       6.743689272258476     -0.4061970741774209
   272   2      43.789718262474359      11.913710927325461     -2.2768115862792633
   273   2      22.052389521965925      30.565589296227916      27.315802135552143
   274   2      44.589927574601575      44.838568820987007      41.111370517291334
   275   2      8.7861833457604899       11.72615487390779      16.597480195644252
   276   2      1.1732922583162533      4.4274611756345266      14.109406887077478
   277   2      12.071888024612919      41.450115245521822      17.428932180037332
   278   2       13.22822621576363      40.511457733733579      39.387873626987869
   279   2      18.785299415497796     -0.6287357387222039      20.886714164927579
   280   2      11.152234863276655       26.92836563211846      43.199632134773779
   281   2      40.442849680438677      46.654841517409501      25.532680518760134
   282   2      20.276236655735875      19.699213187782185      26.610230677681322
   283   2      14.421093323305335      5.7252574884690492       27.35283891665545
   284   2      46.685234564282254        46.3661191294701       35.63707130485021
   285   2       2.454034849639501      45.005912169581983      24.835580242955096
   286   2       27.78783399412654       21.05412511451517       32.14351160716474
   287   2      37.049321927847259      42.381490578828057      13.665847136026331
   288   2      21.115165650709411      35.276628101849731      36.502507993071418
   289   2      11.400583331387296      32.677897604434733      1.5713011894175255
   290   2      13.906196594372171      13.216313573544692      16.230938513881018
   291   2      20.611244501282656      38.951154552010415      10.552144072420008
   292   2      36.026784339785912    -0.44602646295095949      26.160730888487393
   293   2      36.500809549240358      37.922388354184058      2.2053344440353277
   294   2      32.130714386229037      13.810515579010966      12.233839683357589
   295   2      28.852772205911169      34.664691244396273      34.322359904119466
   296   2      21.649157024061417      46.509195655237022      27.142278949056433
   297   2      39.158458534066654      18.097540065834114      26.924860622411877
   298   2      42.348864853305685      19.919890761955848      6.4541683036776742
   299   2      27.118006746257294      37.134961917625319      16.757780329606781
   300   2     -5.7515033941613645      33.952813973224707      30.435920853898516
   301   2      8.2278064852717012      6.8655368630145999      22.023850270018865
   302   2      30.994156101159863      29.835805804862726      35.568061693917727
   303   2      41.546214666244843      37.176578512639352       2.782755747671573
   304   2      2.0402004739999104      11.641960904169887      11.617397771941812
   305   2      16.730526199448796      49.216787947760871      25.100660277245648
   306   2      21.194935210209458      8.5934747720481646     -2.4284325407774925
   307   2      16.799581946965919      35.967798801528886      45.135372805620072
   308   2      53.315950114136903      12.846411856700975      26.954647117768289
   309   2      38.713980025183162      41.200595975644738      42.412322383497617
   310   2       23.76361335163929       13.60496321369442      28.353113860437404
   311   2      10.188533279184218      29.091103100171743      22.347696978341627
   312   2       38.95181402991782      36.486974950693835       20.73079726675503
   313   2      26.915239671187187      29.185990774918515      17.700154017338207
   314   2      44.193946994351847      7.8023976664604326      39.427573755804083
   315   2      38.524478794026827      30.143130206116737      16.062770114217873
   316   2      36.625404171193246      44.178202552040844      44.119862082860209
   317   2      18.101897911945741      48.465105835968984      7.6228337513667856
   318   2      40.894291291196772      20.703642001669859      14.352883895153902
   319   2      11.626180991337801      46.429929821275323      37.015510253136263
   320   2      18.698106415815342      45.323030785028728      16.783205425043732
   321   2      29.433000895742126      29.592075589293721      13.684741617550792
   322   2      14.808770030619163      43.782419996152377      38.524841911692462
   323   2       18.25019230497411       10.31880707345864      5.2981220592955154
   324   2      47.970966909162044        20.4639073050907      1.9261202445167038
   325   2      22.647071617074111      13.762496110179633     -4.8560014199080817
   326   2      40.068500555033147      45.189730678373621       12.54203753148947
   327   2      23.887081279335362      2.6369236022555285      39.378694135896104
   328   2      40.500430338709428      40.403245894529981      3.4235960819861222
   329   2      29.863080364300114       41.11382444350766      37.615348051689359
   330   2      39.611227224099551      21.045873537410554      24.558204149028256
   331   2      38.437525203158593      4.9933541990882366      37.359285970237131
   332   2      6.4929144341016283      2.7069441574291888      23.932704367784559
   333   2      38.445213772533137      51.399494036106425      27.569188354572802
   334   2      7.6062397501233638      20.938874951407197      39.583185651776319
   335   2      -5.680965630865014      35.651234709314693      18.176738492055815
   336   2       29.82406017710985      13.922244659048962      41.645926556733883
   337   2      26.070673574176709      24.202187385726464      18.130463699449759
   338   2      16.853413630688802      56.128875960084564      36.159111204878222
   339   2      15.356007029711456      36.740061480837589      38.021245980101803
   340   2      38.069387351218772      21.748312440534381      45.832490568076437
   341   2      24.381370905454425      35.884190737437883      7.8523466576739818
   342   2      33.686672425301843      4.7289243501825169      44.655972868846966
   343   2      1.6220799312880372     -4.3451959844874457      1.7064105988491587
   344   2      24.458721815296911      39.335618693752764      19.129450676016535
   345   2     -2.4251192402461088      35.908498133639938      36.592154896040746
   346   2      26.629820581998448      30.730145239514336      51.553398788366621
   347   2      16.648993055775975      37.646399350621536      10.326288733595986
   348   2      37.845655008768063       32.68214176183735      5.5215453513177239
   349   2      32.936718883399791      19.121144805206018      15.276839819285049
   350   2       24.55409373711386      38.782076260069523      49.655010437482822
   351   2      33.977143167362719      45.416966442208476      17.376363916008202
   352   2      8.8074668168200443      48.879758520006746      43.831443602499135
   353   2      23.518584929146439      18.835415113969013       44.47271504101569
   354   2       16.27851759805651      48.029648348631127      16.455591367176897
   355   2      41.081969853756746      37.471865430167632      42.282535414020813
   356   2      46.557419054664059      38.029571422374197      23.828392366495592
   357   2      18.115621823019406      2.7906507089263259       10.79151556457531
   358   2      25.492333152431851      19.771730843530904       5.519488999314671
   359   2      21.362861421514992      37.479599593358394       46.11144728653715
   360   2      41.670683024259716      14.763807924201759      29.362772380602308
   361   2      3.4318066498758051      13.231692411674477      15.339621990968414
   362   2      24.665642520207093       10.32525920863991      23.142467404508746
   363   2      40.368175866989986      27.899324753725818      32.511873620088686
   364   2      1.6582963332571992      27.384222504188173      33.237819973716633
   365   2       13.94641540828178      42.212020860967442      3.9107798376098568
   366   2       9.371985789057911     -4.2147877838830885      27.505235031686926
   367   2      20.710572323457157      1.2542699826525701      35.883201318540181
   368   2      53.014085174340224      7.3406956185761372      9.1774656141948707
   369   2      33.539591923335657      21.299283405781274       8.426224816892093
   370   2      37.743192253798021       37.62548041041245      6.4093125842702454
   371   2      30.621206089730666       23.14753090554132      17.649970690337391
   372   2      46.513619730142679      22.867884468451592      14.272271584577434
   373   2      10.227944971595463      16.899040237444314      6.6467282423460219
   374   2      12.503670228973066      34.350599239990707      7.5393961213991636
   375   2      17.281228889498777      5.6532933386104576      45.338719366209901
   376   2      9.1022006957950961      28.683549144494233      2.0168306849382445
   377   2      42.445741793131887      9.0302010154031631      55.778270208519487
   378   2       16.35970962880684      40.683495976013639      35.759667367236354
   379   2      23.715766938368056      13.620269718603399      12.760254996533556
   380   2       14.57634373235889      36.825621431484599      13.433264351762183
   381   2      45.782336249838707      43.048653520680887      6.9383788566484572
   382   2      24.794978146704057      35.253837338395783      48.361139803867673
   383   2      6.4875462466702132      52.567722062149663      41.426836397564465
   384   2       40.91988795388999        44.6475070152947      45.884857296226009
   385   2      8.6171268471544646      31.956971123380971      24.921080656240406
   386   2      45.131111424708081      34.862641399699051      25.659013064069793
   387   2      29.436068109577501      31.160035825089594      40.182982135284405
   388   2    -0.32926407586455175      11.426226440209822      38.208999340922503
   389   2      14.667044421669408       44.19365762664598      27.288786607251996
   390   2      6.2609796198776264      26.048300125644381       28.61273728313569
   391   2       30.03363997302213      46.527036680559661      15.105982084459752
   392   2      22.355010571883579      13.068605620297054      36.066163593682774
   393   2      23.699501207720783      17.896059671690491       29.24230918138133
   394   2      34.090845533525034      19.529054918826777      39.962843188144049
   395   2      14.074566044673082      31.460378857512278      21.243043284848351
   396   2       28.43265326359996      46.236710859977599      3.0954299661105056
   397   2      31.429341671840593      24.815054000022855      30.938896275530034
   398   2      23.818726228050391      40.558629457571733      9.2516807334634734
   399   2      33.340505586179034      39.006041639995743      29.224412404909216
   400   2        44.1764272189005      28.600303790571118       3.565868782832776
   401   2      22.487217095116822      26.778459928128552      17.363747111189596
   402   2      8.4404062073434716      33.431751889107737      9.0614430037560432
   403   2      35.646255519863125      8.1246897474716082      18.995502888367287
   404   2      12.524286540922652      21.329137915317407      1.5216559598523491
   405   2      26.535192555603398         46.503515669357      11.568708374960009
   406   2       47.31386193305751      6.4463673907621235      5.2096047926641722
   407   2      20.486984437075492      33.191180726146186      5.2731519046430986
   408   2      22.434036963954707      38.787588775177035      26.230155988338229
   409   2      29.053949876343726      44.569629245122293      9.2673193562434193
   410   2       7.126893825827139      7.6260875007163342      17.895537872353135
   411   2      1.3928207824905006      42.317922356747189      5.5992892064188702
   412   2      21.709675051159998      11.171977921867791      30.927118614621047
   413   2      37.844699760818777      27.923371092984436      21.297716385425058
   414   2      1.6745034456254742      21.464506451218011      28.882492865518756
   415   2      37.952389912558942      41.593123050960571      47.096863234640267
   416   2      35.361905363024178      24.690785890308181      4.0627658950073009
   417   2      21.929761805289129      9.2474304547943724      40.935805094649709
   418   2      20.500545971305211      5.4529123043257126      24.660584632569361
   419   2      39.862520422848846      36.392312019296483      47.346045359639454
   420   2      43.422671740930355      42.647958686392684        10.5359972023666
   421   2      3.8069674250026715      23.523080862283095      22.057300875619816
   422   2      37.355638361359482      9.0624963447887428      7.7727199866636747
   423   2      40.832161393694641      9.4052039100754126      23.780867508511559
   424   2       46.55802034652455       42.11425413351246      33.381558210416067
   425   2      37.054883295885993      30.165645843819597      8.6205902188686956
   426   2      47.045307284128214      15.994333950446189      34.463401271114421
   427   2      39.229657269976535      32.695577160815994      46.620728701342451
   428   2      55.025649523918254      27.681273302683554      35.647201668778514
   429   2       43.29465303563331      44.273701326006389      49.246151996849996
   430   2      33.865340051308735       2.106794246012738      21.796392981140947
   431   2      50.890446926277711      12.910774605085171      33.541957146639184
   432   2      35.464327596281819       12.80575139521649      18.980245852249542
   433   2      3.3840270968807067      29.931433760083237      32.051476611721448
   434   2      17.226557889430222      41.003371866173346       40.57840634407215
   435   2      35.117821415607764       11.27811010480643      10.387054079867884
   436   2      33.082183021706925       16.31147055315034      33.756158351939618
   437   2      47.422243636168389      4.6766863635079874     0.93617270140905018
   438   2      41.489441984899557       43.54262624506962       6.061353542284782
   439   2      37.180861615419388      7.3983906253815208      11.805298220097031
   440   2      18.651391807001488       32.56335106389438      32.910204105675341
   441   2      34.284549813976582      28.213323054241307      39.437609664733905
   442   2      16.858599552242978      37.058625262425203      20.714002556074778
   443   2      2.2193600822919008      6.3650125590389388      4.1883760725931269
   444   2      22.588510424413371      32.313243645764402      1.8220253328873024
   445   2      25.249442322510458    -0.51985761806648578      3.4866885228166469
   446   2      5.9170324552648808      44.900360333936185      3.9649133913948416
   447   2      5.7092130817095139      25.038384714926423      1.0682883624051083
   448   2      46.075134849970908      20.440169727706621      36.142919369834395
   449   2      12.199048330682924      34.350468201557753      18.689063666128952
   450   2      28.213065504129091      26.528779550185558    0.036608377724500318
   451   2      10.554031370674153      7.4861919523818283      48.586654828614662
   452   2      7.8357620169980784      32.151209803183313       32.74072052631918
   453   2      43.257683798020359      34.844061447313202      44.759232916052568
   454   2      20.907114117661134      41.135217627770785      7.0759702839232048
   455   2      25.969241293578417      34.570388129890922      30.511293239586401
   456   2       38.97348347740386        15.0487023996502      33.676249195580752
   457   2      35.797095477827575      14.924775766395152       13.99985180271978
   458   2      48.390660074274372      32.084641521505006      6.9331634512913407
   459   2      14.190760846032521       31.10254681288659      8.2114150290122918
   460   2      1.3253420285048847      18.451546490183318      36.136217033877998
   461   2      39.753462603082504      6.1608288896631898      3.6891153631429052
   462   2       14.57662332660683      8.2506792510002978      21.716408914244553
   463   2      7.9480808551901916      26.196686793695896      15.511199902158143
   464   2      26.185455747581514      25.378267648286844      7.4590093561995818
   465   2      22.346370425774833      41.825858855348073       4.104284001883169
   466   2      16.533540255890291      45.032266313334603       10.13447957474305
   467   2      26.298946008652969      18.366880037179676      35.940160477269451
   468   2      37.046114638062377      21.111966293491392     0.90742308910442748
   469   2       7.227032044496144       16.57681083471515       19.35284485190671
   470   2      16.925232359009119      45.352444516080119      5.4836245408465354
   471   2      32.369794611737134      42.977628875999933      31.611011570857798
   472   2      2.9340214864212233      30.341364092325133      7.1636188165278032
   473   2      45.501694169771632      4.2448218582710169      42.812944478919661
   474   2      33.747289981264423       25.61483304888128      34.830125937169441
   475   2      44.596234702037378      35.940950711490061      6.7589382273256904
   476   2      29.838803553480144      32.654046166846669      22.637905364485402
   477   2      21.703289462887088      23.298222395813273      11.004973392760945
   478   2      10.756114205697385      30.532061344788868       9.339242877680288
   479   2      17.343525051668507      13.760388711693761    -0.72079916739995009
   480   2     0.24345509865307388      46.925979642008166      22.368788116527675
   481   2      24.837005352380221      34.621447875351883      3.3349120020152752
   482   2    -0.64818632068623039      35.318533094978953      59.696787986934368
   483   2      24.361399432571584      5.3698100429944962       13.18383357695587
   484   2      36.738248860256491      47.958046568646793      37.986257577450104
   485   2       26.90100501394927      15.483420730662921      44.053247544434484
   486   2      32.652480153207122      46.715914506867655      2.9004134604007481
   487   2      7.8422660444955188      30.150197552067784      42.970632298826338
   488   2      51.393400412243182      40.744261627005187      41.515198822475774
   489   2      8.8017555676445056      12.827577580726096       43.49592507250572
   490   2      8.4880102522746341      42.607269814846852      15.461297533324396
   491   2      12.954534616414197      44.266188866774598      8.6652357069571675
   492   2     -2.6014402308050477      17.664046998721332      18.396582828829928
   493   2      37.513149382061449      13.615208414819572       7.340052259042432
   494   2      28.233064277367617      39.130739047050824      20.866390865996951
   495   2     -2.2756655261549534      37.900106617446731      32.186285991671163
   496   2      9.9814791573014912      39.771482810117945       41.17466431717785
   497   2       33.43271937984224       2.626650251595505      50.185783885113054
   498   2      34.206193238175246      33.005120007236776      7.9428447306155672
   499   2      15.401031386550841      15.255844642127794       28.32135030049772
   500   2      47.983124474724242      43.802914155776463      40.095883320828115
   501   2      16.600283039845952      44.713687122104261      42.275142600482205
   502   2      44.584351738340246      32.872801229501448      37.900804668012057
   503   2       17.72873435407389      4.6064021635490748      21.733836377914567
   504   2      6.1154766407727061      21.668362936346149       34.05517170595985
   505   2      23.096833169028741     0.31892028803532274      20.177255896938973
   506   2      34.032517294484371       41.10564195051515      38.127621857394637
   507   2      18.487134084192711      45.603564563402195      13.427197739111769
   508   2      13.177550878006576      9.9856621798981138      13.717112400409933
   509   2      34.451242912500589      6.2690828661535791       9.180560887251346
   510   2      31.344211625373159      18.216627512366632      10.332151293814787
   511   2      4.2737971212501185      5.4428798133498626       36.37381419265558
   512   2      43.708830730524944      41.389274133648577       42.19946450626086
   513   2      37.002945009002481      23.871160098536308       21.39871052719359
   514   2      27.295314066209457      41.478889468352399      2.1932175305359625
   515   2      5.1691660682969678       38.04194978572643      39.259650842766845
   516   2      9.5560671367857921      24.070266002766711      53.287239487105147
   517   2      35.156007922938649      41.282971992434952      8.7735858034490928
   518   2      44.405040334879928      23.888659767499206      43.133283043138142
   519   2      26.650639205301285      37.762942867481456      4.0501114403744829
   520   2      46.502674109383655      32.513306314103517       48.13823710355738
   521   2      11.284065081585929      20.218166211480085      27.870121206684637
   522   2      2.8537374479236246      3.1018703642755994      43.214467870217518
   523   2      19.992843046756594      21.598969092973206      41.523916960499939
   524   2      29.445886936226717      10.505437658534444       2.875676357077197
   525   2      46.795858125988744      43.242040842006368      44.487953295987481
   526   2      28.726779555293426      50.497062250732938       35.45581419580369
   527   2      11.345987536738363       36.86148453198485       35.39291763285798
   528   2      32.325283843097964      4.3390836149833687      4.9914328209364713
   529   2      45.278802205488667     -6.1946640601440643      23.244627094679227
   530   2      28.309877702460472      33.915955774173419      45.814613621147814
   531   2      8.0587763368476129      46.209385049727466      18.373130327390829
   532   2      22.456806814879869      9.8897074144927775       10.41260355269301
   533   2      11.622524239488598      43.937158736124573     -2.3891648526025322
   534   2      21.883778398083862      8.1246524362504129      7.1890782705529652
   535   2      6.1602585606718474      16.879623961235303      48.577038292533636
   536   2     -1.4124183071468666      14.028049931224775      44.569616753828768
   537   2       42.90071877446929      24.182415011558586      51.471014391521678
   538   2      13.599813921341834      31.244542913637712      15.974432901947585
   539   2      30.989581127594668      42.117480486994026      16.079250600263503
   540   2      45.170202081658729     0.10505560866533467       16.84199973780925
   541   2      12.364754630202846       30.14592458176374      5.1734796511087255
   542   2      33.248627304847773      5.6142564469129592      13.647601952894671
   543   2      24.868207967277833      23.976165614586957      43.367367969948496
   544   2      14.395821017833018      32.214997444166457      41.037181114421685
   545   2      5.9513083957044293      9.8458077117064011      40.926225986761509
   546   2      41.519426740956888        44.5327066427744      21.030235994383819
   547   2      22.343975663432758      26.515416280524306      40.800945278511954
   548   2      35.275371083666158       35.75512954747591      39.163952325446466
   549   2      29.634054914060766      11.418024189911792      13.268591961173968
   550   2      11.865419300803227      8.2040673696701845      18.464018980505791
   551   2      17.490359519754115      9.3865946558201241      14.970696518375817
   552   2      12.618265389201364      13.811068265375701      21.074961054748137
   553   2      6.0004334820372955      24.431720708902976      8.7374315457617637
   554   2        19.6531500374325       45.07619956649831      39.280425806664006
   555   2      14.181029970972205      9.3323964145821421      31.142744879352801
   556   2      18.152515792759392      34.320106653540336      10.855721519107329
   557   2      26.675560140309035      10.094711608549551      35.891448844101923
   558   2      5.0516520831035132     -6.0686447912807147      49.165102365041747
   559   2      1.6135389561721483      2.8263257062464153       4.333571560198922
   560   2      30.872775531873341      6.2278894116260179      36.509623282207471
   561   2      1.9326994956404999      47.090314592155394       4.353227590917446
   562   2      43.302977183853521      16.124000863597917      32.304711892743043
   563   2      26.008879605782159      8.0902361500155742      16.248399118440066
   564   2      4.5897675707152468       43.08182646622511      16.720332204335399
   565   2      14.109006769262759      4.4412058063078765      39.478318035843536
   566   2      40.771287219770883      6.0280780104103791      17.164997575853008
   567   2      25.314973990806191      39.516871501779733      46.151968758456476
   568   2      14.646932704908407      29.750323310881772      37.798050652770087
   569   2      21.149309651711032      6.4835528173891808      11.902125004824713
   570   2      9.6372962486816096      8.5470378489823737      32.951549518568626
   571   2      30.786569270594565      24.410320985226146       42.82475391161735
   572   2      5.4392253631501397      30.872361407910962      17.004767011665642
   573   4       34.94955018135537      24.148622352443578      47.486485613691514
   574   4      31.191744004545352      42.970938965284041      3.1382141292468178
   575   4      6.7287763332547508      11.331626559727358      8.7416531401204391
   576   4      18.168180583483714       6.090508733163551      4.9916354940635124
   577   4      32.055979894449628      7.8783617393209084      17.239279517522309
   578   4       27.85469233456902      0.6473373080968764      39.374611098092686
   579   4      46.750809235111873      6.1491035752123135       46.49570122121667
   580   4       30.50569463147778      1.2636406243816809      4.0000264756127022
   581   4      13.406528926036223      24.697356480445208       19.31360870653695
   582   4       35.38259280529261       44.75580395339162      48.160724484034212
   583   4      36.260886473653713      11.992387205038785      2.4441429954651852
   584   4      29.881712080627985      18.786233841031606      40.687404964039807
   585   4      13.618907275205952      27.653030091284528      17.241857491806634
   586   4      15.159707738845256      23.171859599459037      35.528160670738885
   587   4      6.3870770487364501      44.828609041759186      33.750350524088496
   588   4      15.222310263745273      24.727635060586103      42.601347452148545
   589   4      47.519360105527014      45.476160669084649      25.414867993585517
   590   4      20.737325644194122         45.481045602974       8.040776096392408
   591   4      9.7340082572002391      45.930359760525967      23.466987076330309
   592   4      35.074270866557718      22.724591989714227      32.318775814835028
   593   4       23.23532495112336      10.363102402753212      14.210613982016687
   594   4      45.925957266513642      25.489614502285363      32.395563273048019
   595   4       3.523739579279173      35.858180864722002      27.542099646291096
   596   4      7.9651411002597738      1.6268581295186515      2.8545610904784828
   597   4      18.315374481381202      34.873716570243843       23.38348602145447
   598   4      15.395422421651951      44.208871362512234       34.35342425679994
   599   4      7.1713536151816824      41.010345024257994      19.176631625342981
   600   4      34.370667003729523       17.97980028759628       26.55591639436123
   601   4      46.798999900723381      25.426179760221192       24.52642628239488
   602   4      29.366471581702744      21.248416814352421      7.5779164642968944
   603   4      27.214699928234847      26.571391570497369      41.371193509707773
   604   4      16.952915935728694      7.9962978258780817      25.046932961319737
   605   4      8.1608273793908843      44.217879297744894      47.702424222394015
   606   4      38.586982440261352      6.1482755842564742      33.563330962346633
   607   4      5.7564902472741863      29.714886192049949      22.056314889390357
   608   4      43.388618655288724      21.967410543814069      47.325745796899263
   609   4      46.806780775595378      23.212665042253061      45.639322543511604
   610   4       5.621002458558312      5.6486317422565975      45.937791514436469
   611   4      45.486015416121646      21.723232451641021      4.5765552903899485
   612   4      15.287236496911566      8.8325264172521685      10.363742462574548
   613   4      6.9349773278811471      46.827728678709981      9.8470037315760006
   614   4      30.002666621724391      26.419975774169014      15.649047967702209
   615   4      48.756608761921946       3.571702604616962      34.448314503705618
   616   4      43.188862643915307      5.6230163252408634      29.364062628925627
   617   4      31.198244713308249      33.198233520855815      31.311516334087255
   618   4      40.252925909471266       31.77241857059537      19.946829035438199
   619   4      2.5269411124839558      35.755609102306806       19.99839376816389
   620   4      5.0400685365695947      22.987407933502482      15.505544193201514
   621   4      31.051646430423517      2.6586817573958399      46.842499872205416
   622   4      16.563135140325848      29.425335936202998      44.495082120021166
   623   4       1.760141729123933      43.629893652310109      31.329387643551172
   624   4      40.473576035952362      47.749565169028415      39.498972445171141
   625   4      31.254949040498051       7.620801513312224      3.2443443360743296
   626   4      47.987656542644217      26.031658845758834      21.664451626815868
   627   4      15.319266985080317      8.8867750866895854      39.660438508705461
   628   4      28.108555218250672      38.909425281316409      8.6796232185371398
   629   4      23.041177042456123      27.431085357374918      24.057705006564166
   630   4      13.268036638526846      46.781372154205663       24.80693822121642
   631   4      46.031601625207564      38.979505105804527      10.161688256389766
   632   4        42.9211505626673      44.036427671465837      34.418629435476767
   633   4      2.8690397394362659      7.6609275268234942      39.271599093343447
   634   4      23.441357972866953      7.0651022564990873      26.589698613898925
   635   4      14.646783165588023      12.243028542480451      40.803474367815426
   636   4      35.442422155566668      12.121131239825456      47.579083626757765
   637   4      29.964880993385172      37.886316848767336      44.729941810636006
   638   4      40.015598688089227      21.380459773326141      28.331909711322297
   639   4      27.790222078125929      45.357787650339716      25.312888271910357
   640   4      11.026928632300226      11.032968622004754       23.42198321200183
   641   4      42.937505762825154      18.060603593092079      36.573331068230033
   642   4      6.9803733044177569      22.479239010527007       12.29658044347604
   643   4      44.841592892015917      9.5237267055645258      22.620490050640839
   644   4       10.82043489379917      44.360974298477942       5.152191453238073
   645   4      33.220452477036694      24.419937284896289      39.871030124156221
   646   4      36.644513248706566      5.8137122831137509      47.108268754726517
   647   4      27.585842879357543      7.6302469583651931      2.4254767497512262
   648   4      20.471796264977019      24.450178602784945      31.490776283571861
   649   4      38.276754144509475      15.307065415582761      10.710777663561466
   650   4      16.484216767943515      48.474103878461257      47.539518208195389
   651   4      20.612904897809823      48.146879139175411      10.973229739459674
   652   4      30.165908646359899      4.9204300209234688      10.897664912368597
   653   4      42.598978740016321      40.068552928526763      20.951152478330531
   654   4      51.060517375554866      28.066409543168451      37.254541597831498
   655   4       2.796702875866381      46.309120458538679      33.816035619516249
   656   4      37.773379992982932      45.539878021193893      22.576182420572685
   657   4      42.893167529359459       16.12311603070393      43.553452393029403
   658   4      19.367722447703763      34.659252433932096      40.387440711278586
   659   4      27.130318467615943      18.887297764125748      26.004910990653865
   660   4      37.856828692740294      25.768972614388471      24.875138642392628
   661   4      8.2069783961854572      32.349955630381366      37.276972747463581
   662   4      49.980058144964829      14.113299036129973      37.032782892673303
   663   4      46.883525481305099      28.909041037779712       21.96375217742165
   664   4      22.360584455780579      22.205245028944763      15.658790673696998
   665   4      43.379965328220507      47.150109598088427      3.5567696376392011
   666   4      9.6700241423600861      23.758301677653186      28.309632072623462
   667   4      33.118155690338384     0.56493699172832601      31.337562635750057
   668   4      15.219184656002062      27.843240965681357       20.69839776756616
   669   4       15.14023350819593      42.944335523973542      48.429294058369337
   670   4      39.955969267188337      25.157644942592494      35.806038757978747
   671   4      9.3834920011523302      22.436566373678005       31.78221025525955
   672   4       6.229978582413886      29.055838900019182      8.5509035675055109
   673   4      9.0102027322173708      11.828777513106616      26.329152417178548
   674   4      45.006639471799659      46.258681727383177      23.911625929557214
   675   4      40.824702373942294      44.087523577688557      38.991520716290871
   676   4      5.1131601994953053      41.292593478965308      4.5132187949431488
   677   4      34.244870829950095      22.891266530088878      12.021774549072701
   678   4      43.849612717684792     0.94250246072796773      23.905892464999425
   679   4      15.482721884718641      28.040431571561861      14.736744825356082
   680   4      46.623805694348036      34.327472897203954      28.946703706934635
   681   4      22.225600314230878      38.197801231207521      15.167883014561065
   682   4        29.7568212345912      17.357811730235706      33.425825857232859
   683   4      27.900871197195787      40.502167014856461      14.997947998528813
   684   4        11.2225361378073      3.0364943972226159      46.837732600493197
   685   4      3.8081370350866393      2.6085345525484316      7.8052999768317708
   686   4      12.793095047624329      17.995132050258402      24.677471790444073
   687   4      44.798339995269266      28.363719913735533      48.849701893564998
   688   4      2.9539855708973115      35.463168140549698      36.503238863442732
   689   4       17.81997565636544      29.248893879910508       20.16168220586697
   690   4      43.699431399287867      21.679217860505698      17.144555633950379
   691   4      31.312098698980598      29.330606468420822      17.861813589150447
   692   4      30.909471341034337      41.139899064135221      9.4271454583105161
   693   4      20.281378384707647      13.976154424433636      20.210365280669389
   694   4      35.241775483222504      20.625041290699766      4.6535593414602943
   695   4       41.88934792298361      3.9314739840326958      42.516127468665218
   696   4      36.948094788435348      3.1586425974568475      10.361927251892499
   697   4      20.228521508939142      47.086757838772122      43.517564655711588
   698   4      1.2173404278694173      24.247822380641431      18.808157645570748
   699   4      39.191146615284687        6.27798963578892      21.454632066625628
   700   4      36.147106527216842      38.335689998298804      19.274745833251892
   701   4      43.049603021112674      25.318148870081188      11.062890941048211
   702   4      10.457537315357518     0.99120205548441465      39.268272303934246
   703   4      33.273731980951069      35.859336812723015     0.97833523316707149
   704   4      28.170096509258236      12.928755146319622       29.74591871433697
   705   4        15.7876107009366      11.544073068252329      37.316557611930513
   706   4      40.628510224772803      16.938142537674942      23.264587455945932
   707   4      28.595812696768778      13.730326672734222      20.386835883377458
   708   4      46.493959960983055      24.523643622327246      10.399564695974862
   709   4      4.9454789143671176      4.8028829058244407      19.683740122970288
   710   4      34.547848278434579      41.816598470384641       1.677852441457784
   711   4      7.6463074486488969      1.1333478938276837      29.986817123595394
   712   4      29.113034462985528       5.531693577101084      17.793651586795701
   713   4      17.367573244138462      24.081082800879422      45.744915071908089
   714   4      25.078590513558403      10.779902462603836      44.044444153709428
   715   4      5.7809795220852056      1.0843127514876045      20.019978777029479
   716   4      25.926978019124036      40.772684579610988      34.330581885090304
   717   4      6.4161805077686846      30.716599384073536      11.965478239389403
   718   4      40.515603707701615      23.872002679195987      32.339474540326968
   719   4      26.764875231345261      20.645428322731519      19.938185457902307
   720   4      29.945919404218603       40.79962960777015      29.318468346316145
   721   4      22.330982900805331      28.234062922730288      44.238692086772446
   722   4      0.1165793093776083      28.161410361670264      4.9888670391142345
   723   4      34.988126964707874      24.850961432809694       27.14059729873447
   724   4      2.9167522970856314      7.7166252689132255      13.107907593928276
   725   4      30.246270826051834       30.84243890623512      47.840053875835309
   726   4    -0.13948964456044874      34.967207869906858      22.285108993797905
   727   4      23.126446059187938      45.522572129201315      15.990416870459773
   728   4      37.660595112495905      23.913640331362032       29.76864150917763
   729   4       28.88692193619179       12.53360595064855      38.267832383394236
   730   4      46.393382291677547      19.334333665235437      22.453098783544363
   731   4      45.412750160941115      6.7132636944570825      15.612660724126874
   732   4      41.945491582026577      40.433303610342023      48.875281401493737
   733   4      12.030082244209797      34.830243602082497      39.636602876798214
   734   4      1.5523685836599126      41.621755263999745      47.327143174342794
   735   4      42.586479107082575      25.217258684452844      30.624573694146708
   736   4      5.9402778406994425      18.087742448803869      8.1345862456544609
   737   4      21.486283141121842      39.216842976278151      34.856014489071029
   738   4      18.536388152248151      13.520998296052605      37.101243936028737
   739   4      35.391126097252346      44.045643543590096      35.559206323429407
   740   4        13.0816519236052      4.5450763273218726      20.183554937002565
   741   4      38.611384215876143      11.966044864004015      17.228653241701235
   742   4      11.670176073856544      45.026044017641233      15.487082266949033
   743   4      12.372493939276225      14.092968766682104      8.8585603286775818
   744   4      6.7216360222865408      19.039223180345129      45.375426837601651
   745   4       8.548528950771269      10.983676476611681      20.566569566681988
   746   4       43.46678729088908      16.868347511682622      9.9255944707154562
   747   4        40.9920303516191      46.062975039820252      31.945327804667606
   748   4      17.836487826250707      11.398631466903788      30.167471582575054
   749   4      48.028261111596471      16.671551280550474       1.862276895789724
   750   4      25.540289818922105      5.7981614078590153      46.634149746375058
   751   4      27.256594289643338      2.8168232367184416      47.119949881744041
   752   4      19.255191436665534      20.978212628145293       45.46427711900828
   753   4      38.695691662932838      33.791580594109163      1.4467873289140802
   754   4      15.077905959329302      30.812547059047443      31.675482184129699
   755   4    -0.82575131154590253       35.44031920287501      1.7394271407371165
   756   4        42.6757518754684    -0.13531521117863013      29.799369666233229
   757   4       41.13591696818775      12.019113622281404      34.828539834431588
   758   4      2.0099336623903876      22.590816361616714      9.3958415672815789
   759   4      34.654507397052868      14.830627144614629      4.5204006520720501
   760   4       11.15783129733045      37.214408371633795     0.41608223120020793
   761   4      39.781633171227085      26.198125414048413      3.3514690445147863
   762   4      21.937084923300194       4.410487143269755      20.934894173526565
   763   4      38.141282662272673      26.970609884383556      6.6866283149990444
   764   4      24.262795508991175      45.956951995247579      35.667383827380256
   765   4      9.9255120613660388       20.55712428274326      44.020121554385497
   766   4      11.252307452998529      18.279820459917776      38.026649992527631
   767   4      25.562221664605136      36.181473863010559      41.801474800862167
   768   4      20.956305287661401      1.9411994098001613      23.790693858817608
   769   4      13.546724019779115      1.0834681468499729     0.57345587749545657
   770   4      29.150568734869676      29.769904196949042        25.6315987906234
   771   4      11.814451541196314      10.699354577864462      42.987300987281706
   772   4      47.727851164106937      35.776386098060762      19.471835551497371
   773   4      16.889136930988009      18.635417255299174      41.247346427885901
   774   4      43.565428515512963      5.5386946952049758      48.710012528158913
   775   4      27.672211855885127      41.386202854951435      11.240883584589303
   776   4      21.955732988658085      21.747657298388624      29.531861700330566
   777   4      3.9012319644750217      12.437584137805011      48.146087446440823
   778   4      25.154468679968218      27.714939862366251      4.2208371013145101
   779   4      40.815358682871192      9.6519328732198968      43.478019396775103
   780   4      16.537288736434864      11.437975391780723      26.475472980226062
   781   4      7.9161473047461852     0.86307883524752338      16.875476855039082
   782   4       29.83533337773331      6.5727365554787855      27.054865475269928
   783   4      5.2895511818702463      48.247476693594059      42.462934198795764
   784   4      8.7466672580211977      38.179822893501431      32.720734721746581
   785   4     0.43130090176446739      41.461853057782122      22.450146038739259
   786   4      20.803290078602565      25.925399657702989     0.12086007779091004
   787   4      46.969349510333316      45.838291254457054      4.2684070191228427
   788   4      36.882557492522494      37.561109420381541      31.542632086927593
   789   4      36.151539293568256      12.901569955889959       39.59381613171179
   790   4      27.555013175682639      14.360018544303527      3.6684328561946775
   791   4      3.7841255672770715      41.080252824373858      33.167316790472512
   792   4      35.076299124843246      18.981849165545892      45.853279655995216
   793   4      9.9752994243463142       48.67259197671163      34.270375883437588
   794   4      35.514452672638598      47.861747067531503      20.565531249334601
   795   4       25.62528146057733      42.748557898540817      43.587841824358364
   796   4      32.637081465001522      12.882991015693285      38.131594378440809
   797   4      35.228481914371677       3.327247149417452      25.412420644583555
   798   4      2.2199991686389664      22.404505365125658       13.05834201744924
   799   4      1.1728686482734474      45.375501862101856      16.259101310681071
   800   4      20.672885319084184      17.676007800954853      19.582278269525457
   801   4      30.586659093781559      11.134771452551728      9.1375537790918973
   802   4      48.889347464004423      3.7286638450793586      8.3184994062119699
   803   4      41.636395223047955      1.9596684137401303      16.624382813397531
   804   4      24.540545671956679      47.570343431736269      39.182266624663164
   805   4      27.916858083786682      26.715584219504766      4.1217104854287667
   806   4      36.932426394629715      16.483471063068077      40.690877073193398
   807   4      6.5220150140525908      41.629061390126125      35.845572978614946
   808   4      10.678957779774818      34.226158044354925       22.19934029439176
   809   4      36.225156664675538      8.4753400636650404      1.1624271463731781
   810   4      1.5357610574213487      17.048407165986664      16.675787118785255
   811   4      11.216399955378652      3.1155239326406705      36.197492972024399
   812   4      45.355434178154695      33.325904407883456      34.010213691650861
   813   4      13.122732338684175       43.58211569464094      42.919460785591838
   814   4      42.140122180257841      13.122037792920677      1.3814832966479953
   815   4      20.791530529092565      21.240839398003587      7.1059393553277737
   816   4      14.072002774584309      40.099225690717248      21.211236145770354
   817   4      16.538872981034199      10.963457292355388      33.570510708817352
   818   4      47.337471273502565      35.409896314700873      40.093373831474835
   819   4    -0.39920895550921559      3.0269536687020588      27.361990157269613
   820   4      48.702416917252378      27.777317751233458      24.081020218913288
   821   4      24.814079516905732      29.711251193128259      30.555196870033544
   822   4      24.778485722993434      5.3981468759001698       8.844598857327771
   823   4      32.999585397493242      42.186550432044719      27.380030883445123
   824   4       17.78901309051955      6.1781444314164515      40.009172257314518
   825   4      28.767414767336117       5.791772256554685      32.998191170034175
   826   4      22.642946598451253      13.750372354173736      23.202407942873315
   827   4      40.808407782189995      33.132345873877085      23.533476982596021
   828   4      10.405100076605162       25.57511839475734    -0.08175211770456732
   829   4      6.4800349927803449      13.405385924036429       11.87174163706381
   830   4      31.257864263015669      47.620105493295839      11.234627384390262
   831   4      42.749123140048148      29.679100252463055      39.045603376650803
   832   4      24.934430792778723      16.668691633657367      14.009067915470903
   833   4      30.228916787140395      13.827647483427944      44.982387264847404
   834   4       1.792574494336342      15.007556156021254      24.200789258813231
   835   4      25.316201735247379      26.746371170602508      11.523558186010012
   836   4      16.147428481580437      20.085807419225755      2.0830922562609064
   837   4      39.886062290317916       31.61867994955141      30.555806260872505
   838   4      24.217976652648385       13.20433660041693      8.5535386501064217
   839   4      27.533821596774679      45.092349282339761      18.873375836680786
   840   4      32.922212430102114      30.910548117794121       42.14257515085955
   841   4      29.262017892009986      33.977229875968433      4.6086981241233254
   842   4      5.5406098622140991      41.999101940049741      12.136185541139564
   843   4      18.778832795190109       28.69411410845051      16.563984700091058
   844   4      32.918393435614021     0.19922387887295076      39.566071239922927
   845   4      31.825864920318022      32.338261682318233       12.08228508960512
   846   4      21.135645097641206      5.7649382842081707      32.869829384624815
   847   4      43.783701581915828      38.657695988678938      35.147366352429216
   848   4       10.48478734660695      15.591335067218312      16.972307231614398
   849   4      46.595848310012059      23.689920589275474       38.45052523458294
   850   4      34.986036207677621      9.3431769866079808      25.386522698890236
   851   4      46.494627528412821      15.591427050318117      30.206994494118568
   852   4       2.285593795630982      45.769965806359437      28.911416485178766
   853   4      48.229091002250428       10.01754122671003      42.280367412117769
   854   4      14.595017536102555      4.3287333199314597      31.312430258181038
   855   4      4.3103991204361209      18.826839484709932      31.262822874749453
   856   4       29.46352531149838      42.444741095274949      20.244242506692537
   857   4     0.77467875448559798       19.23774311067433      9.9801960981842814
   858   4      32.597583973235189      22.968374294459139      21.565296254677083
   859   4      15.722100698220672      31.149804815806458       12.58434137135351
   860   4      27.480703886382219         20.530199339025      9.8892986837017514
   861   4       21.39088064787197      28.363978800150825      20.972786628022583
   862   4      11.727024772163979      7.7213578354168906      40.743991941355588
   863   4       38.15017978587165      25.447212661251253      18.167008451942792
   864   4      43.414754253134298      2.6300139409702732      27.075659702518312
   865   4      10.016929935930854      28.980052818916455      17.268349439787183
   866   4      13.538180563120369      37.527512947695513      27.894017758498279
   867   4      31.279458953849016      23.915496407658281      47.004781190330775
   868   4      3.4713308001272818      20.816627258435688      25.411210280726696
   869   4      14.726770364579403      34.393057508211548       10.77474761399316
   870   4      21.235808669803014      15.078447386640729       47.65927190412998
   871   4      32.692450739898007      32.208299595676479      19.973393464331441
   872   4      46.718761815916238      37.651183862009127      16.360849416330527
   873   4      11.617879751464015      13.992786065403761      45.101793097092227
   874   4      48.284424099362163      46.983894249690316      13.514790120491417
   875   4      11.897393454453509      32.150765237993539      36.951214218548685
   876   4        45.7821247936077       11.30862816220065      6.6814527501042402
   877   4      6.8151251234927646      4.5528428267098695      28.719917627686829
   878   4      9.5839301467392861      35.693920196056204      15.462862697420736
   879   4       25.23713710833459      33.340055853672688      10.486735056997027
   880   4       36.41929954566821      31.525806029480552      19.915099640505531
   881   4      24.846782740217122      7.0618615106598916      43.095604416618016
   882   4      27.546502596595971      31.763480725302777      36.696958171232794
   883   4      3.9561543354345465      33.995950711187589      30.911700009905129
   884   4      22.565035793702041      9.5197521772991962      3.7307968836495604
   885   4      36.807965895691822      37.611623733607644      44.452938504438912
   886   4      8.4389938446096462      46.613679254767661      31.500744825160005
   887   4      22.869955628481328      16.303826583054903      38.460769925792157
   888   4      32.890648126475249      9.8083211471218927     0.56960416216532406
   889   4      22.770140728667769      41.694036760634475      32.679919103894882
   890   4      17.983038019362699      2.6215550507464989      3.4013895789774828
   891   4      20.309719636723599      38.486199135748812      3.7698774438341212
   892   4      14.295498768144713       32.49727981720013      44.545995785763893
   893   4      44.228948220345963       38.50137523739987      46.418271587379508
   894   4      44.735826635299112      13.767305416272404      16.289848717682915
   895   4      32.848548435550541      39.821190994421492      12.534775334323696
   896   4      13.787438471839497      17.735334546911183      16.240562339786596
   897   4      40.987724699478015       9.302597203228796      10.886536693009971
   898   4      35.102815282437547      12.985753266053324      31.571577741582335
   899   4      16.530921608607407      3.1933347931008114   -0.034201910699532462
   900   4       34.82587792949996      35.622548604802745        26.5936107213913
   901   4      38.796267334891802      48.540699356038402      15.146645596461852
   902   4      32.039811572758012      38.017256385349874      37.660777119408529
   903   4      25.024299346339085      7.6379087885525143      39.178142845948692
   904   4      15.173453630618653      43.684826044007707      14.943267379896112
   905   4      3.3308868439512138      23.844362080482231      43.271470252497288
   906   4       12.56782299162248      11.367107519886812      26.793626471233996
   907   4      5.0641721445753642      14.434810985486305      8.6507630362305719
   908   4      23.839448366916169      44.129197930864898      19.463990276122061
   909   4      44.938674614860474      32.560422636260888       9.215161677431924
   910   4       7.544488030410486      20.818552107818462      5.9221050650368499
   911   4      6.4746763352468735      40.902538973043157      25.805832747811493
   912   4      14.054571742892843      14.207392942605892      47.674603953330077
   913   4      1.2358551713906238      49.953105774768176    -0.01397752333403896
   914   4      11.822050758605275      16.435877114018837      32.378871642039613
   915   4      45.121985972121713      26.560824566118928      22.383496556592547
   916   4      44.993485852773908      1.1570749249237831      10.869361836796056
   917   4      48.811972441877145      41.442002697360941       9.278028344016688
   918   4        23.8857733022686       7.215056254252163      1.0230858320982745
   919   4      27.237692088649631      23.402749064037042      35.287614654092714
   920   4      4.9853912635557149      15.199318525686062      30.498879720584348
   921   4      30.296617685272956      47.074062746334995      37.464189292322736
   922   4       42.69964097682427       39.27169339494575      6.1099347274204492
   923   4       39.11354674115551      47.796285990369469      29.275056362089433
   924   4      3.7233468118990967      49.066850458837003      23.329343160375661
   925   4      35.770149153983894      6.2923250967848565      27.659373265740086
   926   4      41.185154428037819      11.548741364547492      27.932433892986648
   927   4      10.258675968097853       23.69994281336637      21.291758136065358
   928   4      6.5100667597079038        42.0407382672702      41.380627734017672
   929   4       2.180644565358441       11.22775490995568      18.876574991132518
   930   4      10.218987861735863      42.206507212535314      36.642404513250845
   931   4      4.5201614143185616      33.976105895095209       11.35116990408919
   932   4      39.225342473538547      35.478793801372944      39.398903734384909
   933   4       45.91035540416086      28.313845625180456      24.779625848780245
   934   4      35.611816549139206      43.687012050231012      25.047476715428832
   935   4      20.244099199900106      43.346889208217007      20.597612649390989
   936   4      27.901704885496699     0.15679482623790486      26.423132587645362
   937   4      34.220169476762642      33.168806796629575      36.599001946887995
   938   4      29.883795253815144      26.762818877184202      7.1084752575044536
   939   4      18.910495172928123      25.915274312836811      7.9437051411962996
   940   4      45.036339080544188      46.391555194330763       11.52870519007937
   941   4      46.108250489504712      36.871242816516514      43.462000179832195
   942   4      26.135418207241557      11.286872992764783      14.427136847431276
   943   4      16.205743904441839      37.235650156838126      34.337687956803819
   944   4      19.457471026534222      39.608050244918182      43.388907595396532
   945   4      48.340710893954764      6.4759231062053164      40.583046140477123
   946   4      24.811581444649459     0.85180962523202786      13.646548103025566
   947   4      6.3861721059532552      14.406968115837635       40.59166216448557
   948   4      19.640806703677619      36.610786083510469      32.667595996351906
   949   4      44.722076193574871       46.66734383824285      45.582424116003587
   950   4       25.03094949720445      44.491073173379419      27.795552945277592
   951   4      48.193398923320629      41.736368020734936      26.030245868633305
   952   4      28.437731245463368      22.929308766071973      4.4742171515718967
   953   4      36.954457670259139        47.4426124430057      46.268876897020647
   954   4      16.758138093451112      14.078071849694583       4.532608422591152
   955   4      39.171585238988797       2.451653772711512      40.325514664481588
   956   4      39.647975261975958      12.046453505481358      3.9888623859672814
   957   4      16.594769258129002    -0.22341510348704618      43.740997588047506
   958   4      47.851307324143889      10.657649835506867      3.8051416491942165
   959   4       8.037054066432276      7.4487314587365692      41.991048088396994
   960   4      37.354356656480022      45.046755291928811      9.0413523892525429
   961   4      44.389074190402809      35.973187128251666     0.43699122904392262
   962   4      18.914117003541264      27.191679636298442      45.903290419253295
   963   4      6.9836669631254775      27.049345844602161      5.3449418280648997
   964   4      3.7669493144884525      32.006731486203023     0.66792146726275037
   965   4      16.288002243260763      27.446692227561364      24.325930899822708
   966   4      3.6718914020739457      1.3074845903181831      11.359840671331451
   967   4      40.482235454665307      24.877154670950755       27.48817929589914
   968   4      22.417593760214945      44.134199327770077      1.3138652187853521
   969   4      29.391371293679686      36.855795345578073      24.233794406464423
   970   4      4.3838936460812459      34.735708242112118      5.8045347549249939
   971   4       2.197569651395471      33.755680258981315      8.7049530295352131
   972   4      34.194382684083294      28.015846868513545      28.856176530515015
   973   4        15.0884940219341      9.9266087011346844      18.308639694611298
   974   4      12.889380191021965      26.553475945955746      12.261385105466388
   975   4      33.175899013602809        42.5456881531451      42.608402882597737
   976   4      15.140354879332817      45.660300351045926      45.609578026451878
   977   4      9.6057530871580088      7.5082580365252518      14.258619777073001
   978   4      6.3215563239482488        9.25443715272052      5.4905419491410541
   979   4      37.779875903460855      29.087174312177336      12.552353751695961
   980   4      9.6220259756809021      38.008413886406643       9.408052039170272
   981   4      46.376394316151931       3.908123751902568      18.021116958613643
   982   4      37.387548849435817      20.742754736300981      12.112917318542991
   983   4        11.3790110040385      38.088986167048951      4.2836590182220586
   984   4      24.563171763779518      1.2355350374309582      24.836016365605314
   985   4      32.766112063100493      6.7487641870761896      41.326125396194705
   986   4      1.4323734722279242      4.5409314865515711      18.541445828554753
   987   4      2.8316134215229578      35.047898907038565      2.7154895880643886
   988   4      1.5573036939524656      32.719485174472652      13.417135086278714
   989   4      9.3621566352463894      19.108495499977966      3.2154410662328097
   990   4      39.810535007203228      47.751753379117119      2.3371596025828589
   991   4      47.224291114272752      33.312480034453799      44.430671765725769
   992   4      40.174874378721562      18.174204764882198      30.648342983335528
   993   4      43.395027926420099      11.220985012920057      37.786346148832429
   994   4      40.501204010183486      40.114073405560184      13.053790735573511
   995   4      23.613289285024916      34.986777606078171      27.295647636258195
   996   4      19.725643691124883      29.713811992731266      36.177441461471368
   997   4      20.679262938980205      40.046156366427859      22.338270934873677
   998   4        13.9166675581635      20.428741257355728      9.0763587501680938
   999   4      17.337716980366309      47.421792699583989      33.877948390990447
  1000   4      23.561724619727777      45.571209786857153      42.056578378596164
  1001   4      25.071104160419448      29.661873612161308      41.983498998901169
  1002   4      4.8036348728004743      27.622186335032296       25.23697013323731
  1003   4      24.189275462186981       25.09785759304259      1.6714441424500686
  1004   4      9.1202595044253822      5.1903815868950067       25.65676906505027
  1005   4      12.679985700100987      9.1067146764570985       2.823528180274228
  1006   4      39.358500670660774      1.7766005645875129      4.8828058321560777
  1007   4      42.908242149448718      44.966308849844935      17.196179808024549
  1008   4     0.11541823722591592      43.255089260635366      19.131172514745405
  1009   4      13.245362646339524      24.742641711890759      29.013519139257507
  1010   4      47.382542582327709      47.963138799350787      39.584974467306715
  1011   4      17.727153469703584      30.986851365993495      28.891283729632292
  1012   4      17.223675197138441      9.6931820918141405      45.392932708239847
  1013   4      20.453101753035849      19.743491258055357      22.817410204189652
  1014   4      20.621066617912145       24.22416504659429      38.325587198339079
  1015   4      28.561475301632861      26.638829080455928      33.856748835942582
  1016   4      22.845267505136611      7.4320793048725839      18.764639729187451
  1017   4      30.584814737656075      3.7855755360394658      20.892861396186944
  1018   4      7.8189812772810008      23.177696317313877       18.30355925121918
  1019   4      24.696859781506539      37.299046174526978      35.222336127382441
  1020   4      35.230129939711759      27.638541205945497     0.14656886855964749
  1021   4       39.45164097123137      28.898522455337286      44.951649446306831
  1022   4      18.713447471311508      43.484125660986166       27.54969420450054
  1023   4      32.883535364976254      17.917773224718459      6.0807378842164823
  1024   4      40.560252051063522        23.2089817657608      41.379453648148747
  1025   4      12.290016021146547      5.9972636551740219      33.904698404938912
  1026   4       12.46303536071218      29.422643764333724      34.338586499448184
  1027   4      12.535578882834606      40.955246249353152      29.362760955610145
  1028   4      3.9476006534521981      42.691365603342561      38.459587848523526
  1029   4      21.629549623438852      32.562995060703173         9.5956494618049
  1030   4      34.310597060778086      20.006139062866378        34.4316178540669
  1031   4      42.277674085123586       5.601480712038053      32.594694339523684
  1032   4      22.591460510877834      20.086437710709415      38.557515790843929
  1033   4      23.205365345631886      42.350209496977222      36.152826795786162
  1034   4      26.352982604214858      47.344410160839466      16.298117180531751
  1035   4      14.783639155188171      47.627948128354014      21.391268517508287
  1036   4      48.793465355096536      1.0048381343434805       10.95943265975288
  1037   4      35.548973963975342      48.909161540349331      16.842623118596951
  1038   4       5.687984004009814      8.7241628810495282      34.336303092054486
  1039   4      31.543350474117208      44.176206394877752      35.438426616393208
  1040   4      35.230427720738383      29.614459246401317      35.583698889928499
  1041   4      2.7098053666631583      22.585373382360224      1.5075027146142574
  1042   4      21.581845334270451      17.808514774768732      5.2278306298344708
  1043   4       2.672910556423473      33.476062249711831      17.002365847305096
  1044   4      17.344480268125057      21.768374282791559      21.459497194244555
  1045   4      34.508264182425883       38.97440127163221      15.841781526633886
  1046   4      39.934832183216031      42.267211430285926      35.948123131858658
  1047   4      12.870245399912044      37.896519044581211      41.677562908692423
  1048   4      3.9226479422431821      20.966458975669994      37.599897867205932
  1049   4      24.513055497797776     0.13716422112314916      33.200249520073797
  1050   4      27.168428077546093      18.802365276873751     -1.5644567120804838
  1051   4      38.882766765883972      6.7997469093675909      42.004825788245419
  1052   4      24.823232540304172        26.9414915171159       20.84317258324268
  1053   4      7.8243777526917757      3.7421213871077543      -0.347835516657229
  1054   4      35.178720906153714      6.8525157195491389      35.175850984328726
  1055   4      34.784171238529858       12.38709991876488      22.945606396286578
  1056   4      47.665909795198409      9.8309653025708528      32.388867484903514
  1057   4      43.094108009016132      31.638440101083425      6.0624588810282338
  1058   4       17.11338866443149      3.2058655836343655      42.157493638511397
  1059   4      20.703485453625866      13.746196117370653      39.215310107006246
  1060   4      15.766129910020897      36.236200439457868      16.921693959055865
  1061   4      25.534438173038414      45.907672619537244       48.65561908401579
  1062   4      24.134336830509334      27.039912803602704      47.359510594327546
  1063   4      28.267428586736571      18.265520651228528      13.011817317871889
  1064   4      36.168269622602388      47.993073137531454      1.0972254841638618
  1065   4      27.928591040015373      44.901848316747461      35.471356211886601
  1066   4       48.02564620481175      39.699018446894904      42.797536022551988
  1067   4      44.001555684197513      23.365235927826859      7.9353700749526936
  1068   4      9.0254663914465691      17.979435344706111      24.130961452425453
  1069   4      38.003981048828742      37.618070286333598      27.905161685002437
  1070   4      40.329491213715563      18.489316850008315      11.075265867167751
  1071   4     0.38867569880135888      30.376405145722842       43.23685088624287
  1072   4      11.288711103007056      32.905041531162112      42.907731772107255
  1073   4      14.977107183880802      27.260284447512305      3.1868590502621661
  1074   4      26.902196391714806      46.980182498016511      6.2557409995920157
  1075   4      19.854829716956655      3.1903646746492398      39.520339380697266
  1076   4      28.275696791659133      21.722553885955858      28.214119692068028
  1077   4      26.756908406053892      20.160513109882388      42.316085871239785
  1078   4      32.230158733580247      27.140529466240128      25.906356107060979
  1079   4      46.954519928054886      11.694912231671102      10.288819854725537
  1080   4      19.742863512604753      2.4710521928313618      18.447644526433404
  1081   4      9.4839955563673506      10.325751851789949      40.048967343150302
  1082   4      17.629862647746716      35.748829009230242      3.5027436585672884
  1083   4      21.866310984356932    0.031744959770559085      40.608453164367099
  1084   4      8.3728072552212467      35.616720758839243      38.907238356312931
  1085   4       47.31903223738103      22.345513596396671      30.602651691559803
  1086   4      26.841094098335965      39.449482107261019      30.837519561414656
  1087   4      15.730070120643052       32.74934833141517      4.3179855828720255
  1088   4      23.045706768098913      47.344411682966474      12.667748010900967
  1089   4      11.222194094102306      31.436578244607499      46.316316400721725
  1090   4      3.0765355757881996      29.247723909864185      13.105475604986989
  1091   4      35.129078151309805      7.0522516153785695      4.4705170830840428
  1092   4      25.043184313896663      32.715294425037946       17.58597673430052
  1093   4      14.588005154720149      2.9765117248933928      14.093179461161096
  1094   4      40.939469665178343      39.870284020284018      28.129273767485945
  1095   4      48.127948332566909      41.015184434891587      29.728685107794373
  1096   4     0.68120696170865791      7.1358660800475597      44.002881674071801
  1097   4      36.998135383237653      46.026051893884478      15.311967124770998
  1098   4      18.943706571612466      21.309362384196838      14.305242134220631
  1099   4      18.349014332646071      15.215008276924133      12.092580361830812
  1100   4      5.5657915350985645      34.287636603927311      38.831796762316976
  1101   4      17.486960839199714      18.486993976631624      29.285048821820677
  1102   4      20.440503334137894      34.058857628980313      47.688550824072315
  1103   4      42.198811390541941      33.616890499050655      14.767081615778084
  1104   4      24.103252802918618      41.105750872453655      29.125749475465849
  1105   4      44.802648941015939      28.136155099320376      15.580675003259548
  1106   4      4.6713789199142841      28.536767631003308      47.954499865108538
  1107   4      4.2785012850568025      7.4628161724663382      42.757325388543499
  1108   4      28.785914949411122      9.7113570395786724      25.013073922039272
  1109   4      19.583985656775013      23.199744899679033    -0.30007151775634816
  1110   4      36.964225364445021      5.7594420568651774      15.569061268635615
  1111   4      11.493218085223713      2.9688477274523231      8.1497773684198798
  1112   4      15.274799542729514      28.425072708720204      41.078640589536874
  1113   4      5.4348151756616074      26.229958518939767      31.971416307985329
  1114   4      45.195082157587919      4.3800383348249019      8.6664433801299143
  1115   4      19.442366815020115      42.884097541504133      10.622358758069057
  1116   4      40.199301689952144      20.056653575024985    -0.29230500585165931
  1117   4      20.651670524755179      8.1046078319474066      15.759865859231988
  1118   4       1.663083501006704      43.303383297341632      35.518102977677337
  1119   4      18.719924071709602      13.031453887608789      33.321200276208153
  1120   4      25.731237720202504      12.431624645770066      32.596085186104197
  1121   4      8.6213670462964949      15.291264173230458      3.1075653020795091
  1122   4      32.631863999607567       35.62448446623042      4.7704790394564229
  1123   4      6.1089804512875379      37.161477325782393      45.515402316925737
  1124   4      46.633485690142621       1.916872151228882      37.218593643163707
  1125   4     0.74730725680032306      17.144933954143191      42.955164677253876
  1126   4      37.904512157359719      17.981876767731546      17.684910950798667
  1127   4      43.312424514521652      41.766080323208115      37.329140569274422
  1128   4      37.966636931561382      35.080578492647561      9.6100614476745356
  1129   4      19.214929103028574      16.594419822101418       32.16026244180572
  1130   4      9.3222113661560897      25.463311364641683      38.826842394259295
  1131   4      18.333710721664506      33.162844498046788      1.8812775232026522
  1132   4       9.005456842368794      9.0161747191946588      45.254154733521148
  1133   4      30.581796102205377      3.2570499195520966      39.400832513754366
  1134   4      4.2753131991186732      20.101011721524269      10.930552489762912
  1135   4      9.8265543589426603      31.795981902058823      28.318512952078116
  1136   4      29.202901988235471      45.810046097617906      21.688507123766676
  1137   4     0.63710981251630183      9.6584453380251354       27.99599375821796
  1138   4      26.425667359785169      16.151600278304468      32.813153919611139
  1139   4       47.07482617536192      15.724876002209941      23.690536531699632
  1140   4      16.297892172781321      48.092385638390304      2.3939582549717868
  1141   4      21.572002736094458      1.5549417697876919      2.9554597757775078
  1142   4      2.8761164772645609      8.5270294593599534      25.266466792098061
  1143   4      16.596097530359305      2.4468394726777212      28.632481024925465
  1144   4       48.51843872741464      2.5833635930465442      40.323596816263098
  1145   3      25.951319945889942      14.311708041131778      32.875637207097306
  1146   3      47.554214133785912      33.045505707322192      46.129309615912184
  1147   3      39.781535609107671      19.705718365107188      29.854689098921934
  1148   3      22.732165034673702      42.816927518876057      34.209601688105401
  1149   3      18.890372954635591      34.244839743831754      3.5487895321908858
  1150   3      41.124699243989269      43.532200859319907      35.037669342375487
  1151   3      26.861786737159989      12.347709037382764      31.084416529595718
  1152   3      24.800348128598987      7.6189366254551087      41.042574499024667
  1153   3      28.580417775940102      37.234925081633754      8.9243844093237641
  1154   3      46.747083013373626     0.92088735258127863      10.903840675116975
  1155   3      15.476327182843562      3.6417495052101385      29.682684910064772
  1156   3      31.569693680443361        41.4499020997931      3.9588121466634685
  1157   3      41.047924473805978    -0.31612541309578757        29.0224717264216
  1158   3      35.616933508041384      48.123314028347771      18.688053109754751
  1159   3      48.155318426632164      4.1602136247921564      18.189574003411966
  1160   3       10.82409560661219      1.8084056091024796      35.044470805582279
  1161   3      29.536807142971078      43.874766162272849      21.380684848815942
  1162   3      6.5346225917882874      13.155387889305199      8.1291141844325523
  1163   3       5.830592927352412      21.141015596991487      11.524224280723239
  1164   3      25.950676179882731      40.870705155184368      29.850367325708717
  1165   3      24.937525253157645        8.96488232448662      43.538592325514735
  1166   3      24.516121455330492      47.738017924843305      34.676082566355198
  1167   3      22.852453083147719      1.6016319260687755       24.24533351448175
  1168   3      7.6536350903311057      22.098926951766373      32.142356863369614
  1169   3      9.9323950025742889      10.814381270534616      21.849522179047948
  1170   3      44.543025635721008      37.051140948506479      47.576936387727599
  1171   3      26.284945924416881      45.177274295946546      26.470497278400082
  1172   3      46.043956550460543      36.329340060177259      15.467744749216441
  1173   3       1.838675128650489      45.193911246280969      27.317511371244272
  1174   3      47.471335982058115      40.162148747334228       9.591574692716641
  1175   3      44.383111961754999      25.089883091825364      31.113431860513664
  1176   3      24.161460347723526      26.775642225018306       22.59353797598283
  1177   3       8.193904940606707      4.7786397119349351      27.338980482017135
  1178   3      14.672011342045927      49.005728166910863      1.9165618351092393
  1179   3      45.299871313571415      33.750874570170645      35.718377504729602
  1180   3      39.298262123837354      17.066190710874565      10.619418327822119
  1181   3      41.843500617515353      21.031790323796713      47.881537953759477
  1182   3      9.2433787732027657      43.507036763544704      46.487486827189052
  1183   3      33.541142892970889      25.850739732008503      25.990296401133797
  1184   3      31.532663160904811      45.901280917503584      36.379288693659745
  1185   3      30.727493370381922       12.62091184225177       37.81312258391555
  1186   3      23.389590038283121       47.20192298331515      40.661162240159626
  1187   3      6.7017654635430954      19.251572872167802      6.8400621231756249
  1188   3      28.592646140417283      25.587142940008004      7.5034816378211406
  1189   3      15.599162953326569      9.7574313301853319      37.945482724201561
  1190   3      35.508939549374823      7.7222952116050356      26.545791496005855
  1191   3      17.173627274798978      11.088936323590559      28.151177041122409
  1192   3      22.950139846470925      49.062430772145504      13.690464825281694
  1193   3      21.227139423480075      15.649713182731448      39.069556846021108
  1194   3      34.779484456193231      36.675943591817699      1.3712623282381236
  1195   3       28.52116100919843      43.536761566329211      18.796476529284774
  1196   3      25.670733856117543      46.852766193448268      1.3857719797455255
  1197   3      27.587237317586339      45.704519346704643      20.667399872702394
  1198   3      31.896107197916663      30.644830036804372      19.271428415749568
  1199   3      46.354199800390418      46.971482002610273       25.05530744799422
  1200   3      27.511120617218488      46.162112775055647      17.356238672278742
  1201   3      13.679437670211991      30.177124352858808      33.096965144491683
  1202   3      26.341371055764572      20.889342423130408      40.798503318054685
  1203   3      31.940646342332141      51.284081664786839      48.326838732763349
  1204   3      35.683844526401295      46.183750949003596      49.320855688937826
  1205   3      43.871425107617426      1.1859976397065426      25.746513891872265
  1206   3      29.673441221719319      44.012627356090029      35.406211742779021
  1207   3      20.761236685647564      1.4529026889869474      40.120266342217938
  1208   3      17.751209551675412      27.877878492805323      44.495236367589797
  1209   3      28.396513453930979      45.694098361951099      23.368653315985828
  1210   3      33.807039074796563      18.535545745205326      33.607738100898061
  1211   3      23.158292201069713      27.776103641309618      20.311111797197039
  1212   3       2.899797354792256      42.356188370779165      34.406874070011774
  1213   3      28.893758411758466      12.913697787901818      39.964646073462688
  1214   3      47.146428520879752      35.078054990020362      27.379397949589869
  1215   3         25.870777998171      41.900927932084286      42.124226721685758
  1216   3     0.42812299739733878      42.502675326254014      30.416402587321908
  1217   3      5.1372690887073764      42.309677703874478      40.062038828751831
  1218   3      3.4811747288988433      21.548275841255258      9.7643280036418343
  1219   3      33.164026470230574      23.870253423616035      46.902946234068601
  1220   3      24.265135635887059      44.004150751664383      42.889885508009641
  1221   3      10.272404041517003      10.916642201482977        41.7479522186837
  1222   3       29.81037570405968      39.835219705017153      8.6273762344060803
  1223   3      40.408420197788558      32.489028657606625      21.805023160640108
  1224   3      1.8502016685626261      1.6123475408821015      11.061878647499906
  1225   3       10.21583411060988      35.413846696066358      39.490368896301987
  1226   3      2.0084833913079199      32.904848094402254      15.237309087417056
  1227   3      47.188041137747994      36.990073865853574      18.178789008115782
  1228   3      36.416716619960084      7.0103443444561551        48.6150130769295
  1229   3      12.031853369386829      4.6378501149835119      35.119803630880213
  1230   3      38.035701929202546      12.449868057693523      3.0750818035857685
  1231   3        3.11242406362895       33.49666113989457      12.721180056784766
  1232   3      10.941432563996338      17.799633241130497      24.624194371129096
  1233   3      16.844253568264808      12.922961808430365      33.259963768854924
  1234   3      44.879253721816809      25.619278197877517      10.809518061800231
  1235   3       22.44369308767401      18.114397053905602      38.586201186747594
  1236   3       37.28454941780651      37.420829714637662      29.710782717563461
  1237   3      35.303048737422145      33.820461516986448      37.807901918406472
  1238   3      12.283882826149714      1.9472059435847604      47.904336977628354
  1239   3      20.570470624596435      37.751257970636146      33.668942338393769
  1240   3      16.324982772769314      24.552354998611825      44.112091380160209
  1241   3      3.6741686227506647      7.8468714826986687      40.940998712482049
  1242   3      19.476754297158848      28.570532142432903      20.996362672835712
  1243   3      23.810936697928678      10.639814553087142       3.223176516633953
  1244   3      6.4879540270603986      35.727533527478975       37.95274039417879
  1245   3      41.970408452711467       17.91882537132269      10.257542665811007
  1246   3      43.862964617566995      40.033321087283298      36.463255787825055
  1247   3      46.628377211469889      46.673339125539343      12.648611326290965
  1248   3      20.816889243367616      48.060738422246246      41.951105702471779
  1249   3      24.878756622538376      46.242750496272116      16.398497908293525
  1250   3       19.76784822918539      2.3271255983283465      2.9251627048313122
  1251   3   -0.058494313282817734      42.448411854747498      21.012557958927211
  1252   3      29.365072919679861      22.302748647603877      5.9293016130781284
  1253   3      14.648550195848077     0.33167343808058236      48.060006743253652
  1254   3      35.528171168542549      47.020055218857941      16.151193075971822
  1255   3      11.690660207715606      24.270105679619558      20.173054322467515
  1256   3      2.6873999970134657       43.16769202622487      37.096434540847916
  1257   3      7.3755063137151504      34.596231375899706      40.090066612651732
  1258   3      15.270264348904783      10.289407033964755      40.822073660276168
  1259   3      20.640646868542408      22.292055081262351       14.94756840880034
  1260   3      39.747385913931424      8.2043121219129542      42.859296576579148
  1261   3      17.453628741980133      3.2088647471781164      1.7046867236788497
  1262   3      6.6279552428189605     0.75167364476120946      28.655880473229196
  1263   3       26.98536493607628      47.295313935730036      4.5102874924040446
  1264   3      45.154916333846728      2.8561598512897026      9.6681654591523802
  1265   3         25.967304498468      16.738646355238664      34.466134780046957
  1266   3      39.869005164187037      43.564814136980182      37.437388130638439
  1267   3      14.161762308706509      44.518740374768839      44.131780294357505
  1268   3     0.99382743425155795      35.086441434123287      2.5225408533980804
  1269   3      5.2536171627374211      2.8865196615225814      19.633138063335394
  1270   3      1.2843846888337136      13.420582632319976      23.671705490011036
  1271   3      10.856081024707814      9.0851253393404861      39.693947347668654
  1272   3      4.3188820883350587      30.286865729395398      48.486264203470689
  1273   3      11.935771472895601      46.761354335681972      15.494268192969136
  1274   3      40.175240569873921     0.75554784029445055      16.010433946166568
  1275   3       1.206815061055037      13.171026799521918      38.502116367163822
  1276   3      1.6748133254456352      6.5367817430887625      13.278278576020872
  1277   3      13.097593940670851       11.51005833163868      41.883644383430088
  1278   3      16.118635427589517      11.041121393949307      35.387319320687155
  1279   3      29.038586840543203      27.412604590884051      5.3392947642883888
  1280   3      46.307968543898404      11.389244752946908      4.7832567448766206
  1281   3      10.359315140205473      9.8975775907370913      44.426084988972967
  1282   3      39.575082551255264      27.256990406112976      7.6674478128798667
  1283   3      15.951285587165371      46.680394176218776      47.021714650504947
  1284   3      44.963937485915373       5.662172578419657      47.579638633277931
  1285   3      16.170372454884404      7.2932004917900279      10.113412088801581
  1286   3       41.38216897562998      41.543539262840504      36.701741834128178
  1287   3      5.0550752726286978      6.6828949291096107      44.426877155069093
  1288   3      17.216579626758364      34.719405890355596      1.8257263697065391
  1289   3      46.725878178730397      23.886012552509953      31.577818186409171
  1290   3      16.618585893697091      7.7394518118209854       40.28994504238954
  1291   3      22.124960204956633      6.1227554667176367      25.861858508619839
  1292   3      18.844332347733097      25.368578466912542       45.39485552873284
  1293   3      12.462833836536101       36.27908994102355      40.961441264859225
  1294   3      22.429521510221814      26.831182249122115      47.985703503693003
  1295   3      18.767569000515532      20.063193284310469       15.51397256828667
  1296   3      45.224493090519502       2.978101225727539      37.563360389617678
  1297   3      28.976148796023054      8.2907433490821418      26.048064744159518
  1298   3      2.0777974349141428      3.2580570769149397      8.0796225936267572
  1299   3      48.186774144034977       11.59951901780164      2.3212154000406287
  1300   3      36.391819796607251      24.236520074041589      28.409259331248592
  1301   3      41.620503417448234      25.177319535271135      36.403247146253321
  1302   3      12.998548924297763      25.869122763958405       17.96380139727108
  1303   3      2.6313622155707961      44.059564088179094      29.763446149704667
  1304   3      22.423340907034717      5.8624949754808497      19.656473101296623
  1305   3      16.539623685842002      30.332617539911503      27.742136529265519
  1306   3      24.907441946290273      41.565961063962334      35.772072577418825
  1307   3      43.096083870225115      1.4136857221414958      28.543249630142668
  1308   3      32.151928063660641      8.7073816139018234       1.885345731029352
  1309   3       38.81928821173544      19.609249292866977      11.820877842329175
  1310   3      42.195322495073782      23.504431905928328      31.426201659603482
  1311   3      32.870053202292041      42.620418217653842      2.1224118703495121
  1312   3      23.151406211085966      44.577084685011911      17.787798444408857
  1313   3      4.6692427122733431      17.002732616100314      30.964538740610156
  1314   3      23.541136074067744     0.35869681379008067      38.979473332720467
  1315   3      27.795689709918086      32.520676272709423      35.124341847840547
  1316   3      42.348914103643928       21.44164959627776      16.034676755810608
  1317   3      21.080211995159107      22.851010038182679      30.725458697551243
  1318   3      16.624872493007715     0.18232319540997732      45.666187512329991
  1319   3      45.096433001112842      25.066330551988752      23.625222010380249
  1320   3      25.451968376056218      38.985262809378632      34.926050449027557
  1321   3      12.975856587009551      31.998828551187604      45.836161507307864
  1322   3      16.342374842417438      17.303398866159995      28.810731388603749
  1323   3      46.235871238977261      35.595281000643929      0.7412955190049173
  1324   3      28.976619013864909      14.348083083828444      43.785196844662011
  1325   3      22.134205331030881      46.019007250450173       43.11056318674332
  1326   3      18.785022524408081      14.857993774215425       32.75007611426809
  1327   3      24.960929583738377      6.5450020275187271      44.943467667753104
  1328   3      16.097779773819408      34.548873668510076      4.1427858955767141
  1329   3      47.017735538218709      4.3229434880925384      8.2380656701209549
  1330   3      46.421083255412825      35.221372315583629      44.324327133468834
  1331   3      48.433803490875967      41.943924044543138      24.066854103246147
  1332   3      33.681345038481588      8.0692126950941514      40.553311345966577
  1333   3      47.610949107721709      38.007544182461395      43.697936505838406
  1334   3      14.654586064287784      11.365343336795025      26.541321776155776
  1335   3      36.406891072779608      25.224247198650431      25.990087098134367
  1336   3       15.98332693804911      29.645945715042512      20.613999178321833
  1337   3      21.832722774091902      40.163782740913938      33.138178025721857
  1338   3       18.14714662261699      23.741954254580772      47.449782268187654
  1339   3      14.240971689639721      29.012241015303221      15.921389289112183
  1340   3      2.1871162683520038       30.92137850903903      13.282459351289678
  1341   3      18.751362687299096      13.295420330829716      35.218710452723251
  1342   3      39.159978757237184       25.16350080594103      26.072194720160496
  1343   3      22.021726416744659      9.2137183166670749       15.04992224994019
  1344   3       1.951547119721299      36.759232256903836      27.518880047863487
  1345   3      24.596422234904431       11.82987837824931      13.567046639655139
  1346   3      18.125264586088729      4.5370538485615874      4.0013997965743524
  1347   3       21.47360043333174       39.74754566364831      4.3511366337920769
  1348   3      6.7704706420126106      27.846774688449482      7.0421573148124486
  1349   3      23.512310682167303      27.823133992501948      45.600244633617812
  1350   3      8.4494630039398047      2.5674454426399542      1.3270041917241264
  1351   3      5.4052485221956381      14.166865030226889       10.54477567800879
  1352   3      36.543616263416112      48.243099411273853      47.971447545990145
  1353   3      3.9815531100219315      34.476897332983938      37.846156941275751
  1354   3      3.5176662963981999      34.521719484863901      7.5099377301935846
  1355   3      39.544780258268439     0.55718056777932179      3.4804152416758427
  1356   3      18.854887792330036      13.979557118960303      39.135629545017693
  1357   3      13.068154954103592      32.096162584585201      43.198407483024361
  1358   3      30.930004233739258      16.403571396420102      34.369699201556642
  1359   3      13.238642528270621      39.311324694623529       28.64731208261253
  1360   3      32.599586092752503      42.084646858980911      44.214574030276047
  1361   3      38.476127553992043       46.91842654257065      16.244430727899712
  1362   3      20.458007456738169       13.30168352099585       37.29586757452951
  1363   3      46.752927342390493      23.460053346173993      11.737519056988482
  1364   3      45.907720655899944       46.23699997622321      9.9459736373856025
  1365   3      46.144436857594158      44.560056168702715      24.224141956331874
  1366   3      40.944317557667581      45.950772158346638      39.017287441494048
  1367   3      9.5217966891211692      3.4177720418038566      47.439972475650045
  1368   3      19.234919590470632      25.251929808166278      37.780135781906338
  1369   3       5.170444913692716      19.209965224367473      9.3403873175344252
  1370   3      3.4711583637183074      23.109889972584703      14.188527108444164
  1371   3      36.345535535384684      36.251489391648924       27.29091406455591
  1372   3       16.54729700123092       45.74016142413673      34.265754218330095
  1373   3      33.652298761814805      44.392799142245266       35.36040291198335
  1374   3      23.038078468237508      46.445610684938558      14.377368246251002
  1375   3      5.3402392307989768      42.126372634375855       37.25896169277285
  1376   3      3.7715041557982856      48.391788300052696      11.630168206050472
  1377   3      4.4083426796449192      6.1211036141522044      47.099845420960079
  1378   3      15.305957452008748      32.851202995235752      11.678340685552802
  1379   3      7.0937810843762028      1.1623352687942508      18.500606063935361
  1380   3      30.552545315987956      6.7497152106074711      17.281121441434319
  1381   3      31.614219329301626       41.48733734957284      28.526452809483107
  1382   3      1.3010331883494177      6.7254951369695828      39.928632107656632
  1383   3      4.2045018008539996      36.121811351503069      35.447036367020416
  1384   3      3.5936300709379188      33.264670516556741      9.9308248840300593
  1385   3      18.970803047944177      4.8933429885921838       39.20040310194485
  1386   3        41.7827295796668      38.738970603030765      4.7563851949816893
  1387   3      13.224800869211307      13.320870285116799      46.164764699452768
  1388   3      47.887067161585577      41.500706521011431      27.932831356768691
  1389   3      21.258650133606967       48.63741316568855      3.2303107838083833
  1390   3       8.497523151344728      19.588846658472846      44.748663311257928
  1391   3      33.529919070460828       39.55725394128244        14.3086634009983
  1392   3      14.317185627827936      25.981452351848194       20.30403683906432
  1393   3      19.681530986842798      21.638511064586297      47.128538195457558
  1394   3      36.804833066338396      6.3910567666984051      34.384305243290513
  1395   3   -0.043743672535946146      6.4288219448522188      42.435373585896379
  1396   3      22.521535214881442      48.396814718014092      10.979791149755448
  1397   3       25.60882870498866       7.345759010068905      1.6857124224161522
  1398   3        10.1601997061706      22.141519466903162      27.716025999410697
  1399   3      22.987333568254776      37.954591792078169      34.790130125876523
  1400   3      36.208290852983033      45.780469716225667      46.675544666917915
  1401   3      27.771448181609344      19.400077103562101       11.42348971878751
  1402   3       20.63599419220823      15.898458909607484      19.814906236925307
  1403   3      23.405454090599761      41.541621467830922      30.738520667091304
  1404   3      36.480386524486391      29.909854618126896      20.503552074986754
  1405   3      18.967810146154527      12.290248892586433      31.394245336456347
  1406   3      17.438816861265295     0.71346925603798983      2.8607176395853604
  1407   3      28.910604780625803      48.291291546062602      38.325064896637173
  1408   3      33.471569031801479      7.3835302319968443      3.9161106537159447
  1409   3      43.636497507957223      42.768044355801088      35.822910428701739
  1410   3      45.499252809173399      23.504866995666294      9.0578120421515997
  1411   3      21.944952917739911      43.853115894991575      20.145748107619934
  1412   3      1.6815461580543094      35.521812797400329       21.80967688481616
  1413   3      44.694918519909955       22.85650437584227      6.3947304626868435
  1414   3      42.244937302649767      45.172959036049484      32.929781488602679
  1415   3      16.490600094763057      11.006679557760055      31.321015494812308
  1416   3       29.32585011196014      45.016658726270073      26.191140816735786
  1417   3      4.3122021121041678      32.979453726452007      16.827433538269549
  1418   3      1.7533245711049954      32.300401153867369      7.7551952635507435
  1419   3      48.870010716961467      48.353565282238925       12.14420549111013
  1420   3      1.9206405576491175      23.035453556136794      11.346928836559435
  1421   3      46.232703417843069      11.532752745242519      8.5675276087124139
  1422   3      2.6721218630246746      34.276654011181499      18.934821191153354
  1423   3      11.501345631340742      46.474482026037236      24.224912428249684
  1424   3     0.24523339044328227      24.892215413583642       20.16642004549179
  1425   3      48.671092382403856      2.3027508857068382       9.431527993548162
  1426   3       6.211286787951698      10.272438024055727      7.0060835007016546
  1427   3      30.905281167920986      34.820886093791692      5.0800149516372706
  1428   3      28.628924068054101      39.966306400377789      30.439376813024666
  1429   3      6.7343797722477872      46.054985827104595      32.289300632308951
  1430   3      24.227639900523812      46.710739942724032      37.440017857517226
  1431   3      7.0953109084817596      48.583510241097443      9.6929677672056513
  1432   3      41.469429242865864      39.263978793840508      1.3378212462702015
  1433   3      42.314125255154714      43.248254358006172      38.293466186121087
  1434   3      42.015604860057763      24.874118525345018      28.865626186762359
  1435   3      38.485038491787286      22.202813908017724      28.978623934072743
  1436   3      42.267108793600258      11.619606892761524      36.310613124985736
  1437   3      10.003420404762844      31.907253794251918      36.888627841166915
  1438   3      11.476745803593719      12.585481586025663       43.92329944453418
  1439   3      3.5832035902075732       34.84115939105132       29.24338943719982
  1440   3      9.1024779848239561      23.535954239348143      19.916486237910309
  1441   3      43.417876505533194       4.219941804148065      28.338259436647075
  1442   3      34.429909207481053       8.686523272828909     0.62487200230069095
  1443   3      9.3699641752173228      11.042729611199004      24.679870444581972
  1444   3      6.4556048057751667      23.051043959380049      16.939887979499581
  1445   3      9.0475948403481699      47.550707003713377      33.004825319354332
  1446   3      4.8547802489064127      29.799559772516972      12.620854190376321
  1447   3       20.50935055839777      27.605168366430874      44.971473900059138
  1448   3      3.6115123933854849      6.4067335205227618      38.321161092387676
  1449   3       23.44306697794741      33.078253418029448      9.7954324082014121
  1450   3      50.277723679155038      27.609950079992441      38.739349140443281
  1451   3      20.435671273384155      18.537145893060682      21.273988267845663
  1452   3        18.0110613415623      28.980695219382703       18.34911567483638
  1453   3   -0.063751777598974962       8.913782884354795      43.757404887503824
  1454   3      41.012312062454598      25.670596404759369      31.733453468508134
  1455   3      25.152816708369173      15.280949163959844      12.964297307795274
  1456   3      38.899797832481461      26.541691863948028      4.9058621910414484
  1457   3      24.592288629174039      41.285821007448213      33.034514281541675
  1458   3       47.80221244289087      40.950119874700597      43.998834022610545
  1459   3      39.471213061105885      38.556679673280392      28.217541278473227
  1460   3      8.6586388952893891      33.982321851101439      37.856739098466683
  1461   3      35.511925264804482       13.36150593544593      3.7292862881471289
  1462   3     0.19299646878162929      45.843052719896264      24.381474762799616
  1463   3      17.912489199535607      43.710549841768362       11.13990364562282
  1464   3      20.047360096758464      44.140674817380621      9.3551607440178213
  1465   3      35.929784019470183      22.172902409444415      11.957981061024665
  1466   3      24.028481536306806      45.869765105277331      28.288567447670552
  1467   3      47.934060526870624      2.3606285083384644      38.526434491892729
  1468   3      4.6324998451875139     0.95829862834713653      21.777217189519607
  1469   3      46.866797804903065      17.583791324947722      23.118182342500162
  1470   3      13.420814735179723      44.277362341700503      15.236723029569777
  1471   3      31.849137558880283      1.8042665004018548      39.674027135582797
  1472   3      4.5609850134623438      29.209594690160973      8.0985956308767779
  1473   3      29.418597341022942      7.8518787841923476      2.7877402774533038
  1474   3      7.8915938138753736      48.043398826485443      30.476785006318835
  1475   3      47.813834304827488       43.58087662027657      26.132376392471386
  1476   3      42.080118010953058      47.002807675476575      30.773871427203751
  1477   3      22.444635392955483      45.086339771341926      8.0802239810094694
  1478   3      48.345579878223113      4.5664108089230186      40.320137024401163
  1479   3        26.6136074574204      17.510060844065368      13.395656516397231
  1480   3      17.108996486770767      32.206925979022841      3.1574449859529858
  1481   3       29.11468361941774      2.9105727451017689       47.24781593881746
  1482   3      14.778081724748342      42.516604705038191      13.607202594693238
  1483   3      8.2808144617295021      8.1254219208752279       43.72509604535518
  1484   3      25.756503562121598      44.401935917418015      19.022912391188949
  1485   3      2.3562299226972794       45.13741100785618      32.443756823392242
  1486   3      30.682617708562461      28.674294755358684      25.591612481585585
  1487   3      14.513733056033825      28.072634908779662      18.818753502513417
  1488   3      22.354956401527485      25.339549966984471      1.3475728196883405
  1489   3      37.130180610250264      47.381980068075741      14.091603376784276
  1490   3      48.376737264444763     0.53011074636666133      40.408231986211952
  1491   3      31.751327596843964      40.258572615350069      10.813155448717284
  1492   3      17.685047617872712      11.921966082954231      37.565586943442234
  1493   3       38.06601041249327      47.813359026627396      1.3707764041744799
  1494   3      30.062372505262985      4.5902061245034664      19.242748114062369
  1495   3      34.198322402554354      19.177613531060405      5.2946855817427174
  1496   3      19.139589133312175      1.1631753367017594      19.355418814662652
  1497   3      47.590590990001758      36.368605974054979      21.231489005132659
  1498   3      48.055216506996253      8.5847906470195419      41.112321465648584
  1499   3       48.41687766961077      45.807444651203433      15.016699887310239
  1500   3      26.038684190278072       45.42836795281751       35.25243472814546
  1501   3      24.727458205025016      6.7931966617357666      47.947861951424237
  1502   3        12.0961905647841      39.225350272672507      40.715954676873771
  1503   3      14.761998375878726      26.591164326267993      16.082159524662494
  1504   3      27.484750653293823      20.385041259911606      27.170965656923446
  1505   3       18.07248361188611      22.485482829620025      45.047294770176492
  1506   3      34.864235086571512      25.882205945805307      48.123811974095538
  1507   3       42.92561158558275     0.82035956360349294      16.243191315861004
  1508   3      18.799433273492092      37.168587641108076      3.1769567166148076
  1509   3      24.844883485884431      26.051497846953847     0.20141820663975524
  1510   3      2.0779372954066924      45.087370997212538      35.135144097588622
  1511   3      45.299635121887817      46.406611633682189       3.998818531166501
  1512   3      4.0309118026394959      1.5922258492176444      9.3217305497211136
  1513   3      36.622250452369009      44.569937754148107      23.618650644234076
  1514   3      17.905635499405456      36.990983207837417      33.563637126305437
  1515   3      10.904258504373082      2.1118103815232105       37.80670553312121
  1516   3      15.165895742281146      26.490504088468057      42.199888669541764
  1517   3      5.5951206241327309      32.524303494733168      11.763926873425712
  1518   3      5.1638282205264749      28.551595426820256      23.635209078087197
  1519   3      2.4710667892524318      7.5090101040148793      43.363503782277277
  1520   3      26.322268917408017      26.486552526148426        5.22722658689728
  1521   3       6.220922296463395      7.6932036983032832      41.984259475180721
  1522   3      27.831695227245277      21.867395493701192      8.3416295645653147
  1523   3      38.927138116714438      35.062942546751025     0.28332947056285507
  1524   3      9.8588374759276363      27.159360790633226     0.49239020670067396
  1525   3      21.325809600221998      13.938402571905396      21.805392161513019
  1526   3    -0.32007340299289727      34.060877541717936      20.630996616813913
  1527   3       44.02274051142858      47.970019445530788      23.353009065403757
  1528   3      16.945921035235518      1.3686009651976343      48.421324270402124
  1529   3      6.3408143491382658      32.821870681352692      37.892708906664552
  1530   3     0.81512209658077783      36.313070161222164       19.33021581808028
  1531   3      12.156415141152959      11.493336100064315       25.05234278982692
  1532   3      14.785644146000447      2.6836003400823079     0.45184431935108288
  1533   3      12.027142725688735      16.342592679349387      16.573764516085046
  1534   3      2.8695803112014593      34.819364147228988      4.6010091167759644
  1535   3      5.2836579241975867      41.017811517507972      34.394516142788135
  1536   3      19.606998080094339      26.792151906483703      47.664164961167621
  1537   3      12.132753692832061      8.8991427932343914      42.325392633322508
  1538   3       36.29990712706487      1.7297303090938132       11.12448193997529
  1539   3      25.643455583620646      48.632911871833493      15.057393142310797
  1540   3       20.95464901675134      24.236731557918912      47.776127505703464
  1541   3      19.414403763996699      24.715516796031434     0.95251566553674483
  1542   3      9.0403269932558405      23.372387205885126       30.16627415794617
  1543   3      21.344967211894179      3.0807099132230777      22.255054989424345
  1544   3      18.525985888447241      47.858732862547626      43.740708610325221
  1545   3      35.497919635876116      4.9998025513076501      26.218925345502811
  1546   3      13.936937959019742      47.117893350462197      23.031640309505658
  1547   3      16.992309071524499      27.364812581838422      20.227814555536568
  1548   3      45.042082868607629      37.657890041912012      44.869228770266254
  1549   3      11.777028000081229      33.594241554310344      38.200187628025233
  1550   3       11.31708101652584       36.98707816435676      47.450870796771923
  1551   3      40.737616555169318       12.54607590332243      2.5997421103879885
  1552   3      16.013222697695127      35.565113044957627      11.314894130734659
  1553   3      36.811032115087158      14.625110905081824      39.931493791788654
  1554   3      39.003791965619065      24.881025428182767      28.729584478619945
  1555   3      36.128457556515272      12.658227457276816     0.69791501693974323
  1556   3      33.725549550200938      16.338528446016522      5.6710038035215975
  1557   3       34.45722055537717      42.980073386243227       26.36409131044681
  1558   3      21.712733988138144      27.946276235505902      22.747369587940124
  1559   3      30.812930839557939      27.858644312324717      16.567894486589285
  1560   3       44.60027114711027      37.241117068325913      35.773657931150368
  1561   3       46.98906094548726      36.471227239399838      41.629316437854861
  1562   3      9.0663178422365895      27.698196902486842      16.570888223879503
  1563   3      15.274506228128262      28.431848022933483      25.404892902742283
  1564   3      26.149461819986485      28.102003061853985      41.887960131131777
  1565   3      35.947644267285938      7.5817189793112316      2.8343245421114505
  1566   3      18.584365932664088      2.8191062373003182      40.876840810398427
  1567   3      10.129636181116702      7.2736793627015377       41.44636203192055
  1568   3      1.5070504003989611      9.0146347583107609        26.5120527334056
  1569   3      47.882163519706339      6.5643192572147608      45.014372355558358
  1570   3      36.947236435187804      27.411379568547041   0.0030167054064185886
  1571   3      34.059273663763484      48.791818348591562      21.135324478698067
  1572   3      24.371296366012476      42.767361903324336      28.491860138831612
  1573   3      21.048822551449543      47.075763043437249      12.573626389273192
  1574   3      10.683633510472678       42.30119692609906      34.954810912052878
  1575   3      26.591795284896218      39.671580439078667      32.638534535975687
  1576   3      16.412804306287676      11.004765580110062      44.646402882184738
  1577   3      11.835012817456263      33.676065349572987      41.193912144981773
  1578   3      32.448747016580114      35.797610183953921       2.950649291197633
  1579   3      6.1107938042417098      25.050862809410855      30.791306557334725
  1580   3      28.647102705068175      46.288776251126997      36.429846501306798
  1581   3       28.54912168595078      19.352242661170735      41.879722578206362
  1582   3      14.718761109578923      25.829365304595932      2.2728106688054228
  1583   3       15.20628774034587        18.7346529988328      15.892871792450507
  1584   3      43.971233470337943      32.144714898093518      7.6362368486993892
  1585   3      22.389421648222257      40.608308671253326      35.759848099499251
  1586   3      40.542771614615496      5.9909881668527927       33.00087275449976
  1587   3      18.325896176509328      17.277392410696535      30.701743617881437
  1588   3      41.635263872972473      47.553945724804983      3.1812856648500718
  1589   3      3.1932703168067844      33.663938452474611      1.4295958710615191
  1590   3      29.106711282550148      2.1717635188978401      39.516164508836837
  1591   3      15.449242305187882      27.494403457173668      22.596117400937629
  1592   3      40.484962138904109      22.974795393361944      27.317196601472677
  1593   3      20.966524023644464      3.4692322412147676      19.597068336564234
  1594   3      32.723495215194696      28.022769494414401       27.50558540298093
  1595   3      23.926817729019536      44.154167684932311      36.183840360334244
  1596   3      20.624132341910734      3.0999883484713071      25.121734679471491
  1597   3      45.943360251175172      21.052780905303131      2.9488394514916716
  1598   3      44.620640064257437      48.210279162962337      11.813464647446663
  1599   3      27.644288358325863      47.328146027413936      25.440409854143617
  1600   3      13.429446292263679      5.2594687925858574       32.56887475971908
  1601   3      43.204833277295712      3.1982744366993563      41.637161683806163
  1602   3      46.421820334753853     0.30236948131456393      38.389711683143858
  1603   3      15.683261676729524      46.828295096791209      44.344706122328184
  1604   3      35.046677061717538      26.585199142847419      28.128789366994528
  1605   3      36.575935042654478      46.567316155947267       21.68973278949052
  1606   3      29.531173758392605      40.090477116231597       15.55512913758203
  1607   3      11.422055850812695      24.456425429026055      29.033863549448146
  1608   3      31.710751302797739       2.311152237465123      3.2010891499491074
  1609   3      17.104025094025388      4.9048985012386197      41.080584636867741
  1610   3      16.538068961680082      31.110565726521621      30.476382094099456
  1611   3      36.395559162279618       10.16330807229515       2.103976153386363
  1612   3       19.61371142727759      9.4384799977699689      16.382742609034761
  1613   3      36.241685654635454      22.954343558415438      30.913953805343699
  1614   3      47.805892379621625      2.9036885617976766      35.917527750061161
  1615   3      24.869578347698607      47.982203551843817      12.508769474877008
  1616   3      20.548824205061834      46.849574794937908      9.5474116253204873
  1617   3      3.2893151351286631      20.900866221221587      12.430190134324059
  1618   3      8.7221243969926583      19.331625922313432      23.103189690844161
  1619   3      39.509549312983559      20.410567308868295      26.946046663198832
  1620   3      34.447525491327866      12.949415874754793      38.983158043909086
  1621   3      42.984068511618162      39.409046769216829      47.643836893761168
  1622   3      35.271113870241528      21.003394467431363      33.069484021293633
  1623   3      26.377622961885709      1.0377581298286915      26.032509743345521
  1624   3       40.53615107165232      3.2825868538545273      41.343159539843754
  1625   3      9.2619276142658311      17.190843590869761      3.0926811296665795
  1626   3      8.4009052827506121       9.098645527973396      41.091043319742482
  1627   3      45.742040662164577       5.437589687310906      16.970211641489929
  1628   3      28.337934958404876      16.090160696871166      33.106549559604566
  1629   3      7.8193663316503672      12.559324113694331      20.893959237860525
  1630   3      47.902740107071068      6.0049631403284245      47.766637783665317
  1631   3       24.81584688697745       9.850849075361527      15.072009814212675
  1632   3      8.3479165734226672      41.755567521752234      36.372813584904996
  1633   3      26.300200214851976      4.3197477418920087      47.746726690163044
  1634   3      9.0400106723411628      21.355679908301415      6.6275847961547809
  1635   3        3.25459018580985       4.766786051801744      18.809601554894318
  1636   3      44.188855370580612      10.602431898020846      6.7872000608559819
  1637   3        20.5692615880807      41.739707654977742       21.43623880840509
  1638   3      29.415439673041639      41.756439067904147      10.549514754877723
  1639   3      17.165894640205941      28.548402484817011      15.751912206453445
  1640   3      6.2033579727234676      30.196797430046583      10.257155396337206
  1641   3      7.5575263923894092      37.668049874265336      33.821652796676155
  1642   3      8.1277375888638375      19.503127841590612       4.471869671831767
  1643   3      39.446430863577461      46.963294024981472      30.871385857157311
  1644   3      39.891836412824809      24.685264310091384      33.964107059858883
  1645   3      15.307066033940123      31.044860122628155      44.558921160683589
  1646   3      18.830167705890254      20.782704137966608      21.821336571172552
  1647   3      42.073086017792448      4.7670701217289126      30.916148321576468
  1648   3       43.03620556311175      23.920207178742245      9.9630454540607989
  1649   3      10.660297577792942       31.92894172480284      44.640621967613562
  1650   3     -1.3546306666698396      8.1761542760965256      31.841717492461669
  1651   3      4.5864508548822567      45.291055577949912      34.019240651327692
  1652   3      16.528733721569662       9.701617636724583      25.537493480558823
  1653   3      34.122600914679161      11.155020733362456      48.516119711806063
  1654   3      24.789907045431136      34.881749988920092        28.5799490779834
  1655   3      2.8698724150456902      42.227993981250769      31.829144564973646
  1656   3      16.592310995179748      47.449667884586553     0.58765125527341433
  1657   3      6.9796376516575709      12.004216107411883      10.551528828423494
  1658   3      11.420348424020766      37.504561105906014      2.6413395191683238
  1659   3      14.927943078181205      44.056932153390363      47.037932633863335
  1660   3      10.681584646776415      47.529860955677577      35.379467599699545
  1661   3   0.0046257542914190106      15.992570285491423      24.221603239064752
  1662   3      28.924102012060747      38.808036471774251      43.723567885708206
  1663   3      2.5692752385456386      19.176078265741943      10.466138373781874
  1664   3      6.1389190321962754      22.610411503228153      14.031799168033059
  1665   3       19.47939111638259      33.836426831591503      0.5216433090750181
  1666   3      22.827430934983099      8.0291676419810809      2.5377029369573529
  1667   3       7.021900199089834       4.752926692507816      47.054341445193813
  1668   3      23.624156287675316      28.666844212433563      42.883183719369981
  1669   3      14.002374960308559      27.448204167733788      13.380846557769614
  1670   3      21.137076542426446      19.628211881904392       6.356106124440684
  1671   3      34.847417587609364       10.91299306469117       24.24476551341624
  1672   3      21.605824464271464      7.8386740373626296       17.46239674322608
  1673   3       34.48511271740724      31.794529518219978      19.772992920532587
  1674   3      11.830049437060179      28.190009806942118      17.318834271510529
  1675   3      35.539814746751922      38.723613804672624      17.533464303238581
  1676   3      24.249126650494908      26.597837216850227      3.0497958838736179
  1677   3      15.153165729482426       30.00657459782499      40.215441663940119
  1678   3      27.696148446758581      39.659876930421262      10.474111530610891
  1679   3      31.591336697754006      47.932638712748314      38.572388587731687
  1680   3      27.862312220137557      40.951129759767355      13.075133652010951
  1681   3      10.591207871401288      11.459434353637963      27.196690873353198
  1682   3      12.102522708240981      30.547280019175897      35.758386394845338
  1683   3      37.380082265918162     0.52838424048721899      16.344408375789524
  1684   3       45.18154313535608       23.07967960635774      46.486170354268587
  1685   3      15.175991535290347      12.985039744059224      48.349960471060442
  1686   3      32.756496767139787      24.212267601558271      41.582220059229947
  1687   3      23.993664942417954      44.737551108086748     0.56653110853638033
  1688   3     0.79035689513313656      21.111381933429865      9.4358036377438204
  1689   3      29.274392277265999      20.060701547332947      9.2360019302866316
  1690   3      39.913337921857213     0.77584917372461182      40.066625336059346
  1691   3      39.096513829030599      23.428140043869913      31.323946637727964
  1692   3      34.931993562565857      43.296701956602405     0.52134884942854587
  1693   3      37.230968935650907      15.581372628118078      12.067557280364369
  1694   3      28.382528698353308      24.738861235498472      4.3169297383461886
  1695   3      5.9008940093692104       16.06761852153511       8.314550806235987
  1696   3      38.910744157076714      20.858203288677814      47.597187527451815
  1697   3      36.278637366991134      6.3604306359556739       17.04423986342675
  1698   3      13.563719809598467      8.2555616269028782      39.858609142643736
  1699   3      38.450810745830232      31.635928412232264      19.688665633708595
  1700   3      49.215071631699523      44.114463542612455      17.384498731665332
  1701   3      34.843924461431257      31.311138462391028      36.466367537855078
  1702   3      15.856404848670227      12.971888100757225      41.934352889022612
  1703   3      7.5785776299939442      3.1816380834960838      29.563958092715183
  1704   3      24.321925176427843      19.953386479534839      38.301047004229375
  1705   3      17.128764588421575      1.4339060788286782      42.964673230567264
  1706   3      6.6552555233040165      43.291003281360453      35.018729502307373
  1707   3      26.830108065744692      28.120966859104303      3.3408420112238764
  1708   3      18.404005977484807      10.983805551339122       33.69447320580953
  1709   3      31.428279985521574      39.513009584179002      38.330041164424877
  1710   3      28.091765411773384      24.923037711935695      34.523532377823962
  1711   3      14.107517615047009      8.9235154251601863      19.445291493237708
  1712   3      26.242647026181686      48.302063687172122      39.385314100788278
  1713   3      15.884821276641183      29.401922737595612      13.523797508105336
  1714   3      15.387023104224665      12.321886810855535       39.01663776922237
  1715   3    -0.85492261050953378      31.632096006428061      43.699795981986462
  1716   3       15.94256066271217      28.969739780103364      42.824663063473466
  1717   1      24.847505390917206      40.221752938640172      26.709440668270172
  1718   1      44.111117693048485        16.9432601276269      41.726928592631992
  1719   1      13.492231383851662      42.317756430762827       20.29360739962739
  1720   1      7.5862578813197956      25.738696216143012      3.3136089251367054
  1721   1      47.010670698071095      27.678915412132095    -0.35551912825777365
  1722   1      39.563564476071747       25.29900113511486      20.124455739911912
  1723   1      2.5749129457194639      27.871738751829007      47.070210467876258
  1724   1      24.407716275364724      9.1670969005717744      18.441789311795084
  1725   1      6.0072247685501345      1.6649336107412405      31.627179128161814
  1726   1      40.549544297544884      29.148125253582659      38.497411380715604
  1727   1      7.1072515460951147      36.925111843322156      43.434897425172387
  1728   1      8.6473088679456183      15.078784615499314      40.851936114797439
  1729   1      29.353777466193076      13.041050465269644      4.5121931288257358
  1730   1      2.1117182948883308      48.170896866508137      29.180061919674507
  1731   1      44.242570377171113       25.71892181207102       7.610200364073771
  1732   1      7.6071191187913154      6.6320715391139879      29.477809336735547
  1733   1    -0.95489262957247545      37.247715887040926      38.650384454082896
  1734   1       15.39112437760817      8.6838394199379039      46.822127194605521
  1735   1       42.70523888236557      31.821822035844992      20.005102851868553
  1736   1      50.714253428118468      6.4184983689579518      25.129918685654811
  1737   1      40.721876249374731      15.029356903656049     0.51288627075768001
  1738   1      28.075446343984236      39.388052026980624      6.3228529194887955
  1739   1      38.269734240469155      21.799188933082579      13.976527630469979
  1740   1      30.162351672769098      47.845051905975829       27.72340776556814
  1741   1      22.706743992712518      16.065046712295171      27.705151353823599
  1742   1      39.897008780063707      41.154495319312353        33.8932245115992
  1743   1      26.562673673483133      27.728690295401968      47.163540580450963
  1744   1      13.137419005722276      39.747004796794158      4.8578503061871778
  1745   1       3.577591527370942      40.354807173749904       47.82383092038711
  1746   1      40.317860876686787      33.888270939335349       30.96982509147707
  1747   1      19.317661426691309      6.1524704817000266      16.315522062299987
  1748   1      2.7993619844537858      7.3894344251962707      1.3354699819256131
  1749   1      11.423082153548851      24.932351377300265      2.1061387754509986
  1750   1      4.9195251914064997      11.688349656297634      12.587672129284435
  1751   1      2.4084212568337264      35.665438502470344      10.578027041677814
  1752   1      28.471554066343817      3.4607038201694071      21.758755002618923
  1753   1     0.33109697159544887       45.58858668897323      30.285817933825591
  1754   1      45.720010759954612      16.272312967570681      25.520678618821265
  1755   1      16.216335797095738      47.241598251531798      41.628751867955884
  1756   1      19.619014316813772       42.43389227993589      18.589726496118022
  1757   1      41.442326577648437       17.95588787469983      43.246245829078568
  1758   1      18.906715818613637        2.30814855288369      16.138070078284308
  1759   1      4.5278085783044206      7.9983930920857027      26.760991589848686
  1760   1      21.646138131717656      27.972699679244435      26.025298444390781
  1761   1      5.3904006653476095      21.704906558608009      24.392798840588103
  1762   1      44.735655748092256      38.297221955700493      5.3761501296454934
  1763   1      36.537046322347273      46.588223918935185      7.4522975581261344
  1764   1      15.608537335925238      25.658978375224219      29.016439709357371
  1765   1      28.460319159065673      19.621305882083774      6.0821154923582315
  1766   1       35.65990717247854      42.037921049050546      42.542329312138065
  1767   1      44.807169858691537      38.468211986861377      17.552093355069719
  1768   1      40.055069206457794      23.910127501374692      4.1867776455618078
  1769   1      37.303536644712793      36.898407200919038      46.780293331736807
  1770   1      44.460469039849563      18.312003985727376      21.602641893459086
  1771   1      30.622929397328942      19.046844900883826      12.901643592541804
  1772   1      10.296282670121373      31.143225636351129       41.77616106842828
  1773   1      2.1913029262355157       13.97391788358059      12.902947249972089
  1774   1      41.934010275143137      30.930562929939722      4.0139924775775375
  1775   1       45.07853291766493      35.957007300343456      29.912578055783282
  1776   1      34.150509271478853      39.813933373572688      3.0157319941775294
  1777   1      2.3910190088725267       33.43153727561436      35.392512716295855
  1778   1      36.925027367303443      44.666559690579021      26.795438475188611
  1779   1      20.799121352606516       15.46354253732779       30.72259819723331
  1780   1       1.296060213733168      8.1968459737252743      46.190175381441236
  1781   1      39.557490792705472      26.576440125440399      23.344700506046685
  1782   1       41.27026312620864      39.986499991687531       42.45959095288535
  1783   1      34.748059392043416      22.515805246026677      39.666001872388783
  1784   1      9.2378299391779031     0.55793718943130377      14.765895136368204
  1785   1      41.405185757006791      11.765929358709196        5.74687457525624
  1786   1      18.712504313657664      1.9519123658791919      37.867841270607983
  1787   1      7.9803769977572365      37.594147865123539      7.8620111871457592
  1788   1     0.08705363271411308      11.825044292692844      43.879237601900641
  1789   1      21.897547919544998      2.5695924073333472      5.0252350422439713
  1790   1      32.634040746829008      19.625194898305725      25.986589004506151
  1791   1       4.127301426739284      11.933749366781795      8.9891756832121992
  1792   1      40.385359993372965      34.273374131677002      3.1262421233480291
  1793   1      29.434198886087874       6.806104318020787      9.8545567342292735
  1794   1      42.148663094187576      42.561501559062577      47.163782197486263
  1795   1      9.2600260064394746      27.982026575443015      5.2727551165775557
  1796   1      6.9433070904943319      50.117679054264975      42.596599838823728
  1797   1      13.122708515105353      18.660871374924564      22.459026152592795
  1798   1      13.678128651862567      23.440129696431438      41.275449731487043
  1799   1      21.046641382044086      46.058835924303693      1.1046386079021504
  1800   1      22.353620159701194      11.928385538003374      15.682313573202318
  1801   1       26.11897286973301      44.613869138217609      6.0341653395477115
  1802   1      44.020630344205088      43.004479988817089      16.929597575781088
  1803   1      40.404873415117571      18.302185364607244     -1.8638255656368357
  1804   1      6.7063760387390898      34.494116537607709      6.1392805150063285
  1805   1       8.528237637767436      5.7341476056509064     0.82656682081955657
  1806   1      7.9578313822155007       25.24122500982746      6.6762285007169089
  1807   1      24.168787363042824      28.276264960059507      12.792379570767991
  1808   1      26.932981468657665      16.330689117194257     -1.8259960642943227
  1809   1      15.966724512889453      5.7496453841427417      38.151450331505615
  1810   1      39.085035571857198      16.548448987442619      39.921415086419032
  1811   1      43.286264179573855      15.577427929290616      16.393591159389313
  1812   1      35.770411429885435      29.218616034403478       11.31846898559145
  1813   1      39.618687453092434      28.961310420536471      47.540528256056099
  1814   1      20.873535278113646      22.113521416490915      44.170983052500681
  1815   1       1.857334287361601      22.405053034597454      7.0583902139163994
  1816   1      23.865028486874728      41.418804613943031      44.559939637716639
  1817   1      11.134082893096133      18.390035451306634      4.7797050773662235
  1818   1       43.31657844627032      40.675603644404823      23.225883065405132
  1819   1      12.385922467199141        12.6068366027023      7.0809389577837578
  1820   1      28.161381802274168      4.7140955128246329      35.116205111991349
  1821   1      1.9571399155592508      2.7818206792871951      39.642423688684509
  1822   1      8.5563613881501812      22.823333701507757      22.872879784398123
  1823   1       14.71257934850793      39.249475127261832      11.814948336485219
  1824   1      43.897969722719587      12.582084909961869      14.375229979019903
  1825   1      34.274317550071387      45.836811531321466      20.068204111181206
  1826   1       6.808078388205165      21.157950345044807      46.710250834159851
  1827   1      37.879101012180286      10.549205685197116      15.496693515859818
  1828   1      33.818773314956587      30.339974809263545      33.800565256140693
  1829   1      21.424955575206194     -0.3126761192898217      44.976430229543702
  1830   1      14.230712999824032      32.539161183903076      2.5377538943024858
  1831   1      25.289839485957536      47.040088686977839      31.861901555672816
  1832   1      43.666206252014298       19.85076664627827      34.959914559484574
  1833   1      17.018224092760654      21.871759912241949      36.097679076303443
  1834   1      40.407063151973901      11.095886452245409      41.591192692746155
  1835   1      27.008828950057719      30.875082653400938      41.111534715373061
  1836   1      14.649043928094141       14.50161874701042      3.7448338047370151
  1837   1      17.912666877257138      28.084250020691314      36.127095486994996
  1838   1      34.292577306872502      42.907662084861634       23.38905351996079
  1839   1      38.948836399653501      18.476939542499331      32.619801231144145
  1840   1      40.933110908218438      30.797297906366182      45.125318996021079
  1841   1      26.472553110214104      19.000729971490362      18.356899064672561
  1842   1       27.83943637890545      18.569015237005157     -3.7820787576072359
  1843   1       29.06651900561334      17.619912335790943      26.460019462208894
  1844   1      13.211308779244241      8.1277645100024394      11.241307742436399
  1845   1      2.1005803160948866        20.9478966529107   -0.069310330856888286
  1846   1      39.533330930166507        31.8402731450958      28.195808979588527
  1847   1      6.4445429199040634      32.353346903847694      43.967347619389599
  1848   1      44.376826534405488       28.97140713949419      13.536050406962232
  1849   1      30.380752810666532     -3.3299348410725123      11.894423367123776
  1850   1      4.2591240766322063      7.8309882088769056      23.459043512525486
  1851   1      29.013514429023086      24.424295645308458       14.56512621420419
  1852   1      37.228917509896291      19.077915030089141     -3.8379079119861905
  1853   1      36.449186384764182      39.355993261384739      27.672694616619253
  1854   1      2.2217661917604188      29.290882092841461       10.93425251149074
  1855   1      11.503894920463948      24.668597924247997      6.9447250126923299
  1856   1      15.082122106234282      42.314942296078875      42.084301036353274
  1857   1      28.353238892768044      1.9469935010622315      4.0280113029911666
  1858   1      35.298843277457038      29.567024723483563      1.7173690685851766
  1859   1      35.479581742733387      21.523277655225172      46.919423197990632
  1860   1      6.2310595121757775       14.86833246407677      32.386711764033507
  1861   1      9.3507670177842623      22.679705311910432      45.000138210464932
  1862   1       49.64619888355795      16.255714339971103      18.787281627920891
  1863   1      25.984523687124227      15.845065607056453      2.7275204319558259
  1864   1      29.473213878695585      27.173390499515769      2.2728103286886769
  1865   1      4.9682849107399294      42.437400948419842      43.160470353766719
  1866   1      20.101709949918785      20.151901511819243      12.675958698227689
  1867   1      25.997803321768867      29.706822337324809      5.7217571880263467
  1868   1      21.415495226378408      35.117327134583071      31.721164955105067
  1869   1      46.615195773700222       8.843207753138504       3.015764988209102
  1870   1      5.7983310887720823      29.271728191412905      41.541718653006832
  1871   1      40.193956564256524      8.6176604556569085       8.519150207212574
  1872   1      29.004207516302838      25.703675297838426      17.807477123553202
  1873   1      47.610269650487155      20.035853338729197      11.126069967326108
  1874   1       13.67410952624175      31.970432773751714      18.437585498263523
  1875   1      18.031838037569393      25.855235838059439      10.043147870205354
  1876   1      40.874050927631252      21.818748785224326       33.45736112999122
  1877   1      24.739116636653289      19.088468044960596     -2.1105919470163452
  1878   1      1.2793861479286754      9.0460695156465771      38.076278967200153
  1879   1      24.437498911295542      16.573645973861986       31.46585779061288
  1880   1      48.323305856483074       35.44126051584383      30.249924419966366
  1881   1      30.341926730941413      33.167794595233254      20.107273380286109
  1882   1      14.044524492653734      4.4841231906960797      12.394355710702001
  1883   1      9.3913090799387096      17.601200311610238      17.412164299303523
  1884   1      45.865104340188701      17.260741997905097      31.889033221047505
  1885   1      13.390190232613289      45.190408434347582      41.246313660617382
  1886   1      22.949775052099987      19.199907021935875       3.721297998064256
  1887   1       42.57017970127675       22.47187803039672      19.167548561928925
  1888   1      24.885448952183047      4.8170860611612643      42.301738494389085
  1889   1       32.68490868281777       12.59570434275769      9.7041727506505477
  1890   1      22.036448094925294      38.663554662762564      7.8278701362873289
  1891   1      34.191327433175566      47.427258466839838      32.102157229317719
  1892   1      29.614328272648141      42.883875800208372      30.485950568990113
  1893   1      23.349701612604658      27.690707777946187      5.8257423152584771
  1894   1      42.760250458915223      7.8237901446535734   -0.038924797193816807
  1895   1      38.216156814449015      -1.996490466993192      39.901371636956846
  1896   1      22.991734570204677      13.603686329654558       48.16474326630199
  1897   1      7.1085100342960121      7.3159925105301795       32.94111347514859
  1898   1      29.327094226730086      23.017448474496351      29.911858479435296
  1899   1      48.818472335721147      5.0380434811950741      3.3703242445699888
  1900   1      40.375601552515505      47.482827590434859      33.612421338405902
  1901   1      23.384068508812557      41.744678958644172      38.491556274960509
  1902   1      2.2265613132394191      17.872300780684643       14.54233338422387
  1903   1      16.565340536566172      4.3733315049708947      32.627477242042978
  1904   1      23.499800003912462      5.3952291317936147      22.407532395107363
  1905   1      39.545946230356478      6.9099580146525437      35.659548986043241
  1906   1       13.71183717001626      36.138769777178894      9.2315352369328814
  1907   1      3.2292368217446499      25.350442337488801      19.391158570390818
  1908   1      42.868778256131606      10.018679169896823      27.349373436284477
  1909   1       2.119777997099443      31.362453590194729      44.723952509404896
  1910   1       2.530669101791561      22.094717231174648      41.944347935536918
  1911   1      37.875488930971834      25.492896653692231      2.1562461157590147
  1912   1      18.839086638785641      4.0191888175389741      47.886178771386611
  1913   1      1.3422030562904879       5.043218554729771      35.797363787206017
  1914   1       10.30722774279624      5.3832637108787891      32.572993973151874
  1915   1      46.745486469191505      18.431078926580696     0.60761412366817658
  1916   1      40.266083980770063      34.061407675299172       19.26124343315529
  1917   1       31.15867095752596      10.142527100999084      11.247923681310558
  1918   1        37.0343152167789      1.3118004239507937        5.36227086436765
  1919   1      7.6485328455461845      25.949213457772835      37.047649820666862
  1920   1      25.925820232881119    0.013617055077638843       18.20009254161404
  1921   1      47.495309103722228      9.4005716220188447      10.776373455535673
  1922   1      35.237521289992628       42.93457232040258      46.242264611680035
  1923   1      4.0589070174398136      14.227423667575778      6.3925952743640666
  1924   1      35.527338900257675      4.0135748603585952      14.647262792900614
  1925   1      21.936686546402711      36.552190303099266      27.949863025709828
  1926   1      15.763357088382538      19.091733946155081      8.6727793474461237
  1927   1      39.729048442614825      9.8756618866212076      28.692082582140618
  1928   1    0.051862875338388778      36.588951954451581      24.130573817058266
  1929   1      39.518972121891096      13.270019889077021       28.03874575696944
  1930   1      35.363877353185096      11.205745246457395      45.374769442882695
  1931   1      45.078216408037065      8.8059656268925544      14.326012902670207
  1932   1      1.5314123232493371      39.504494728296166      22.275587572557797
  1933   1      13.111048602851573      10.936791612340265       22.14618309811619
  1934   1      33.355370878996723      11.359283613848799      36.526819244881295
  1935   1       17.93449260652643      27.991344473151802      7.5584105042918273
  1936   1      34.837673588281561      16.368304564498477      2.8347865979303069
  1937   1      10.241838011515132      45.336597568373357      21.375096449020379
  1938   1      27.872304736783846      21.855925856073497       43.47955169936585
  1939   1       28.00700916107391       1.982904129447681      28.278204196569025
  1940   1      13.299683538957085      24.274407688302048      13.035073286310753
  1941   1      23.741485816233265      45.348815138479345      11.700933679686614
  1942   1     0.83490440949230671      47.605246528889083    -0.22382205135364838
  1943   1      43.174555637443639      27.756250237139039      40.279806736590373
  1944   1      7.4001292126830647      24.857915114256198      40.221459721476144
  1945   1       5.017847702020604      40.795103979244502      27.761901279358899
  1946   1      29.664193452281037      40.398249903413095       18.71250058346638
  1947   1      15.004343420613109     0.85773083297013852      28.928571921804451
  1948   1      47.535626882835942      45.559304243570551      2.0465392607345034
  1949   1       9.395653193269613       44.40378224785433      37.474925221626847
  1950   1      36.543086361750085      4.2329698672216045      45.284543982318908
  1951   1      10.401714837607638      39.981992124230672      29.729587162701211
  1952   1      33.648202469444115      48.522081160737415      49.521431256734608
  1953   1      13.109904595809313      28.868304365368537      21.494170640094133
  1954   1      27.070807726312186      36.473939781606781      35.618735616965992
  1955   1        41.2477422753471      6.4162289588377455      28.458720979110858
  1956   1      13.738235944511569      19.634726468290136      11.373526830637552
  1957   1      39.563106262393156      8.7395235149370674      21.704439597156046
  1958   1      22.999093590203319      20.238586852492251      27.886327796458545
  1959   1      26.595792257133652      44.357659242211618      29.575426620321409
  1960   1      43.997750726206931      34.643303965801984      2.4489810305439983
  1961   1      30.946523963170165      11.329054624685908     0.69403957749916856
  1962   1      14.489634574488814       16.20936483918452      48.989069206336609
  1963   1      40.105389839524172      33.447496628477211      15.820827748651237
  1964   1      38.706339291778981       9.742218398319233      11.014943413138941
  1965   1      9.3572085702127534      1.7734965365013957      32.161050157581656
  1966   1      15.869337427182385      32.377386482889563      33.258376434700175
  1967   1      41.507997698157915       2.528041418383546      44.316170720263983
  1968   1      12.725130232738813      36.687271550569207      37.986831301475853
  1969   1      39.951659671993404      19.667231693003963      8.8962246694962364
  1970   1      1.0420311993354996      4.6482681353638355      32.411488123213097
  1971   1      3.9134290828587148      30.711142336607399      51.355472536587939
  1972   1      6.9692848577707833      26.861252079017085      25.631918788889003
  1973   1      22.994496712042029      33.239615587040419      4.5251531967871808
  1974   1      1.3726612934760354      7.9329863934362281      29.272712302220423
  1975   1       21.23092792798662   -0.092009483263856787      28.695600994984215
  1976   1       36.11294722057778      19.455778284885564      13.578663155066366
  1977   1      27.246284728299248      21.048645150062995      46.999294893042133
  1978   1      27.489420454445899      46.749311471241114      47.567644044491331
  1979   1      41.077994278868871      38.367173366911977      21.830435690407334
  1980   1      36.594126606788677      44.466145254461573      17.182038274869488
  1981   1      10.852044972335428      7.6042102434442311      35.104538330330669
  1982   1      4.5812175642834578      32.368606642228038       40.26953013582407
  1983   1       16.58213350655814       42.79734722778165      5.0591649296505139
  1984   1      40.018387775447842      13.420243654447145      16.147347519172182
  1985   1      16.159155757858482      37.221190657566197       47.44491236560318
  1986   1      4.0602117913587934      49.120560498900886      18.517432691609987
  1987   1      49.019272705636105      27.045810554055219      2.9113696509001761
  1988   1      43.674002051039736      27.908689723868093      23.940575919704994
  1989   1      41.505801364818701      14.712751102552653      42.157588977333738
  1990   1      7.0246387145465992      1.8089659394273556      -1.364642958260023
  1991   1      33.320579746023959      5.9023928295795063      16.723652859501872
  1992   1      23.537874033844666      33.079357276580218       15.90383710009117
  1993   1      4.1011971706202184      9.8215886066470546       35.66191056662813
  1994   1      17.748412394963356      18.995143366504635      0.9799228115046833
  1995   1      32.501851010693322      36.720134421252311      39.548079693470704
  1996   1      41.655022270802057      15.062593476989225      45.454473793066477
  1997   1        27.8766892554283      20.211374256473079      14.434780352007014
  1998   1     0.30141458344636529      29.282008746861191      7.2572437969941417
  1999   1      41.406436021062071      5.7997271963785169       21.41688012627624
  2000   1       27.22631586449668      43.803067642870964       11.47164424976766
  2001   1      8.9235985894586172      46.664345239077768      25.723595277488851
  2002   1      18.250253631310901      31.518870253562049      36.556564680957315
  2003   1      27.066800620264832      6.1372765420424154      4.2632987379170153
  2004   1       12.67451657517098      45.817943155885345      27.054152490648672
  2005   1      11.365540313289022      8.7766522839097636      23.727068052783988
  2006   1      40.785496648757565      49.042381372830981       49.39655196057997
  2007   1      31.253074888881347      9.5323613899714701      4.6765835930276163
  2008   1      4.2026775865222836      7.9170448619896057      6.2710991940813869
  2009   1       32.17618707491939      13.836452291934513      43.545499538444474
  2010   1      6.4125867495166267      31.742927085476552      14.508285041387516
  2011   1      15.575269790284381      41.196196463599208      22.561756664411124
  2012   1      15.279704036874799       33.98378198962439      46.274087311419571
  2013   1      37.579842612983761      46.750507292003803      43.897108640413492
  2014   1      44.325048918172115      37.367621446349439      25.110156330221866
  2015   1      39.200530062228296      35.594220972536839       27.97144105203045
  2016   1      47.844638038838852       29.16356016423315      41.798026542893695
  2017   1      11.685774253545519      1.7501296388557739      10.290511551491756
  2018   1       7.001234900210271      43.307961982699837      10.781055854570472
  2019   1       37.01167902947617      11.862144603288741      22.286932409518887
  2020   1      32.576103665194275      7.8185124022062382      19.500787322492151
  2021   1       38.27329317333929      35.112207494932946      11.916354831215779
  2022   1      8.9784126391831638      30.764449159772393      46.667644371852305
  2023   1      17.178404997082289      37.916447605013069       36.45280244079315
  2024   1      32.095480643808116      2.6398291272409873      30.779477283553486
  2025   1      15.972266966766362      45.331621012692324       17.03750686658918
  2026   1      42.587180649599695      40.418442030733495      39.326608125643624
  2027   1      30.821416191928105      5.5922784907501413       22.23164623239952
  2028   1      0.6703096492161722      21.245076738439007      14.333925496064253
  2029   1      39.533783312041784      41.646419118573888      27.723034832000838
  2030   1      22.082705011358406      13.321195288186054      18.899693518082398
  2031   1      11.186777688442847      42.935133267364712      3.3783049244854211
  2032   1      6.3078715104293623      19.550748942414693      30.231008471738484
  2033   1      18.160249635691223      41.623783885458252      28.803308302850912
  2034   1       28.73179623843124      31.227806907377342     -2.8717807527393062
  2035   1      44.414573699629685      47.469471296382288       28.91111361755193
  2036   1      38.212858004492951      47.485945945719827      23.856788140411663
  2037   1      39.799843625235098      15.805251888648618       25.15822636239562
  2038   1      12.361842642890149      30.658873976886138      38.798391986560354
  2039   1      43.049464440763373      21.318134428255242      44.997397956559233
  2040   1      8.2082095544503222       9.587004589368405      38.296799988958092
  2041   1      47.510748517942822      21.886464182269631      5.5170917561228743
  2042   1      36.347095807839068      26.204529498360095      22.953174873637124
  2043   1      5.3391240580658312      24.092919138503504      11.540256735236099
  2044   1     0.79588111660638583      44.848759474350373      4.8763791701576977
  2045   1      30.949745557873332      26.613358304133847      9.1708102545756169
  2046   1      46.737827087453979      33.330850506274999      41.583808254901676
  2047   1      3.9665749656217897      27.510527532785659      1.1590248945628092
  2048   1      27.920322930309844      40.491977707346884      39.457772394000436
  2049   1      7.0030134355342275      31.032106381151642      7.4785002860187015
  2050   1      9.6642388045596856      48.259611100063537      23.004614960125782
  2051   1      40.022078708749319      39.837352904073235      47.292155369504634
  2052   1      46.700024944646906      25.943797008441877       37.82017691181904
  2053   1      41.937681771834754      5.0239521022398232     -1.6735437421609003
  2054   1      44.984634112121888      18.403423681807467      37.706290650952901
  2055   1      3.4547991422023756      47.505757868493632      35.981895445062399
  2056   1      13.283803263172414       14.11239714832236       40.16902589999971
  2057   1       45.30622071050739      23.941411459095924      3.7963752810884994
  2058   1      44.545649316369747       37.37489064987335       11.07338713418717
  2059   1      35.145090693289156      50.540478065037711      31.550602110775262
  2060   1      43.929330917306757      26.829527227655994      -1.450197745545647
  2061   1    -0.94051415621394807      18.601168750202941      43.263273219860196
  2062   1      39.005455142982129      43.185818225589081      40.267567906582336
  2063   1      5.2483254470405294      3.5918954266336285      34.537972891578697
  2064   1      47.364651263858974      14.464377705269204      32.006771784600737
  2065   1      34.996032945342456      1.0378354379690218      24.286953755562642
  2066   1      20.239882084788203      29.677372552247437      38.429793205983074
  2067   1      34.207299430225163       45.82731829898507      25.206435438789292
  2068   1      25.714575033401882      12.867417228764509      16.098443379004006
  2069   1      47.621659353058206      32.405809808778535      33.904507291406496
  2070   1      9.1031751548355011      36.935093077525792      36.896008607474712
  2071   1      27.493836445128551     0.29316521506155541      7.1362023272562478
  2072   1      41.905016216099874      23.833511671335497     -1.7270171972088559
  2073   1      47.279626947163635      6.2433087836030845       14.37962430645975
  2074   1      31.262937021204316      31.206251548554089      30.202630636559498
  2075   1      48.049308205555107      21.408919360587038      46.348675097909975
  2076   1      15.758696662621844      6.2045579206728787      4.8470324377734926
  2077   1      35.530473787586857      19.091140094919169      24.733299869748041
  2078   1      42.962938739372206      27.653781568098626      30.465339148300213
  2079   1       18.35537252661447        15.8765620929085      37.063706240261098
  2080   1       9.276925788991143      7.8453093436662673      11.975464700059149
  2081   1      37.126592842866096      18.797470686976823      41.565554233241485
  2082   1      8.3369829551445989      33.269155336473212      27.350495836168562
  2083   1      10.761391263011388      40.031216044640303      37.400863344959667
  2084   1      46.302330652128425      11.044461239600329      21.480430202789588
  2085   1      4.1691940884390348      40.784686344002189      13.581548336560564
  2086   1      3.9597334219418476      18.877876808920345      36.455145996911078
  2087   1      14.966154708138326      1.3552345834595181      15.884640082050348
  2088   1      33.119388819564776      28.015718161726486      23.997521391723112
  2089   1      10.867003914620136      15.374918100118306      19.315133097690598
  2090   1      28.035907808754995      21.973650950027739      18.143575844738809
  2091   1      4.4749986859085169      36.383099236998184      25.325436211438539
  2092   1      14.338206509897422      9.3265983117203621      8.2145437706215922
  2093   1      12.958901916373518       1.218270511460763      7.3240152675248886
  2094   1      27.817905224478643      6.3165525722925313        28.1995410749619
  2095   1      4.6512522788187987      45.997694944774047      28.452852840369435
  2096   1      11.933511886264862      46.076191142317441      3.9480223798498413
  2097   1        35.9055698409068      39.363747624152133      7.2842786467025986
  2098   1      29.215683329521568      15.570621263053535      2.4741364855916919
  2099   1      4.5090311294861829      9.8002690792932246      43.078231084207346
  2100   1      16.504717354259103      26.119217053669356      47.052102600865439
  2101   1      18.943930466468071       40.74872711270033      11.991987708767178
  2102   1      26.410781835443675      18.533705126346803      49.448745689768344
  2103   1      36.838875145496623      47.192914886925799      28.946819005565441
  2104   1      47.912056093847553       32.39388261839256      28.738222529836182
  2105   1      38.418569253152377      40.128362707871808      11.812759493185437
  2106   1      43.198228167307654      2.6794562689312924      22.480335324867244
  2107   1      4.3806595940695603      32.387369614549556      5.5295461295867918
  2108   1      2.1146535134528719      43.017620837354258      40.072549685579808
  2109   1      17.539870213331607      20.252868818110798      3.9558312625482159
  2110   1      45.791226042691562      26.466261933902612      26.465114606992291
  2111   1      31.687675134925531      22.991846181844863      38.738976673848626
  2112   1      27.606922626110162      11.956305618191173      34.126377647857652
  2113   1      33.219382294425905      45.167344123514113      47.757070485085954
  2114   1      29.231375776803553      30.317169513745021      37.528517133684971
  2115   1      12.581442224275426      40.375464304263588      22.916361721989929
  2116   1       33.92121964691178      8.1438575440352015      23.715604359721141
  2117   1      34.577078881709099      22.029154917316113      22.492512566609783
  2118   1      20.184261391635804      35.185604543505541      24.786961988483924
  2119   1      19.067700451030422      9.5031501659035751      29.957034744268888
  2120   1      19.254623525249134      45.609587408003918      41.910232710538914
  2121   1      42.231804459029959       11.52191415696127      44.376740246500326
  2122   1      18.145563876227797      47.682412589962489      11.271338692192357
  2123   1      8.8797426659226524      10.914268840134659      8.5445148333943717
  2124   1      17.573240621022695      19.603425059854512       46.34062477093125
  2125   1       9.750703136991504      15.238152387570373      44.178749195825901
  2126   1      11.149192129821531      19.121389081701885      1.1289041882872106
  2127   1      32.862287018673079      3.2477675642027384      25.561328556502062
  2128   1      44.865387169570724      27.286877590500563      33.640663286018558
  2129   1      38.103257254702299      22.336451332478333      10.547550233753649
  2130   1       30.14806069940802      28.655287835082778      47.130988975461882
  2131   1      11.028226532070978      25.873537291771488      37.177660635593554
  2132   1      38.706783743112027      18.502108259665331      23.804530991830784
  2133   1      7.3015918443920009      44.226329915619267      41.331477730724366
  2134   1       28.93428256406813       45.89317604594617       6.682254568172671
  2135   1      19.513000470860781       40.44894810815665      45.542793778942048
  2136   1         17.161515218856      39.964326606962764      43.385216529223989
  2137   1      41.579261817748431      34.500347047648035      25.620619071807646
  2138   1      2.0725336533679268      15.945207019540577      22.082209948190307
  2139   1      42.019120771079379        9.92773489242715      33.985452614133976
  2140   1      20.709415673815538      26.215934981745949      19.888913826021845
  2141   1      30.699305868182783      45.343312542908969       1.640221376769325
  2142   1      35.403180360381171      40.408403838079259      20.039227179464206
  2143   1      21.763858727431654      37.795154430608122      2.0032611496906476
  2144   1      44.226141871476052      41.377165578698474      20.103459370900332
  2145   1      1.7060917172182644      2.9507118140790447       16.76578751598554
  2146   1      33.920965919532868      18.219029699975934      8.1779452976939186
  2147   1      8.5320519688544518      24.069812134903106      0.1815621111559822
  2148   1      16.996118837691252       36.31345809186746      14.904191722223148
  2149   1      16.975110984480995      43.258778135352195      25.937206253227586
  2150   1      18.317845376868256        7.71684186856106      3.2603929192860082
  2151   1      23.930832091839569      51.019760855756658      26.941744540146878
  2152   1     0.64457570140618581      24.455296204509949       13.71465932276478
  2153   1      36.034501344341592      42.821666534610024      3.3581809335903694
  2154   1      14.747290175505139      27.214101737573483       38.90436343273943
  2155   1      28.853078977569897      35.049171921707114      2.6627510389900553
  2156   1      37.865091369256838      4.7899557383863609      40.830117613469611
  2157   1      24.024885023945199     -1.0339056646041129      25.593912772792915
  2158   1      45.837134614205006      47.693137032793651      41.253313825782108
  2159   1      38.693063260861827      18.698674847880095      1.1917944454190912
  2160   1      43.655440806067325      34.478468689849777      9.2197358164932393
  2161   1      16.735909982267639      2.4492735406600841      13.162183200766494
  2162   1      37.574516853127861      3.0067065371451238      24.855197559410687
  2163   1      12.126269109610655      18.014587298917899      30.695229088754061
  2164   1      45.834713170375288      10.249859745466614      24.659651968921942
  2165   1      22.643077320130867      19.996397139423316      15.623170850944712
  2166   1      44.393803648269049      33.638331551643944      13.760132257685468
  2167   1      41.064633796446202      8.6606935436159578      45.532372396508052
  2168   1      4.7839321293084929      18.413452999608523      46.794210527781892
  2169   1      32.068634641780193      48.078730151209982      41.584400091955125
  2170   1      12.655970871066469      41.904369805841867      44.565932610188035
  2171   1      28.001811910260646      40.161478345625206      35.408923093418657
  2172   1        29.4301349184251      14.189614348954384      28.186008179164254
  2173   1      18.405641012919379      35.144827691614644      38.259598307119894
  2174   1      18.323632575375111      16.642811333391546      14.093039770902127
  2175   1      46.912567322936482      8.4064741606719249      16.928184336835834
  2176   1      15.555742009213393       4.567534173250051      15.532039494624549
  2177   1      2.3752246117053875      28.398169951022219      4.8173620140201878
  2178   1      45.209217049209414      19.714347041913371      5.8678171181836793
  2179   1      28.805849565752695      10.184132326432394      38.028490642041469
  2180   1      2.9854340345628345      22.607367418179614      45.176406266596359
  2181   1      2.3060829642231373      28.694777518786736      42.668526887508506
  2182   1      25.309623774853574      25.266526940025408      40.826225483405011
  2183   1      18.472123614224135      31.479131325527273      20.297148267429932
  2184   1      37.814598488412841      46.844958100481421      10.443916536448198
  2185   1      18.865767229688537      7.9207677660687139      38.372640714904428
  2186   1       6.105491857150561      32.642410315154784     0.84133574289846003
  2187   1      37.663834372290296      31.607955432114991      3.0823804254685236
  2188   1      15.402313441528635      41.187291228208395      1.9478031922394208
  2189   1      17.830718553405653     0.60551161094291872      27.525316192378824
  2190   1      10.667467675567886      12.052898628216004      38.933249312025012
  2191   1      15.771126029311631      33.789675614518835      43.020303722199948
  2192   1      45.284507856195418      6.5497322498637551      7.1099569609614894
  2193   1      11.940046681194184      21.799482147533009      9.6423581176376505
  2194   1      40.941980823842378      25.572771174618961      1.1995884174139397
  2195   1      42.313058823308708       18.55634063447884      31.828788829570826
  2196   1      45.895669765473926       41.03152163479119      25.683409887476817
  2197   1      23.417501409171319      9.2306862674752619      25.553290709049513
  2198   1      10.424462170701164      16.254580967618374      37.704079669431046
  2199   1      9.6615945115747053      53.196372217147122      9.0026558048244638
  2200   1        25.3063264111595      44.161993581444946      46.435798391846077
  2201   1      27.277611876957366      43.071903204045086      24.650777650411261
  2202   1      40.643377896568488      1.3356535626126314      18.760872696578506
  2203   1    -0.39549436243306235      10.913906222326055      30.187730207177889
  2204   1      42.555295537039434       3.755172666833861      17.867231685251806
  2205   1      20.813483997435547      42.780306163568632      31.909779865150053
  2206   1      12.812530666418718      11.401129480238875      2.8323470850083514
  2207   1      24.988343985407006      35.031095097300991       39.92376909023082
  2208   1      34.129089295624127       11.02311049284264      21.202658595388932
  2209   1      12.557278477006404      34.603894894868645      44.158648323140632
  2210   1      43.577064623905287      45.518351553775631      19.528086782982662
  2211   1     0.14930841670036982      29.840023894999696      22.768432555832074
  2212   1      31.068727612032664      38.294284850818663      12.919442714852169
  2213   1      18.820882449483058      41.313646275134637      8.7768258541709852
  2214   1      10.361884433712422      35.797225900600168      9.2863397040551714
  2215   1      21.711213513793052      34.611300932205637      7.9787422778259325
  2216   1      14.913080561460465      18.310944899918724      2.8214859960564453
  2217   1      17.018482334496532      8.5653628350002187      22.792003587120764
  2218   1      33.103517541544036      35.422111785575105      36.277491404879136
  2219   1      16.288482908845122      21.766153375951461      23.638304636678029
  2220   1      46.238303052650757      46.555077755518418      21.817172876555073
  2221   1      6.3945457432885151      47.565262851411312      20.430806058714694
  2222   1      9.2354755399558162      48.185709056710948      38.092523195220828
  2223   1       37.73903010149165      27.946573410676475      25.393361577503775
  2224   1      48.554337281396933      1.0236394940021212      26.280173242974168
  2225   1      28.248521944071438      30.523805013109037     0.51842251875718326
  2226   1      20.894788264711213      3.3579686942795233      33.392360516428674
  2227   1        21.9777810949101       33.31193468349344      28.050671372490349
  2228   1      3.7046977585374616      13.142080996022157      18.213482152945055
  2229   1      32.756668610452124      1.0724408059273876      33.644207087637568
  2230   1      29.169720597511077    -0.26074780299548123      10.767489741489326
  2231   1      23.972537135521549      24.794301496279907        20.2733913539364
  2232   1      4.7946791837031997       10.78755862266588      4.4285013926502836
  2233   1      23.776879369969066      14.941200595922149      10.147542162453398
  2234   1      8.5365585911253614      3.5346501216137951      4.1705439966729827
  2235   1      34.919421541592925      19.882436532824425      2.4238457372758462
  2236   1      42.703928634335924      3.6529688762203447      33.855272276189432
  2237   1      21.011512064461009      43.237459967704794      36.738117006909427
  2238   1      9.5570644009075689       16.30649251118458      22.301764807825258
  2239   1      28.522357387442668      10.144472914150802      8.9830186871507589
  2240   1      30.543261622364451      12.528211983384788      19.907445447152128
  2241   1      20.689199130120326      24.473470803294752      40.698286389664581
  2242   1      28.511928026625636      36.646594760651176      26.358945719760687
  2243   1      11.262843281351241      27.735364684440334      24.533368216557861
  2244   1      27.159561305368335      28.131411215677158      11.505206859324167
  2245   1      5.7526170818918407      18.598860314556863      33.305885956842381
  2246   1       27.03175891646023      44.109983881071365     0.83323314735483178
  2247   1      26.908124900111467      11.121599993047154      42.790347711662605
  2248   1      34.611806524147745      16.873115389175975      44.997448497029822
  2249   1      15.631457360292364      37.468575080145101      29.060091477742976
  2250   1      15.628787623178821      41.033205389048383      47.177490457713716
  2251   1      34.466219206170472      7.5804425506050022      33.014548205826799
  2252   1      39.293940210916119      3.4943237302615566      6.7601518781048666
  2253   1      2.9617961811245346      14.552262153465762    -0.94896496512789186
  2254   1      20.531482582535126       21.48971546733447      1.0757338570707988
  2255   1      24.695509862709567      47.759004980824393      6.3123439468626144
  2256   1      16.843163357272253      25.164151070816622      35.262479852984434
  2257   1      44.324125988351462      39.870563918615957      8.6177191462371319
  2258   1      19.697249014025157      36.380797950727491      47.943410343807344
  2259   1      19.281064598809838      39.116906744892233      41.081990270871529
  2260   1      11.023253036743601      31.759873224935355      22.618158649371093
  2261   1      7.5095526152191896      7.5086811255687884      6.6888721677076015
  2262   1      44.416008470690635      23.474521261971056      37.361209795204509
  2263   1      17.146160095949885      43.172615199618541       35.69091843912701
  2264   1       36.11619332107167      7.6103743829323438       29.60411909598859
  2265   1      20.237268842906214     0.12752475681622427      25.297992102961349
  2266   1      21.713240652180488      20.892448020507882      9.2117025972003947
  2267   1      14.142189919701135      29.352839429580314      30.097112497542945
  2268   1      20.217011452867322      20.006206205959018      29.502812216458203
  2269   1      23.323448338848983      25.678207665296213      11.226753282952101
  2270   1      6.6559801245437891      27.766470943450468      20.913709561345641
  2271   1       30.55850186409997      7.1762265144380208      40.980343500695227
  2272   1      27.291534516670378      41.534274807239861      20.763538536802468
  2273   1      15.980053050948253      32.255540617549009      14.581887122962081
  2274   1      46.590925537092254      35.471650055222057      33.533934778295666
  2275   1      19.505721299777726      8.2269811049564652      13.499164985476584
  2276   1      29.257546544691962      48.179828629258964      21.698142604313027
  2277   1      12.382967508568225      15.696377779917983      10.691735562016529
  2278   1      18.824556381848417      13.856928465856125      18.242814814334469
  2279   1      33.199112606879758       31.30041614449658      10.468386210821681
  2280   1      31.880319879101634      23.700010136501511      11.929951437726693
  2281   1      18.498243457059907      24.067072923749684      30.206412286193068
  2282   1      27.305435845375936      9.3762794142632266      23.118957226321481
  2283   1      10.229115339080423      31.235492013626132      3.4911974669312671
  2284   1      32.186059843122287      26.491851357138028      39.283310537888042
  2285   1      28.252146287525335      5.9594945467387976      0.9295933310357577
  2286   1      26.070804895787894      46.582023501947688      8.9855208186141553
  2287   1      31.471137451253618      20.016656492661792      41.922007420243801
  2288   1       44.85800204328109      11.423504356616288      11.384974562283952
  2289   1      39.192885548245336      22.977808918418674      36.419742695674209
  2290   1      8.1869454151634322      31.352485422855761      30.220229017771157
  2291   1      31.680295687167288      43.188884348998712      19.480941288621661
  2292   1      19.233053687093829      26.416911247793294      32.605428405810571
  2293   1      46.636027125040037       25.29321699320154      44.560360219956266
  2294   1      31.078954098025275      2.1164704991108696      6.1593512112658049
  2295   1      4.8986254108189566      39.798505107852577      24.395151627504244
  2296   1      28.544902349899949    -0.01186868063265919      16.318572243439281
  2297   1       12.47680121970321      48.273316157591495       38.83916196332985
  2298   1       41.11841183008017      31.232643450236175      7.3220379241821245
  2299   1      41.154667599190375      11.764780851897429    -0.28431214025340362
  2300   1      32.245951563478677      27.717892969449132       19.23928436285518
  2301   1      4.7400747228256233      32.446592468755114      32.759997108634828
  2302   1      7.3270717884991896      10.329630830229895      34.716036957541057
  2303   1      27.970520796032329      3.9908890067026301       31.72405433564489
  2304   1      42.763167078164543      13.121792526979569      33.619942569742655
  2305   1      2.2575367045086687      47.266508720126296      14.566955931046699
  2306   1      39.774511583745024      28.541760348616663      13.533512549344419
  2307   1      32.854643121008579      40.899155819754945      40.969650391667741
  2308   1      41.204183814326079       6.065365113980639      41.093877470445861
  2309   1      41.062892996685449      17.606305156167465      35.204602327524341
  2310   1      31.097058367677814      22.104217787278237      48.536693822928896
  2311   1        29.8208201069599      19.964767998547632      29.046210408177551
  2312   1      19.431525573136245      10.024532356244137      44.690168940416257
  2313   1      44.461211490314085       3.247236168723163      6.6635138982419848
  2314   1      21.551274491066469      8.0225266463575853      32.716127375012846
  2315   1      46.550566057978834      43.537156598178925      4.1590389025642924
  2316   1      25.392135143279859      21.588887096317443      10.350686110120769
  2317   1      40.148780010050849     0.23035243117545418      6.3979255533096024
  2318   1      10.344882822461637      8.6797432266501726      2.3956048703522526
  2319   1      2.3889676509142643      28.340128627149014      24.865409605227608
  2320   1      25.142990949460906      19.998078478901192      25.417784691112022
  2321   1      30.586581942146175      12.473671267646372       7.257835143460138
  2322   1      20.275748864922789      42.485661269406997      26.262997160555248
  2323   1      3.4967187557591255      46.312156261247068      2.3672326251829934
  2324   1      15.054318448875385      1.0317371467817293      22.122484812495362
  2325   1      19.506203199534255      11.750021928896393      20.719287905692116
  2326   1      34.929491561129865      48.370269536221379       45.39163125690871
  2327   1      14.621140183851946      31.689302205905747      24.004074804340661
  2328   1      29.402177130873145      12.970229933560928      10.444650161111252
  2329   1      10.351832214214241      20.672053726622522      30.661241771824294
  2330   1      22.873126982097471      20.668058407893493      31.370403072027035
  2331   1      16.264956537762352      11.339750986607463      19.897504479220455
  2332   1     -1.1678087984211372      26.636428822861468      11.078063198982008
  2333   1      10.303154650591939      11.362495389834768      18.998239182404721
  2334   1      37.527996637557969      26.805554878930923      11.992019330959481
  2335   1      17.863996062211577      13.289817805494948      13.264123803371433
  2336   1      23.719476555136417      16.176544740632323      40.668365052603669
  2337   1      15.755687600653067      3.6844709817111054      46.600399267075709
  2338   1      40.551244871699033       30.58995371037043      17.861295054866186
  2339   1         22.753263472293      25.815446230522312      43.571365047270497
  2340   1      3.8173025335518251      42.778955183122754      2.9484127015327468
  2341   1      20.343133713505022      23.719536136574398      8.5544103708469947
  2342   1      0.5495785268778024      22.079747188873533      32.018168028123789
  2343   1      13.255689303060599      25.859205214143358      31.221136002385418
  2344   1      34.714943651480063      14.140710608827089      21.110938133783176
  2345   1      22.327432690547006      34.794382518014885      49.079219198702987
  2346   1       45.04539285016957      44.223845067805236      12.427184704637533
  2347   1      18.035807743144087      20.525890538713718      42.798680013425596
  2348   1      17.397556719860816      27.076910741450117      3.7646501324976418
  2349   1     0.27761039887216687      16.276830751025823      45.160034100097846
  2350   1      23.867183486089754       1.498645921657471      2.7475926950016114
  2351   1       42.31604795475802      37.454559074068257      7.6355651307359809
  2352   1      39.878264112130879      44.450586732237092      23.633500258969082
  2353   1      46.044451141424879      2.5565157248672112       15.95354514592024
  2354   1      27.465215552599322      12.963095735995431      13.286409518571279
  2355   1      27.861325565428707      6.2774160831199763      15.893741662564734
  2356   1      28.490554370169356      41.431019973284272      27.670621668273657
  2357   1      49.255100395062961      28.840985534838371      35.918312394413974
  2358   1      27.482900844743934      7.0486467595318745      46.636178954496394
  2359   1      3.4612721578804733      37.620213070215769      19.192032954122958
  2360   1      15.384167425194901      6.5659421293343865      30.473506083775995
  2361   1      41.434652463417656      24.531152925308145      39.508552479774323
  2362   1      41.687425000592896      20.549400524131904      11.652196628297824
  2363   1      24.125312028346809      43.688119519653547      15.006675499158561
  2364   1      36.166633661525154        19.5095631342678      35.638066648399366
  2365   1      13.970898691785623      46.315129433397438      10.135130286948952
  2366   1      42.501419574247187      31.749196053085395      24.016436433614476
  2367   1      7.9075997567528855      19.600693050925781      1.4859716749245642
  2368   1      44.529340388543453      37.888845632777354      1.7021832986594134
  2369   1       48.31675462789628        2.67663053293548      12.572605521518414
  2370   1      34.125306767882471      16.929016678790262      14.454524124823333
  2371   1      48.128404645468336      27.981575140015597      20.012987998170271
  2372   1       26.35708361170078      1.1661092850346888      45.874344284007655
  2373   1      37.025944209273881      35.233341088876344      32.048781336301857
  2374   1    -0.91167635962143656      25.647021180644231      33.844196591676621
  2375   1      25.549853976089043     0.30503586292406781       22.91327772472042
  2376   1      9.7270449788980837     0.43023208945124863      3.7949706543057027
  2377   1      27.052897450296495      41.072043271831738      44.736139328890637
  2378   1      28.588075825857157      33.321935828339498      31.646984836511916
  2379   1      12.510312482974964      2.5282622859201047      2.2851697187267428
  2380   1      27.084901806110768      29.937104142359242       30.77993256585091
  2381   1      19.533493416189305      34.755516932707415      34.349702434718935
  2382   1      23.866169924871397      12.872887619083858      31.227273840410216
  2383   1      20.313867423086641      13.621477903665562      45.866147778243054
  2384   1      30.709090213186453      27.203000841655459          13.48725748719
  2385   1      2.9409619568471599      14.439276226062677      31.455083007714361
  2386   1      20.327246319775629      1.3840604683879498      12.479351082366353
  2387   1      26.480280118104496      2.1873000711413089      40.745933544244728
  2388   1      45.512630888098421      30.019443496019903      50.508842210314462
  2389   1      35.157893135695474      4.5400387253514127      11.370671096588785
  2390   1      9.8943856626874318      36.640423329349922      5.4412535159078343
  2391   1       7.782011094163348      29.183652336135523       13.07162604675381
  2392   1      17.717931217234931      17.412306591616716      33.771196620479039
  2393   1      41.830842987735494       24.64068773030619      42.762576567549374
  2394   1      22.369598858137969      38.510024781114737      12.730583303617333
  2395   1      25.828126683644381      33.321203355132951      46.568040944123091
  2396   1      28.450536450893718      17.279103172521392      39.575199141303315
  2397   1      9.7432578605145448      1.3680217677188586      28.868554826568765
  2398   1      16.782438509131961      7.9528902599258737       43.80130160388704
  2399   1      27.072666585756991      23.570616096398332      27.554715065197293
  2400   1      7.9271974573194104      38.364353932664677      30.513968475718865
  2401   1       11.88205848122896      42.221795076438816      41.277187886814225
  2402   1      46.160551146561758      33.624505890672339      10.977158257844533
  2403   1      4.6296976391008551      43.230552686609407      5.9405172403456694
  2404   1      11.591981200529775      28.556456266776834      11.478142298597893
  2405   1      12.831227685937959      6.7146934203370678      2.8616429742625105
  2406   1      13.045201745353761      34.108049024946055      21.576329631443773
  2407   1      44.191683804136829      38.368358731598484      21.103531158056064
  2408   1      10.230359170542318      19.179124280005617      36.160767722529123
  2409   1      15.311090575845959      3.9996735169655051      43.312885169549972
  2410   1      16.903933261838784      34.431432767281834      17.918730575574966
  2411   1       29.67905280537952      35.608914377969704      43.888767336245152
  2412   1      12.689088132289262       20.63597282159154        25.1240574447841
  2413   1      30.517966505901516      41.072054749060875      21.747576579863914
  2414   1     0.82255149869433519      12.724985496241564      20.097233717657094
  2415   1      37.826808842954222      34.916600652908407      7.1791287745395005
  2416   1      7.2831914754653813      30.233788925102903      36.105779230298069
  2417   1      3.5324636159291791       10.89411936708921      25.003430561794982
  2418   1      31.526571634906162      4.6219870008474402      8.8260154624303535
  2419   1      33.025181675703507      17.419937414705956      28.417486551977927
  2420   1       33.24772360990233      21.614240275539522      31.077526652635086
  2421   1      1.7460373494128705      33.063390156473773      31.526845688838566
  2422   1      26.365312771882131      21.113636049748617      35.929828241687332
  2423   1      8.2432965656089046      31.072479336285443      39.276529161398869
  2424   1      3.2609734693234045      13.524719154657951      35.896409097562497
  2425   1      14.103515469509349      42.225500263909979      35.003670323812706
  2426   1      5.8064710251434626      40.420384814844162      17.235714549222486
  2427   1      12.967333883414488      36.579721021110799      5.5107134501107309
  2428   1       24.01825710839595      41.809754294471404      19.052766438402287
  2429   1      5.1687915254108372      28.095870049136771      30.454464776165938
  2430   1      37.353094953679673      23.956288633980304    -0.61523376745145142
  2431   1      4.8555241161793337      38.882960778784607      44.727963406247007
  2432   1      8.7806473793953259      19.122703731737271      26.225327661903151
  2433   1      14.055017369073123      22.725986654172551      29.912770014952855
  2434   1      21.953227863907568      40.436417916778424      28.480512086458539
  2435   1      24.265904704874043      7.8427604229453687      9.1411935067732308
  2436   1      27.903359956033043      27.510350029821915      15.226296487690146
  2437   1      13.766913171626724      32.723384193858962      5.9371067867956455
  2438   1      35.698436866495953      7.2353258875611122      14.023399339201161
  2439   1      10.750945732601208      46.523628235606353      30.590898896687953
  2440   1       36.26816745506023      1.4880998511894175      50.556648530500688
  2441   1      39.265174864690636      5.1998371913025094      43.668549409559546
  2442   1      25.819950707195108      16.613590549910381      16.179116808333387
  2443   1      30.664188069294674      23.893422638147936      20.509793333611871
  2444   1     0.84683975205593653      50.555385699214071      46.625260304322659
  2445   1      18.247832986369904      14.712470897012652      21.438151063539379
  2446   1      13.394767741008359      3.0089701987188193      37.079752444027392
  2447   1      10.864410915579697      18.722536920488217      42.868468415054444
  2448   1      45.799480273557286    -0.75832602975600338      47.065426861322649
  2449   1      11.220152926245698      38.880175500315303      7.9113478451095904
  2450   1       10.66451442708229      21.580812634070359      33.644661946579589
  2451   1      27.260955073847772      12.067492948122402      19.695593383552769
  2452   1      41.719689841626696      9.5982422860363066      38.497352235678186
  2453   1      44.701758710727425      20.040660717385766      47.554458796481406
  2454   1       15.05610207314017      42.672585411577415      9.4609948865360174
  2455   1      36.645112279757655      38.426786998849011      42.265105620985437
  2456   1      9.1306586165124592      4.2815068949418862      36.177900525092255
  2457   1      5.7921220075855642       24.76171559787948      33.849480180316668
  2458   1      1.4619202715450892      19.859956400378731      26.222794272538049
  2459   1      35.404578504489933      33.956390077883896      25.056276668443271
  2460   1       34.81458679966449      24.747638515350264      13.270107351590584
  2461   1      24.919418093439393      5.2911854491705181      38.695303221937309
  2462   1      6.0517727581000118      7.5863474723052375      3.7553858773023596
  2463   1      47.331261857520637      9.3891592159436552      6.7431806030062509
  2464   1      3.1287688313563145      22.993159999558912      17.213380584770103
  2465   1      31.856498474367228      23.827389024560357       23.52163430106113
  2466   1      28.707334499330276      3.3812779502010311      10.083567406479505
  2467   1      1.4807388961196981      14.790672949817958       26.50786660157317
  2468   1      34.489678649237838      37.355733463413571       31.00451452068501
  2469   1      16.588227636699212      19.925682478939304      30.897600428907385
  2470   1      12.846709551798879      5.9505247979384048       41.84648426523178
  2471   1      42.716211927772882      29.176715292394892      49.522660881343832
  2472   1      30.825140605067535    -0.36035481513259054      31.267420813525963
  2473   1      42.038684548637818      43.846697941843537       41.21808686934456
  2474   1      26.486268469376149      34.297008291628039      42.823868859394949
  2475   1      32.983536989142394      24.409408643388876      28.713614259543402
  2476   1      43.212380819202124      34.059395804839085      33.430521021896837
  2477   1      41.179419395833904      3.4244208136594017      14.702062982940683
  2478   1      15.513749359607406      2.7597378820610592      4.3268735083408663
  2479   1      20.397274173913509      43.411385351339348      2.6572891249678476
  2480   1       9.271571001531802      45.185716433937998      15.942424358952193
  2481   1      33.083393413060058      37.006791309035201      16.367255160558045
  2482   1      45.340206535440309      42.170038528940736      38.353175176446243
  2483   1      24.553337623330084      38.196931589433021      40.942280667060629
  2484   1      1.6308015912637632      10.576995536954595      41.512425698323611
  2485   1      46.737237839091542      44.051078733624763      19.274974591447634
  2486   1      29.833588391416345      45.579996378255053      39.088177878826691
  2487   1      24.308562207968347      29.175530087237497      32.738076913957521
  2488   1      47.293864467623102      2.7668137607949039      32.800168826345804
  2489   1       33.59651089808861      40.552258676914676    -0.21790075014002599
  2490   1      36.296189255524446      23.749246918160566      34.006227318849255
  2491   1      4.6993130200566195      46.231585312487312      9.2880443861426354
  2492   1      28.941399694818411      24.407265036732699      47.017379380681206
  2493   1      9.8649435363797906      25.688498941237842      46.392316561898994
  2494   1      37.400899359674405      13.123055881281219      10.050472029829704
  2495   1      15.796158611021156      40.918847466557978      38.450189053258441
  2496   1      12.936041147209993      42.165178151345287    -0.36544532327947088
  2497   1      34.074043265103526      24.851947722758702      37.201660290007823
  2498   1        35.9220798019699      37.516620757982793       14.72606289002997
  2499   1       9.394381927823428       23.88395732875243      16.608081190667644
  2500   1        5.35748335595569      12.891653018236513      29.752040069884892
  2501   1       43.54244784937125      14.562652045825137      9.5693331785673479
  2502   1    -0.33448273043519655      29.152244587049612      45.201751780403413
  2503   1      13.585270166740699      23.803289552933268      26.934842747481813
  2504   1      35.141582327435891      33.447014653178762      34.437762552755764
  2505   1      17.983737565370152      31.319145142003006      12.159769546662815
  2506   1      26.524604358893793        29.9808671585381      35.558907498967464
  2507   1      19.873929338592625      41.776783329216272      42.635908479680232
  2508   1      5.7884844556716111      43.493652277064996      14.112041645421298
  2509   1      9.7884645710418638      1.4169556124619782      7.5898964155803768
  2510   1      24.163450404024992       2.917412032657261      14.618022275822781
  2511   1      18.632828387141863      47.029789716181256      35.973678109648127
  2512   1      16.259684778255181      1.4165480526119842       8.739018110783821
  2513   1       26.23170492538744      31.315589575742553      15.974149994855685
  2514   1       41.39597862986362      6.7640060073854036      5.5084027590559552
  2515   1      23.204956802670914      41.846898435070031       1.566360852270646
  2516   1      20.846100370529996      22.829050367113005      27.648392846566551
  2517   1      29.117425482098504      27.173624888129503      36.092535179219603
  2518   1       7.416259867621501       1.941534607152531      21.574144782174972
  2519   1      35.562902188973311      44.006975537506186      33.170663349088166
  2520   1      32.814251617869154      4.0301550464500178      20.028441539526053
  2521   1      32.975391464498458      48.237454812351032       17.43649365513069
  2522   1       12.87968040273423     -0.8932644829330163      20.143368012772086
  2523   1      18.003827557015804      46.149274326689067       3.002465220960282
  2524   1      17.499037562890479      27.858805836599679      40.452646397682614
  2525   1      15.294461396025993       15.77397368950853      16.725349561083352
  2526   1      14.458581088478457      38.059141614432079      16.350667439112691
  2527   1     0.59396120791810036      18.302928432689956      7.9517081032056005
  2528   1         18.734387879126      39.763582890384484      5.3334478534102834
  2529   1      27.108426567079967       32.79232615870594      4.4283485287673914
  2530   1      29.257991033999197      22.283439000489555      34.622923233029809
  2531   1      12.501478201089784      9.0352422434928759      26.838448761144733
  2532   1      45.913203862654555      21.464429677276229      39.081985319988924
  2533   1      8.2389279008310652      41.484925849560511      39.740693068596116
  2534   1      45.339573833469501      22.325910801902193       29.38504414931964
  2535   1       28.81006115595417      29.837095661897504      23.257585716331189
  2536   1       34.45013967326333       20.27539454305472      43.977969764914569
  2537   1      40.166262264034593      45.699883250753004      1.0079420234482674
  2538   1       37.02337177975717       10.03270581085409      47.962998927158928
  2539   1      16.284125584286549       8.560681222734793      33.418915062234234
  2540   1      39.137207530222014      40.902907453832725      14.929248445669952
  2541   1      24.496892938688024      26.457531646774342      25.538927413303107
  2542   1      37.741776712201911      43.865005979967464      48.347720276964957
  2543   1      9.3209774282561675      11.150126867575135      32.061391028733091
  2544   1      31.428126870925837      2.2575289880756491      22.643977128725155
  2545   1      15.250212287294856      22.276442327327079      9.9830850002146541
  2546   1       18.70240448819667      3.6869811927117095      28.081592317085935
  2547   1      4.1196754278085281      23.105895277712673      38.354752340457011
  2548   1      5.8923754403317092      35.042634380214885      9.7366115410021301
  2549   1      17.629067061233293      43.247440571476865      15.078191466027269
  2550   1       45.07357714205267       12.57714818001293      37.051343352199446
  2551   1      39.875045825811434      9.8209192224463617      3.6216224301968265
  2552   1      4.7316038897927752      19.973145063331991      39.511556655360735
  2553   1      35.676776234713337      2.1512366506665668       27.51064883405915
  2554   1      6.3926311858626939      16.211244576291453      2.5584849540365839
  2555   1      7.2664839173582596      23.526089007852992      27.920734996839254
  2556   1      1.6642714956525406      1.9736120355609745        34.5156573417758
  2557   1      9.8056548553862566      39.108069183415552     0.51666378769344201
  2558   1      34.242618117391665      5.8297815010820049      6.6658163162927169
  2559   1      28.707075532483959      14.669744218654152      18.041825568839826
  2560   1      45.755421136139631       8.343066183165238      46.429990309115993
  2561   1      26.691805883151101      41.883689699400072        8.79707428248709
  2562   1      12.067250831424666      5.0928052147333061      47.802023853772518
  2563   1      26.481159427957309      16.906737854152372      24.659116845031459
  2564   1      12.846344124865036      18.018814053455444      27.058682676130385
  2565   1      14.795766333751688      36.704548245448187      32.520254161776862
  2566   1    -0.23485053895160513      11.466059948158073      26.768096783360928
  2567   1      3.1502834219860087      45.578202606967416      17.534206650235475
  2568   1      -2.174712494157975      27.645105730331398      5.2269381132401458
  2569   1      31.751835110941709       46.62800993243949      9.1632875375801923
  2570   1      2.1928328317644183      22.543918679320548      24.263489863732463
  2571   1      37.954852669685081       5.447909479493994      27.860486935608428
  2572   1      46.415443808603492      12.399092177221847      46.736173357821748
  2573   1        24.7894151762932      21.662362712997986      19.495394380051785
  2574   1      36.481339100169443      16.361449731258165      18.534086480819131
  2575   1         11.960648720538       42.46029651038755      10.764934238271406
  2576   1      14.064574234828306      2.1926420249302212      31.973335718347681
  2577   1      13.113134849222332      12.676302669704798      13.590586948937098
  2578   1       15.87663228140674      37.351557332393298       3.064424277251641
  2579   1       7.586493073151054      6.2070369944426744      39.751661855359067
  2580   1      3.1279539424784466      25.490972678612543      31.711906854159768
  2581   1       15.21642366357333      18.754475637014682      42.862482718989469
  2582   1      31.206007914089039      20.977307981462317      16.139505932491801
  2583   1      31.451786419035869      35.092943496365741      32.829218710738118
  2584   1      28.544331112573545      24.507132967138226      40.977046757832603
  2585   1      26.948729818584212      25.319662249025448      10.013661161291919
  2586   1      48.362571516619425      39.868334824680488      31.905347528046892
  2587   1      24.587881086290768      11.350147665884549      7.1556318038029971
  2588   1      34.637668018892292      1.3203507482024026      40.949099999078939
  2589   1      15.631044837710974      45.450069799222462      13.446626975931238
  2590   1      26.888162070316351      9.4119498902964303      3.8073985373978516
  2591   1      33.142172650514517      28.754692407337068      42.895349278584746
  2592   1      32.142974071134638      44.430623723606537      28.080469538248632
  2593   1      35.296603150001538      41.665196682619445      35.751175655622639
  2594   1      10.661346142643184      30.490638948167646      33.036109409147201
  2595   1      35.611123179109811      44.015877855507739      37.942130280619459
  2596   1      38.611698451080763      13.509372319258874      18.978316983732523
  2597   1      46.259881178045205      33.826535723885321      7.3506437332838406
  2598   1      17.826496622287628      10.725500138732412       47.45350571209903
  2599   1      6.9822150332548354      43.381780861457841      18.477795909690453
  2600   1      18.873461649588197      33.417397896035759      46.211730594743344
  2601   1      44.492958013125559      9.3095961426698146       36.69551860900345
  2602   1       26.24879509628294      12.990044243217639      28.173287420588743
  2603   1      18.872614542042896       40.68946523111299       23.68784636801972
  2604   1      21.684507866198725      38.906840668214905      43.591820483842838
  2605   1      2.7265216452038161      8.9213910673347172      10.929828284540568
  2606   1      19.961764511120585      18.262675234171965      3.6202315698826206
  2607   1      38.431734639333342      16.850640156201006        29.4305889209434
  2608   1      31.374137174021929      48.009463772462034      4.9978661935273463
  2609   1      36.249062851048784      13.849019322300691      33.694841129234575
  2610   1      51.422304766118295       24.19930610549072    -0.23871607315624532
  2611   1      42.900290019547434      14.648766808847624      3.1290339058552732
  2612   1      13.742887780345406      1.0317270308264772      12.979823692205585
  2613   1        33.4406088272573     0.18410714493631722       29.02985118470226
  2614   1      47.260971884437033      6.6359003431713512      38.321481451956153
  2615   1       13.09800641432137      9.1068217166024628     0.38781458531809737
  2616   1      11.109461349594982       26.46855732515418      14.044459225499292
  2617   1      19.522007270510201      38.106491813102181      30.957022795773902
  2618   1      46.932500431002111      26.980232799501596      30.916080089595486
  2619   1      25.190338353115802      32.771001366306969      1.4447454767480823
  2620   1      7.6973287050653871      44.889729395124284      29.569190304829242
  2621   1      22.692972954453786      39.223170100357187       21.36332542601864
  2622   1      25.616544777858969      45.378581013043195      40.072106064215738
  2623   1      5.9336518006169134      2.1917926395866365       11.69156109270973
  2624   1      7.0628437381189864       9.595376888598464      21.886943722429073
  2625   1      40.116221921547329      13.859921958938322      35.942982761804906
  2626   1      48.396332468059178      20.341183712471182      23.095022094804193
  2627   1      19.952417387592806      31.298318181328259      2.5148689805163267
  2628   1      42.514038098010133      33.955730754271215      5.6632306648936463
  2629   1      19.250847881284493      29.906382817090766       33.83077617851643
  2630   1      43.431111397502846       44.64227978765507      22.912424108877154
  2631   1      7.9954883918435522      42.121447325835234         48.949226005663
  2632   1      43.659599231331875      31.205235108916906      10.708246875967104
  2633   1      5.6504361845991431      39.675704763297972      41.534071175629045
  2634   1      11.650634153834533      29.194012047810389      45.670311949208312
  2635   1      19.116630482080648      23.582303296528394      12.176543111654976
  2636   1      32.310861157294056       38.60307298185667      35.353496693342507
  2637   1      42.984730531097739      16.919046923772918      7.5101306532130891
  2638   1      7.1258542074210585      16.616595176087966      24.635784799096871
  2639   1        6.25234473364078      9.1066798379272562      9.9137743151990083
  2640   1      14.172397765044941      2.7375246777976967      19.307876993988767
  2641   1      11.740947650720489       23.73291408966363      23.362278842680425
  2642   1      31.437515498891329      45.921565468484559      22.303749755378877
  2643   1      7.9337933412929278      23.034828455353651      10.109396522203477
  2644   1       7.485886496754933      12.001486892831423      40.588116229144944
  2645   1      35.885990943873871      46.367942173872891      35.530849772471377
  2646   1      15.081123629150872      9.1914050468484589      2.9895286976884505
  2647   1      8.9681129898424476      2.7868261665488592      25.207323421769825
  2648   1      2.4304856518132238      18.975925588152961      17.773894820928241
  2649   1      44.970594764363419      29.642810051869063      26.654304688203521
  2650   1      33.401892974123434      35.532226065636571      47.520636894620644
  2651   1      33.115577574456054      13.831256892902649      17.862309549832862
  2652   1      37.687213129288438      31.721059642951165      30.967796635026794
  2653   1      32.850905998784157      21.805349886424526      19.346456165902243
  2654   1      17.867025822537101      15.620843169212328      3.2571584765168438
  2655   1      50.047439930578641      43.343802397181591      8.3855824144359481
  2656   1      38.320913621374537      40.455207761144834      37.021705909352285
  2657   1      12.309771155956248      7.9401398848099767      32.172499219514705
  2658   1      32.811918417284019      16.115183505992661      11.002972243337142
  2659   1      35.997936899074112      9.0831207357263448      35.749227671725322
  2660   1       42.42354181278057      21.805808914974182      41.475079605245632
  2661   1      21.008715034383034       17.61864496376068      33.255185700384679
  2662   1       13.18380081861239      17.673810398662624      33.785914351702296
  2663   1      33.677694709182816       22.32535335587902      4.6060119958079202
  2664   1       41.45710235022694      34.165366428742672      12.698293493039367
  2665   1      4.6958123402159471      6.6053403786879503      12.073879078063364
  2666   1      26.908954022110176      47.675400094333909      28.374324773220277
  2667   1      44.387002894343354      49.229645921053759      3.3907168448417742
  2668   1       46.39875658836371      3.9212461765381481      45.502664179156774
  2669   1      8.0210872210211406      37.699470008839448      39.987096297000868
  2670   1      14.939917946176275      23.850623038360549      37.699781428578369
  2671   1      12.869408898183829      15.644945894616871       24.34019929790017
  2672   1      3.4244877913989047      25.897521630027583      44.540774524422162
  2673   1      38.010218573657617      37.532672275435878        25.4840713329822
  2674   1      3.0973346393725705      19.236354907545888      23.573576722130717
  2675   1      6.2456592201013965      1.9072803611618843      15.623125784741809
  2676   1      3.8981891118275906      43.297454536312713      11.158886332652347
  2677   1      41.189649898444678      2.8030702352415888      26.402669562242693
  2678   1      40.687692092625078      34.725409387924543      41.002137036049511
  2679   1      2.8955942530227095      19.115758815512336      29.407623903887217
  2680   1      2.4622342634812484       42.51051793323829      22.759799301712253
  2681   1      37.212410542917354      8.9677761657766055      24.516563279138609
  2682   1      9.2802954110155902      8.2255238982465126      19.869753234378518
  2683   1      20.305338030145357      18.043486083649604      17.290361750075011
  2684   1      34.305082035471855      23.748106933486966      9.8553189041251983
  2685   1      3.6634452987713808      29.299408715423517      21.034216003006499
  2686   1      44.671600068437705      7.0916903451540891      28.354529434977092
  2687   1      33.038246372583004      36.578249539067855      27.675729425704002
  2688   1      39.175648770868996      37.005865364527132      9.2935236035350322
  2689   1      34.914742092694773      6.9717774927292071      45.989493441085237
  2690   1      21.192063889044153      43.389441730933882      48.196818633565904
  2691   1      39.126505516722602      37.168739329948082      44.181988231414707
  2692   1      24.566580816669713      38.159348013027689      37.473708906379841
  2693   1       34.25288540366568      5.1137722927500979      42.175305992165498
  2694   1      5.8108445417526005      26.264352115093317      47.526993700349529
  2695   1      14.502022678250766      42.249483440569072       29.25758210573532
  2696   1      50.922450405268286      26.143228484334482      35.959442442489959
  2697   1      34.418646452293387      37.292825000875602      24.801283464185733
  2698   1      24.343740668119196      12.707448992011033      34.614035756513331
  2699   1      2.5238769803678189      39.332802744328568      33.751700995335199
  2700   1      13.283882488302364      17.848933987700754      37.003934341245227
  2701   1      44.504527045786979      23.808002088949127      16.733962401772487
  2702   1      36.551169519122425      27.424470541685089      8.4387782263802098
  2703   1      46.767998821703983      31.140461648430719      20.660663413233621
  2704   1      21.664455135767597      1.8278340347969928     0.48830265613759849
  2705   1        14.2207579588668      21.635255421282832      7.0378179178378906
  2706   1       25.51342586269552      24.381975608590587       36.46194319404978
  2707   1       3.626597929192124      9.8568802877776118      17.665444202884263
  2708   1      11.100388074583295      20.189159011293068      45.957684336067722
  2709   1      39.660232374726405      14.368305744248703      4.8155481093107841
  2710   1      24.604029736433112      35.626124502623952      10.869404831318542
  2711   1      30.793829958660737      34.590267999027162      29.585914191015238
  2712   1      15.573977561446172      3.2826512579699623       26.59885171784433
  2713   1      1.0171474412189796      8.9665183537157116       23.54547882135741
  2714   1      37.272381069260391      13.153260078979221      30.574989824206487
  2715   1      17.431662894690493       20.13055523243176      27.680090098200292
  2716   1      4.5129452873495248   0.0083585863975444898      44.609160132870315
  2717   1       37.33242442408541      13.309465584059778      46.774621701367245
  2718   1      6.1365105655587762      14.195504648653291      42.937199071601228
  2719   1      3.2186660137561813      35.871672457357896      32.169045912582931
  2720   1      41.439270782339023      38.163698927786548       35.37702125105443
  2721   1      28.340803302425826      23.560192785336785      37.346148732804643
  2722   1      40.499596909647586      7.1000054459732205      11.706914994832783
  2723   1      45.888266593977924      39.784507743546349      34.339749823371768
  2724   1      29.885959602419774      13.165651231102128      31.371579020431579
  2725   1      19.280855590054188      39.795438000153496      1.9383599238255733
  2726   1       22.14304147194407      45.927504180889663      34.614058953831879
  2727   1      21.887192687855045      30.501573003249284      21.229743920993911
  2728   1       5.879483221852488      4.0587956352416086      1.1176708710264351
  2729   1      32.603233962888261      11.026788373781478      39.675814874647081
  2730   1      8.2109306780330904      41.395850892722883      43.057493586404235
  2731   1      7.9025113850732653      15.592724741106462      5.3172011230770018
  2732   1      42.579035411255397      1.2272258182302798      31.568186135356605
  2733   1      7.8143833074309574      13.133160098560284      3.1166154970436857
  2734   1     0.65022715735626246      36.043789169287976      35.739274136388048
  2735   1      14.837512849042415      23.153334196610977      20.944094598420346
  2736   1      41.076515178070068      43.600472809330469      17.976874918892168
  2737   1      44.832896867807158      32.566192256443443      44.305534564023496
  2738   1      48.548649067669821      23.724371549262191      29.136654885046685
  2739   1      27.084569462630625      9.7532399518446553      12.849193451332029
  2740   1      11.556068967649846      27.260707414182789      33.932525758249405
  2741   1       1.063156345614048      9.1597938969570052      3.8619997112776958
  2742   1      36.826715103604229      15.722990905161858      5.4255742710520964
  2743   1      28.523373434694616      22.348117095092707      11.258654234098989
  2744   1      34.378614039167253      42.298905295296535      29.192517839850069
  2745   1      50.970868032150868      16.024569663898443      37.830644282705073
  2746   1      21.650479679244064      41.370874253862382      10.354735425493319
  2747   1      49.786055891681379      29.039145315315732      31.262741380379296
  2748   1      33.862315036985116      24.840047250396385      21.046144721402467
  2749   1      3.5422841184266241      46.766986206542107      22.656091319837998
  2750   1     0.27197609725202981      35.017885272545136    -0.38529329643661425
  2751   1      46.339146023893662      39.447930842012795      15.014198086243809
  2752   1      17.794397245384033      23.013603404395855      15.663463113643889
  2753   1      25.530983931515276      3.2534467983644721      24.256003444641411
  2754   1      23.646939180653366      46.362084487317006       20.27083439548759
  2755   1      1.6276269198931392      9.6107245366608431       13.78901468383526
  2756   1      34.910412376659011      4.2273993140235451      23.324337680141451
  2757   1      31.073124648062251      34.110456781766729      10.619075829112884
  2758   1      44.577894019629674      10.612321001304748      39.839079700631935
  2759   1      3.9529268823978434       7.705950818119228      15.168619211108894
  2760   1      22.269009816207191      47.417193791811158      17.161534958320921
  2761   1      32.698978574002382      40.603460253559241      7.6671480058002777
  2762   1      13.441812705216368      11.692564338494988      18.384659877655743
  2763   1      38.883906349892094      46.405384042812933      4.0612812307494748
  2764   1      19.384221858201776       5.951072059421306      31.376683852019418
  2765   1    -0.85142169056183903      41.111552674957473      6.9744699170542912
  2766   1      45.203534238913541       18.11556489533428      9.4963658233963795
  2767   1      36.521871110944055      33.185335958828659      9.9190577970446245
  2768   1      33.113762271927314      7.5893549036450452      36.456649963513364
  2769   1      43.681289886581688      41.345706058528464      5.7163266932295436
  2770   1      35.883743774901554       31.52909991343947      6.5422455091208631
  2771   1      20.977014343492165      28.926058525932813      18.176858067070032
  2772   1       19.53412541859403      22.141427556901224      38.577680696832438
  2773   1      3.2193250182882513      40.369247983604026      38.810289037729028
  2774   1      53.159043064895897      27.418337526999348      37.939969270862484
  2775   1      14.340810118756831      32.299545675046417      36.609183800193378
  2776   1      33.282510312638031      14.649662321544929      36.631997854957589
  2777   1      14.740394173013742      7.2954742940286197      24.882950190085651
  2778   1      12.450917419014027      19.020210586405497      8.0343425915733739
  2779   1      30.434131511862709      38.644190707926604       28.47220983243162
  2780   1       34.20923238834623      26.523149634643886      2.0442169142256694
  2781   1      16.864709429354914      21.043719707506856      13.069572342371867
  2782   1      4.0593547414841264      25.450909645050341      41.461365065823259
  2783   1      15.836433758413861      35.185695883912032      35.276158059970513
  2784   1      45.178130605693312      31.428573290096349      4.8365396398245766
  2785   1      7.9748498260743892       33.40072697471836      35.059636421153442
  2786   1      43.796810054081377      13.902810364574911    -0.20033914152441804
  2787   1      19.450192775720616      6.3131215989789791      34.581660822665988
  2788   1      23.224421734253411      13.527173602095086      38.765339663272734
  2789   1      8.7479974787260026       21.04510713720251      12.781316820967094
  2790   1      7.1805147451858824      46.262546494263113      35.457979101985146
  2791   1      25.396587002959169      27.011040187292725      18.392333886027437
  2792   1       25.39240931675705      40.290398707825005      3.7839800498781959
  2793   1      23.728062852945197      4.1586279013934409      46.198392505377861
  2794   1      44.389433740341111      14.392074789930764      30.305417159476207
  2795   1      40.836031204128851      30.998001898489797      32.680828223063124
  2796   1     -2.9337508577524134      11.066029345691748      31.954778654659862
  2797   1      6.2665871074571697        46.6949246977751      12.334194194949516
  2798   1      33.104025099718797      34.475312229151015      20.931994225244267
  2799   1      21.974454987789215      34.406185894537245      45.951202359410864
  2800   1      21.096771685346333      26.731347115835717      8.6760226612155424
  2801   1      24.544274052057681      22.920402913040938      16.126644378920219
  2802   1      20.977050134217457       28.49802378375427      42.144971739026246
  2803   1      24.021274478942392       35.15418031126125      36.070704556205314
  2804   1      17.885233540347073      28.974146077415661      23.515785454263625
  2805   1      37.541565626511478      36.369664401945464      37.832551726796417
  2806   1      27.899214103623862      10.460090349824425      15.944569413569679
  2807   1      43.528637748582923      21.070812325796645       8.543640666404686
  2808   1       23.79527152342769      29.561326048724823      3.0075526647378679
  2809   1      18.812358148296344      47.842079934921578      47.589863084754654
  2810   1      38.151788783865364      38.942786129142299      3.9134487712876651
  2811   1      29.965503813963036      42.449503807019475      7.3286888800281433
  2812   1        26.8623486001011      10.755366829322472      25.915923038752023
  2813   1      31.133754591141894      4.9793642144503005      46.346893194980908
  2814   1      9.5663384442886255       9.729777047405836      47.413596690659261
  2815   1      34.120008226616385      9.4086933157224859      17.057896509933233
  2816   1      42.840437324553903      7.6435791666474238      31.377083995202707
  2817   1       29.30645258277049       20.39456065172909      39.048614198138658
  2818   1      3.3554949654799353      21.855925945156585      35.451031159825405
  2819   1      45.753463868006499      1.7102672985107115      18.850719062721879
  2820   1      14.541880884593066      38.583819642838016      26.008169296493861
  2821   1      21.598839203708788      19.978212622630615       36.41941469855697
  2822   1      9.3451045108668946      15.574762596468432      14.811319271434979
  2823   1      30.667438219703744      3.8093301569419129      41.706098291666947
  2824   1      23.658097454518817      41.736311810668973      6.5656291648481062
  2825   1      38.433344189777756      4.1257496581879725      16.532424549822128
  2826   1      15.065290750930574      45.333363612802927      20.853558733369749
  2827   1      45.536663556987264      5.7917641194419076      10.554581386414025
  2828   1      12.049758316878616      6.6384287188932456       20.95658491624237
  2829   1      9.9263681559935542       7.031807078955957        16.5736343037164
  2830   1      43.461026857603812      42.357539225942105      32.895391298035157
  2831   1      4.0965793282958041      11.961987953542359     -2.9431916383820695
  2832   1      15.142483259208976       47.45162660684904       4.428110141881648
  2833   1      32.631322417606988      7.4801284556577023      43.593927478698326
  2834   1      23.607053668419713      8.4525668354735863      12.655398719186596
  2835   1      22.605301694741453      16.084498403205956      36.118013687215281
  2836   1      11.146436041853804      3.3514347147632915      20.196919582267881
  2837   1      9.3345747437424382      42.847635997821151      6.0821271079253663
  2838   1      34.131984888301766      1.0028435690027118      37.576670145183776
  2839   1       52.46823654876026      16.148405466843666      16.719915670870272
  2840   1      7.9775345078248057       46.47866413851105     -1.5919813466853105
  2841   1      46.963057252807388      43.053270072547292      9.7923774566548776
  2842   1      25.032401903602636       27.46848328134719      29.762349160429672
  2843   1      37.226660156201383      34.977794079233128      2.8229275864553616
  2844   1      30.884681006164541      16.651740709229646      31.284108204198347
  2845   1      23.043905500281546      14.361527744009637      6.8766598526527174
  2846   1       8.249910947430994      12.135008194490316      13.275280098422119
  2847   1        26.1320998617506      5.7078692726313465      10.966057645883065
  2848   1      14.239833693949397      35.437906794116032      27.005328457012645
  2849   1      35.553755068339271      12.589026229395905      41.788002168918588
  2850   1      30.220753796476949      32.122536501653819      3.5651724508563585
  2851   1      45.227440160781114       20.00759704686789      24.418226690303456
  2852   1      16.904889995075116      24.150066044347707      41.042440114424153
  2853   1      5.1472469655415267      37.366106979828047      47.664361522811163
  2854   1      1.8291723427963773       3.502651471022793      49.224542389843343
  2855   1      29.884639776193339      31.099104187524581      11.543790900041158
  2856   1      36.389559623350614       28.74100829368323      14.458081627988866
  2857   1      48.435980018284518      16.850563187982615      29.979755452875295
  2858   1       26.41696333645735      40.322426078111896      48.395574349065818
  2859   1      40.982378199598728      42.366518281177392      12.366782854005999
  2860   1      18.920326472287989      13.223754818444595      5.3097436683882924
  2861   1      13.727964244536571      9.2377950978555532      16.393153006631362
  2862   1      24.511226552426955      38.529129836488181      30.194416778251373
  2863   1      21.812824008443773      30.356976137283436      45.009507746934609
  2864   1      7.4503012952432766    -0.42062387897591341      1.5662210071577329
  2865   1      40.102009582903342      37.825998667340286      13.567865979747019
  2866   1      5.0944299327809146      37.353902728798225      28.475277293480652
  2867   1      39.174779988649341       46.97725515094762      46.630977261045807
  2868   1      40.383099562442894      47.387634756132663      13.743317686198189
  2869   1      19.514979777498333      40.634965642253206       34.81271277000841
  2870   1      26.721802664159714      1.7970258511227026      49.165239946293411
  2871   1      4.6661005569030847      7.1771351455101664      19.847452808408786
  2872   1      53.618164612989645      21.778183409810445      1.4217825156073005
  2873   1      37.267653428974782      19.184994204578363      4.8912549094428224
  2874   1      31.835521995758267      42.145924421261128      34.300273828129605
  2875   1      32.541506067484541      30.666729447260963      13.578207003943277
  2876   1       13.32064066747545      16.635207974703317      14.008404935227961
  2877   1      45.050468861304097      5.8632755064710995      50.650669255540535
  2878   1       41.52593751541302       10.05805240226058      13.024941905274025
  2879   1       30.84025844511352      25.573855537922981      33.656385369113273
  2880   1       10.12040640300094      32.593672090837799       7.111967327294721
  2881   1      47.979131650510539      20.377875221225032      29.314416529548549
  2882   1      5.2140532526158703      18.378810273048298      12.167950885276172
  2883   1      28.018879526388083       35.05380187485995      23.274210825512778
  2884   1       43.14016928724557      5.4840462441852953      43.837810794695272
  2885   1      29.077056908676646      19.625732833988177      20.221491586235967
  2886   1      32.836963804268237      5.0340304755020915      39.509472055743558
  2887   1      43.949579274367004       36.48440872107556      42.446238330146294
  2888   1      14.730276238596726      28.467849965580641      45.656123675396337
  2889   1      28.660836626238282      14.666986442723505      37.194286097643477
  2890   1      12.001546242499547      48.691659565101013      32.870655115489711
  2891   1      42.997112969990297      21.627353298626286      4.0207734823377583
  2892   1       37.99222747127704        49.7912592910249      45.776413335914853
  2893   1      28.837655803807927      43.288318150554126      3.7439331843441632
  2894   1      27.794956749261164      9.3285977832442466     0.72430326581990745
  2895   1      35.951778328840966      21.596174632118394      6.7198249901287443
  2896   1      13.218688576848114      15.917111145434614      7.4117386333481745
  2897   1      19.727886984279095      31.677364607393425      30.416577925443214
  2898   1      12.313447405003087      3.1608515327919222      14.985649300812801
  2899   1       44.61201276295273      31.158108706243922      34.116973017202021
  2900   1      22.009412255609458       16.61603373550286      49.139177286366667
  2901   1      43.483199911740144       24.45487497247608      13.288118964523985
  2902   1       41.13894372782817      36.324577682624266      38.065783115033149
  2903   1      25.680912985024218      32.321108021418716      37.982694496786316
  2904   1     -1.0633852558555761      17.974201745999395      3.8288398419013099
  2905   1      30.948778960662747      16.764021096841041      7.2086814743988041
  2906   1      42.619134199169281      13.262047985542255      27.077750959566583
  2907   1      37.883479998467763      43.627642449197943       35.20133072350179
  2908   1      24.498820134765904      2.2091333889008467      11.496220136416799
  2909   1    -0.46391670340512953      30.083820322056628      3.8252913139749496
  2910   1      11.743971232298495      2.5208070074622748      40.732670712058891
  2911   1      35.942566703161894      6.1163559365998834      37.432436496552313
  2912   1      31.629029333540323      37.541986594075382     0.65816860450626802
  2913   1      11.659817477598921      23.042543029657551      48.087415740399585
  2914   1     0.52980292472574064      34.268250671094457      43.879998822982458
  2915   1        42.3104891248516      21.154373575413896      28.752383364859217
  2916   1      8.5892829808657982       40.31647662440237      9.2788782699703614
  2917   1      26.933751957035909      32.282427859035785      19.031247958069834
  2918   1     0.39468851885645678      34.774116273056364      13.459906344700903
  2919   1      42.606247274911254      27.509786754774989      10.236290849126057
  2920   1      17.002305519969841      7.2116782489886795      27.306058140489704
  2921   1      36.316956939031307      28.833998288461629      37.622722589504285
  2922   1      31.703950089373052      19.976058343282116      6.9896861665608467
  2923   1       38.75409189575052  -0.0022384117516665424      26.797363479387727
  2924   1      14.397797518946319      45.380602844558624      36.491138118989468
  2925   1     0.90891128832996759      32.611182910872657      10.827864281608118
  2926   1      31.953270458756322      43.190962688388723      10.233355392532724
  2927   1      22.909241300480108      18.015718018463161      19.500386808134962
  2928   1      31.561608879602272      6.6955175565246243      25.517167181084542
  2929   1       5.581586889625302      23.625270859544305      43.543929544031613
  2930   1      40.895120839506092      40.415204437044181      7.3401979505677932
  2931   1      10.929465013181364      45.736443065933628      7.1290013188287062
  2932   1      16.110305824380323       11.52149923417047      16.317742929869933
  2933   1      1.9271141638787987      31.230464610115266      17.821585984145855
  2934   1      37.871615703718867        43.8994096448764      20.853250298898359
  2935   1      7.6174182115291265       40.90247992223037      13.208354200371378
  2936   1      36.231576725790035      37.499383867125999      34.102251288656184
  2937   1       1.388013650279468      6.2340355989622749      16.889340165222986
  2938   1      11.468077988516102      3.6916375428770589      5.9391919828582429
  2939   1      24.410857831475695      36.703210305448842      25.945389229748422
  2940   1    -0.16683138393172234      2.0487623498950622      29.491814537264627
  2941   1      28.948057087593213      16.521931244513798      11.415906296123634
  2942   1      5.1885387336000379      35.619083882806493      12.971098546796481
  2943   1      18.017739589458021      4.0126616623586679      18.852886053157722
  2944   1      15.962315118256136      13.983113867486733      36.608952422442677
  2945   1      9.9656152929442676       13.08799657398299      46.494833515511218
  2946   1      28.309359162585949      45.785838807963927      33.277147775737852
  2947   1     0.37319981842911137      34.962367484540486      7.9030020259071811
  2948   1      29.841746914125036      48.710083875745525      2.1032906917164458
  2949   1      46.365469049225226       12.09863470072775      16.397467921434878
  2950   1      25.771699055804476      18.028377739216992      42.526187543574075
  2951   1      1.1362379455320148      2.7527016683112824      20.040183413878978
  2952   1      3.3961677824024474      10.884929143799313      20.832434078606198
  2953   1      14.061487900710491      28.083604274652746      35.453191252857117
  2954   1      40.121799760566596      21.571658047521449      50.429562619658221
  2955   1      2.1694006320364689      42.194512058067858      45.089628452890018
  2956   1      30.382628514944702      48.526646747721777       35.54052442175503
  2957   1      32.052067048466427      44.494104382610004      4.6995335584803613
  2958   1      22.147325869997157      38.409926286104998      17.592782971771303
  2959   1      0.6097792283682375      25.779249735210236      17.246513136202285
  2960   1      10.625470556637584      36.376206089111733      21.752928749941756
  2961   1      37.511820921946843       19.10126763143252      19.854866948504988
  2962   1      4.1190042575193697      17.873714329126532      6.7751963531183588
  2963   1      3.3850561369822638      24.505398229790377      51.490969691530509
  2964   1      35.986811913875215      40.761252862030062      15.387634191181135
  2965   1      20.545256551167732      11.373869648639719      39.755570673345105
  2966   1      43.977357471067414      4.3207237423879761      25.451169801179031
  2967   1      24.026963766506828       47.13918539229514      47.483265804786001
  2968   1      35.314755479719196      2.1968572108888282      17.889262730509817
  2969   1      31.533718626579411      41.615743130824399      13.413681670319914
  2970   1      38.787896611138727      27.586442015990951      17.803022123685288
  2971   1      13.315469043855828       31.30045082058567      13.194630342273388
  2972   1       20.43469313158171      44.577551298303376      22.655956308775867
  2973   1      14.131217189428236      44.502459907906214      24.428739436077695
  2974   1      15.207898333183312       5.613717746742882      20.774458343910378
  2975   1      39.275132715263688      29.157224414279298      42.656025745338162
  2976   1      23.981817027130596      29.284416470454183      48.207001960416186
  2977   1   -0.077849814929065134      22.545232445726391      17.952195470287705
  2978   1      36.483216713176972      31.574459753472738      17.377098982371241
  2979   1      7.8685576721093353      0.7085221761670597      35.128821966974094
  2980   1      5.2359850513278801      25.447143915133854      15.571582430616967
  2981   1      8.2031240462689166      14.919951154569592        11.3900639941254
  2982   1      33.389221200694891      46.653038570353225      12.036908744045059
  2983   1      2.2114686281233573        42.2064004137194      18.735648926893582
  2984   1      42.563899658752895      34.662007104444129       22.55293265792001
  2985   1      18.249927575442754      28.729867898423848      29.400489572531324
  2986   1      44.529628603411531      14.284836429941588      43.772076435696157
  2987   1      36.376073740049058      26.429351651703541      19.664386768072415
  2988   1      42.489211863351336      38.049180838349585       28.69957160028266
  2989   1      8.5367303170020588      41.880653330393379      20.726776286297877
  2990   1      45.688827873046179      4.8764758249839977      19.977143570049808
  2991   1      43.581768784243394       7.616687466794553      16.878260087126332
  2992   1       29.35148127839792      1.2587669293643464       25.03887627575337
  2993   1      13.266613371691301        3.92192990106494       22.49696160691694
  2994   1      28.648983276955374      37.055314392314727       46.56551807439056
  2995   1      4.3543165158564872      13.138436913785617      40.189997121149098
  2996   1      47.990165496182456      11.883603219797909      12.556114113546522
  2997   1      34.604442296372156      22.864755096660783      26.050450945106643
  2998   1     -0.2351150879054805      39.210685623440504      25.865425993550648
  2999   1      35.315885010220484      8.9204504485832707      5.9485884668661457
  3000   1      8.8434249726516647      45.649508951867887      4.4820876755952526
  3001   1      26.301583018924394      27.234268756731158       34.02315332728184
  3002   1      44.743036308262425      24.019092378928317      33.910763578607146
  3003   1      45.143100523937839      13.638906866061532      6.5680059712163406
  3004   1      31.938122201900089      42.941894855137306      37.587761133900642
  3005   1      20.535161010192919      10.252371754505857      2.6054330551537284
  3006   1      16.001084553832445      15.475950435321701      11.896064004463664
  3007   1      12.761990284013203      36.432531947781541      29.833071021916464
  3008   1      15.445524682437666       47.13544735747891      26.105271797400082
  3009   1      30.136364580297432      43.687175018930013       46.10676574414493
  3010   1      41.933718921746973      31.309235104685005       14.41997295063144
  3011   1      9.0509267533142346      23.121998411983224      38.130935386212812
  3012   1      20.878862263070207      36.721128465151473      5.0629568169546078
  3013   1      46.059838676859009      14.996395185638017       14.71824130358049
  3014   1      12.158026790090407      30.844608417865427       48.50112585190567
  3015   1       27.97464385227352      27.351496011202862      39.359654225331148
  3016   1      22.166830155447119      25.032247690721995      32.936498543152673
  3017   1     0.60815392225729181      5.1413373784712491      10.177207675531371
  3018   1      30.862182523297378      31.039558992384134      43.161093661602287
  3019   1      17.903706316318438      29.401649653198248      46.750098568056877
  3020   1     -1.2080598986742548      4.1450857682426108      25.459537772580422
  3021   1      10.721043705051811      37.815023650974055      43.115668653444011
  3022   1      10.100067122477896       43.70845842354116       24.50434130722649
  3023   1      4.8342462268843338       3.492706437056508      45.311876262871642
  3024   1      24.266799447118927      29.136477965742536      39.832081936160755
  3025   1      37.522544693533121      6.7376116486637265      5.5637911515098288
  3026   1      20.287448722965451      44.315889128873692       29.03142316005486
  3027   1     0.12539766495726432      43.514068800101427      33.238895291991589
  3028   1      16.301707946657814      47.665337618254938      31.828477351265814
  3029   1      45.741031361299768      32.760155467396416      31.257659573512715
  3030   1      43.643505958857098      8.7660783457717493      20.581617069508539
  3031   1      31.511481801042208      40.333451488311013      31.317412274346164
  3032   1      13.043233557176499      34.807896772790826      12.487849125431266
  3033   1      32.525276898974077      27.672515530889434      30.482783145787042
  3034   1      42.736057025887888       45.87885472946261      10.872307517306234
  3035   1      48.774261644879438      23.623985302553677      39.346411717857293
  3036   1      13.892785446038834       37.97517774214527      43.890300985024666
  3037   1      31.880920752708651       8.404997896844149      14.905141209829964
  3038   1      22.089534288692491      18.863448890000175      24.235898902597455
  3039   1      41.876693120912222      12.028928447605992      30.158553544891678
  3040   1      40.837854821968172      18.184232748278628       21.35198683855257
  3041   1       34.28491754121449      11.912361543518466      29.628541989390829
  3042   1      44.108790604497571      48.472394392101833       44.17839948635676
  3043   1      33.275636058075193       33.60040001879149      1.2145431047026802
  3044   1      14.210182282686823      34.841011862702409      15.868341691094269
  3045   1      48.021475582427918      24.534428446424823      47.242193008146074
  3046   1       19.21237855337089      46.107225674183823      32.783538049309321
  3047   1      16.418933769464196      10.822334971898316      9.8556271107839262
  3048   1      40.961576809849461     -1.6628811897440556       41.82788302193358
  3049   1      24.895816435172527      27.392265173634815      9.3271121748108055
  3050   1      24.748237889786722      36.447891078659296      32.917172021642322
  3051   1      44.291890034415587      17.131505863577786      45.253420096286817
  3052   1      39.618671465250273      10.483881064121029      35.941510301839287
  3053   1      35.893982602025275      36.157462726293488      9.5504634405419981
  3054   1      23.925004356219556      18.400489354161731      12.926474531353842
  3055   1      33.198023131974495      28.520964842579126      36.463561293013491
  3056   1      38.974554308141698      37.996818579879907       32.31256421857757
  3057   1      5.2196607517436773      29.476849495637431      26.643497468520057
  3058   1      13.056443387362286      28.412213185920042      41.931385459800204
  3059   1      32.945975377660169      19.173334019166997      46.714175715289151
  3060   1      39.804227786341208      16.852558094520695      18.421831492702857
  3061   1      38.332394314693524      23.521482663285301      23.826089909104081
  3062   1     0.73754077479257485       17.74645267871389      40.689845466780106
  3063   1      6.9091914960137455      29.085314654059832       48.97156262341737
  3064   1      23.721594135813415      8.0299561431603337       5.285693278068849
  3065   1       7.766329028107231      46.090492050802013      7.7626814909782391
  3066   1      35.277127720671473      44.666542417384363      10.162025258506199
  3067   1      46.223566023053344      45.756716458784638      38.770591954296101
  3068   1      16.877250917730478      8.4692121384824599      17.749280011280195
  3069   1      11.925296308790744      48.169546239378143      0.6172944088682909
  3070   1      21.648254643090869      22.503449069034438      17.804556402022325
  3071   1      27.321498013305614      46.198640758787505       14.31267599859523
  3072   1      19.460235699988289      45.556275128829633      19.608726443086866
  3073   1      17.565395714970872      37.616152983906574      17.664686392584873
  3074   1      35.909162601476673      10.833071621466638      32.394925372021795
  3075   1      45.552195643388906      44.589784662593047      33.946999676157219
  3076   1      17.865387386886866      43.034107914387612      21.304007725946359
  3077   1      12.832888271218915      28.300414158575798      2.5379699318401547
  3078   1      36.288716753561452      39.847129186691419      31.902315124501932
  3079   1      36.899927108748933       37.97463659338154      21.712709401397341
  3080   1      31.032422708929008      4.9974618092264418       33.17472606173294
  3081   1      21.018071648793217      26.054670141072592      29.914937507664785
  3082   1      30.505076156822092     0.44077783514413454      46.336412966968524
  3083   1      12.408545987041698      9.2133615321782347      5.0958311687780817
  3084   1      25.942684101758747      23.125539242184978      33.298379433225413
  3085   1      49.038286754834196      46.410483268211365      40.464872042282877
  3086   1      44.003999820493362      19.579983804272011      18.360464315176237
  3087   1      42.468080288138282      40.166221922169569      14.312247709290768
  3088   1      43.842944927213281      16.465540792896029      12.140129481713746
  3089   1      25.391032346239474      16.285734600382899      37.854533966574287
  3090   1      4.4585216818544362      32.189441334465755      29.608146955099709
  3091   1       40.34400297926792      32.104463116300089     0.58864334127709805
  3092   1      11.092875718784834      38.863721418731807       11.06445695961801
  3093   1       31.53763870757945      25.931103159864115      5.7626411403906026
  3094   1      21.360920378414974   -0.039699998544868886      22.106311602430104
  3095   1      26.170800936002415      14.324021683736698      7.9322608969119699
  3096   1      14.431188913742682      26.385044447404834      10.453794055496076
  3097   1      25.876045367584155       33.79257707587422        8.08526595155171
  3098   1      4.9596863212589879      20.720411298391642      15.975313020772868
  3099   1      31.771989005498174      24.946555726472269      15.970870159692717
  3100   1      31.977410502123444      31.307051206359514       46.56591486555596
  3101   1      39.568549686229616      12.406399178498699       32.93366424038679
  3102   1      20.489116264545221      6.0413922619932254      4.8594005954806629
  3103   1      12.842199719265084      32.798315185572093      9.5648365329104212
  3104   1      20.472361582178593      39.890783900914244      15.149673165308212
  3105   1      11.072222023109759      44.701130138316898      43.526445003167908
  3106   1       14.98375969874647      38.001078611080509      40.640623144968679
  3107   1      35.806419109867548      18.230725696317961      47.854485611162666
  3108   1      18.061242806332256      23.901732831949932      22.205665051028749
  3109   1      27.349718381270101      33.924018222218017      11.216864695405437
  3110   1      3.5570932885057793     0.69333951944185546    -0.32420491246118421
  3111   1      34.362958333034285      23.052408942530189     0.76675684704718849
  3112   1      41.687584197144979      23.559551719389596      7.3066543470270036
  3113   1      44.585632648462649      26.675705648310245      50.679185368863152
  3114   1      11.462807494302806      34.645939847534414      24.387641568061497
  3115   1      5.3242195485768988      35.101592936835715       3.286412094861952
  3116   1      44.120424378977404      40.559481052274883      44.926030344652887
  3117   1      23.019051529207402      22.540429299887819       38.74447336977498
  3118   1      17.837590306362674      37.143721278970489      23.536965816019659
  3119   1      24.389208243154563      34.369750719541067      19.050783983283203
  3120   1      27.371409622776774      15.310536546122693      30.433549897092615
  3121   1      19.537707829829184      35.231407731943754      21.468980070798988
  3122   1      31.577453597292379      45.304479384199674      33.318914955569028
  3123   1      39.080466524585972       29.83344635713479      10.794077615086083
  3124   1      6.5320077174895017      30.915441814383129      20.214318131190716
  3125   1       26.40406442347037      23.256216993658583       5.817510109356693
  3126   1      26.663572212064953      21.170611815600171      29.927880851520985
  3127   1      44.968163861691586      40.622717379150018      11.725108552811287
  3128   1       38.82211699246384      7.1058070348283024      15.094921213002237
  3129   1      8.0481496964876751       42.07378543579614      27.421823831437276
  3130   1      42.190382934902253      31.758841058337314      37.897381853778413
  3131   1      43.373720102054975      33.263568967969356      16.916797294769786
  3132   1      18.957226417776415      26.336982292008884      16.968032280185607
  3133   1      24.508184322071408      24.951528595789878      46.354559180595231
  3134   1      6.3229719989457918      47.627292222303048       40.44185701604875
  3135   1      48.605869940259836      44.369028070882955        36.8085928114021
  3136   1      36.832101957720809      6.6844186377844812       21.08153081759183
  3137   1      8.7285086010148625      27.641852106929214      43.652652755345258
  3138   1      40.023415329119587      14.064361869817764      11.673267764822572
  3139   1      1.7586926248018309       5.021683275333106      44.935079597194125
  3140   1       34.72882609354415      16.441809966712423      41.203639096518252
  3141   1      13.119023920112083      53.545504888141835       8.536368019210288
  3142   1      26.004718025206341      36.663300157646894       50.34287030724024
  3143   1      34.594014888704784      41.336525862900416      11.787430144190234
  3144   1      5.3900268740373978      41.234097716244257      20.552353887151128
  3145   1      18.961798648932351      45.708567943625646      26.265247505501367
  3146   1       14.50419616948828      36.190690221053352      19.007409818212437
  3147   1      10.666758788536677      33.543357429357641      47.270471699092809
  3148   1      10.861059645119576      24.803275720311227      40.530915725464808
  3149   1      2.8495687873681281       35.66428453874456      16.277374634560402
  3150   1       36.48573696692506      16.405025972413828      9.3208758684438653
  3151   1      16.996658008489483      44.269585586562833      45.122790658930235
  3152   1       24.06636844225681      13.528191855592521      25.086581456845128
  3153   1      25.723475415677843       38.65226924217972      8.2638692084366436
  3154   1       36.14965307214861      19.496533544398851      16.872133522714901
  3155   1      34.626267094579795      12.330414933587537      12.868306719836237
  3156   1      2.9307946448747475      15.295764916797577      9.3699694466685877
  3157   1       7.845143553339236       5.153262544286255      43.309561137673761
  3158   1      35.594009878541691      47.183540325832375      3.3521766252744252
  3159   1      39.303370387708071      35.114744146257415      23.193688678947861
  3160   1      43.286515960731279      43.666581870503961      7.8642297219959927
  3161   1      40.727875502850893      18.086202074078656      5.2680812624762003
  3162   1      7.1044996393522775      42.367312644582313      3.6284628442877112
  3163   1      39.266284984577034      6.2127504116737908      23.767432496202726
  3164   1      37.110516334459405     0.81757913319278464      20.914691030381274
  3165   1      21.786960233312399      11.455766076235856      12.495754821975899
  3166   1      2.5339578976068693      37.150218094358458      38.058869826758318
  3167   1      48.038199626683991      29.056343541095341      25.932368032725591
  3168   1       20.89568249613647      47.390394222776656      6.4587618358164933
  3169   1      4.7392287122869829      39.997747266732262      31.334642524569254
  3170   1      11.960270121370966      15.998600924621327      46.767677826514543
  3171   1      26.415447446072847      40.274152715426077      16.916726530952566
  3172   1     -1.5157072348719232      33.074793596010977      50.903436385722415
  3173   1       36.19029597293266      16.513740534577678      26.956784665581786
  3174   1      22.939818971435194      22.234486338068734      6.5886126989905565
  3175   1       3.245790493935989      2.2160663469457753      13.651832333265022
  3176   1      9.2068107398132959      18.864176854406757      39.232775912420216
  3177   1      21.772799212019418      11.650375947555936      23.879636007163054
  3178   1      25.801384815738402      12.971657471125116       4.500064905417906
  3179   1      11.736976473027571      33.662359682728379      35.154703864585827
  3180   1      8.0578558058241363      14.321533435182124      17.616357033043737
  3181   1      44.580555450889371      33.376734271560217      28.031578797883689
  3182   1      25.811630352034804      29.112087139414239      20.861755937808983
  3183   1      34.179292856675438      13.997263312533518       47.34551474696395
  3184   1      6.7204310713708608      14.207465488177538      38.234640130046586
  3185   1       8.065276682170607      37.502217148414346      15.215352147016512
  3186   1      35.722992523146885      8.5376335969768604      9.8021939342873416
  3187   1      42.859522892887242      25.720805703826066      21.527273727057626
  3188   1       7.178373287380583      5.0564860803456142      20.452018695443652
  3189   1      25.302555346002123      3.1368780992978436       8.512571333678256
  3190   1      46.646932924830217      23.380904797296512      25.838999101265973
  3191   1      20.614905732375192      38.194723833592171      36.808068480743337
  3192   1      17.891547662225438      45.723587432353717      7.7274910876200451
  3193   1      3.7236461577074467      46.668707347910292      42.354373437325734
  3194   1      43.998650164964374      3.2463885851910725      49.127819082016053
  3195   1      45.959200075108235      15.525829469658795      2.0391322110419439
  3196   1      5.6659435868819008      42.952069994364571      32.199782639420349
  3197   1      27.364492397484856      4.2572196996779237      44.979385852164604
  3198   1      4.5062251856204929      35.625488774917635      44.690592034916627
  3199   1      15.136466415146399      30.038920551026131      4.5057552872043152
  3200   1       49.77621970549724      15.645578995536541      34.593761048385637
  3201   1      43.010710888223592       47.21226109548838      5.8819574929480645
  3202   1      10.805217277044891      29.832145371307604      29.263061381831346
  3203   1      36.553971795217315      33.106583838006578      21.584922946717725
  3204   1      16.333022108779687      34.567854951595741      22.021041825489768
  3205   1      34.137387816908223      17.786640918939771      21.256190968034129
  3206   1      42.162218068439927      30.790002938093842      41.012427902190055
  3207   1      24.454385459871453      32.682501140087069      12.541545861997234
  3208   1     0.31515600789672837      17.143777131876274      11.149983327895152
  3209   1      24.560955713626477      36.542748135516227       5.207449360364806
  3210   1      10.925112435481044      21.415193080966933      20.930052954153176
  3211   1      30.336583067610949      16.969266011848575      42.276520907533197
  3212   1      31.897569135968023      14.572736657092921      39.715354098613844
  3213   1      11.550573768245131      44.546625109722982      17.774634675268963
  3214   1      38.667216801582263      10.435738583914294      44.447259789401429
  3215   1      12.889918966710669     0.32546196969873142      25.350351592186207
  3216   1      37.765367902716676      31.321899127131349      13.315950621329185
  3217   1      39.399510243689541      19.736003883955387       17.35201854935967
  3218   1       26.52773371816053      34.486014515031862      16.479017222994926
  3219   1      28.546941558610584    -0.52992634214501722      41.271271398049919
  3220   1      26.783558255176104      1.7740452811592577      37.436942001492909
  3221   1      30.200948802460353      42.167974363075082      1.0950358404955565
  3222   1      36.198336390857477      17.465788647315808      38.667492165618945
  3223   1      20.776215076335085      14.070577310791498      41.559857046607881
  3224   1      1.4974037898683346      11.667180614367396    -0.65824185945229696
  3225   1      16.411572578537228      39.560634928800141      33.309882447766576
  3226   1      8.5658389241342956      21.263953507929262      42.218312892196572
  3227   1      43.022198567989889      26.822413312677522      15.934775309726684
  3228   1       1.766936529551981      3.6483944209773278      27.255019372796596
  3229   1       21.96470222151261      6.0741215231795493      14.630002094356113
  3230   1      39.674640747582032      46.518558997892441      20.986277500099703
  3231   1      32.972225708598195      40.390741469173733      17.081823642085681
  3232   1      26.118417154625465      37.721908938237057       43.67470310346301
  3233   1      21.834289052106037      25.161333289253658      23.910989339609259
  3234   1      33.796660181166907      5.6122416432405746      28.589090378163792
  3235   1       14.32022819987883     0.75704087858193381      43.689978192349002
  3236   1      41.797270249978247      18.338158414150918      24.661203387193982
  3237   1       40.28335856533041      11.270987279290575      25.677072117803888
  3238   1      43.154108435040087      45.818214309094849      35.909430877041551
  3239   1      43.463248343953111      28.572734595547434      37.036874311129999
  3240   1      32.803261888455992      19.387470343251557        36.2129808059765
  3241   1      47.426033828344792      33.615918772183825      38.235970376249675
  3242   1       4.582089498638223      10.096651575192229      48.477130050603868
  3243   1      31.486040983402244      25.512062540530117      45.144639494467555
  3244   1     0.31203213384198009      41.348195621701151      35.891375393566918
  3245   1      5.9294132668085195      22.222427353309719      7.0598823426981747
  3246   1      47.536590058932156      46.298803913905921      27.558794001935194
  3247   1      4.5981550989523008       4.683474508612405      8.6380500020643769
  3248   1      9.8414263139813958      39.872064374520676      4.0147615871969551
  3249   1      12.831914487983839      26.930933426435001      27.828488915313706
  3250   1      7.0651348745193161      7.7927573035118485      46.512713566339855
  3251   1      13.173619371414363      38.597470298097669      0.5598899863292135
  3252   1      46.564676053977038      39.108819742139588      29.388009192144946
  3253   1      30.310709332506555      11.519938385674848      44.724775053579229
  3254   1      21.885296309949322      1.7775296712387318      17.436843048413127
  3255   1     0.66570898750786567      33.110524983171096      23.582903373765376
  3256   1      22.710909841569475      6.0141770672315813       34.87171974704404
  3257   1      2.4317422399982451       15.39133064254346      42.740763107493528
  3258   1      9.1429388000831313      40.959828701281822      17.677068925889316
  3259   1      22.837361804752106      15.847758883130265      14.786072964693929
  3260   1      23.041788399175292      44.847635087155894      3.5677042301828465
  3261   1       49.32844627762433       45.25128616416643      12.310181570401804
  3262   1      11.995266557096832      20.714486030140339      38.650975786802533
  3263   1      47.395591021126549      18.836583627673111      20.368948140953673
  3264   1      5.7538342639222142      43.037289614324521      25.224518523282686
  3265   1      16.904929824815884      26.198216807946491      13.997800936258827
  3266   1      25.926122926157994      25.430783247269986      13.287140527603329
  3267   1      22.338106930293797      25.995444389351924      38.351516882343056
  3268   1      11.374170513178896      37.731923368345242      26.921702976175013
  3269   1      49.262754816833748      15.210454142122497      3.1329228127402922
  3270   1       4.616771989291407      35.784744016552956      40.551504805232341
  3271   1      23.718591264355261       23.91236445029946      3.8182592176735266
  3272   1       19.30344424814994      32.533533689188388      8.7815433240532563
  3273   1      17.940321009183034      2.0759286684730829      30.588610300859525
  3274   1      17.478078114889751      43.203220006976558      48.904669821101457
  3275   1     0.46156257472034207      47.261396701248501      17.391551454187123
  3276   1       5.496053745610312      3.4430066988607888      27.013619046922013
  3277   1      42.434536438969666      31.301237541246628      29.855765083173875
  3278   1       28.84237517665569      13.269037973764009      46.930608438668173
  3279   1      17.263743353303617       33.32991110540128      28.317197859479673
  3280   1       13.76513415813165       15.23337239547301      31.520640940745817
  3281   1      14.699792694250934      15.183694942522001       20.77837638175977
  3282   1      38.704411317135417      3.5319632842451365      3.3898864722743176
  3283   1      9.3418167815470241      14.132264578692933      26.131823355636008
  3284   1      29.061849760658994      27.839234317495777      42.372825148036306
  3285   1      14.859369303951295      21.792867698377417      3.2041606727559109
  3286   1      4.9981681803119322      31.762899129485973       23.05682731350689
  3287   1      14.422204968089071      23.048799295896099      17.988343752809953
  3288   1      2.4218723945792791      21.265422102473043      3.3633129002722746
  3289   1      1.8101459743909039      41.788939598675725       26.09966112848857
  3290   1      23.170746653289434      10.753715368502412      45.386816018770837
  3291   1      35.483660557746681       27.58742771986827      34.405967438064351
  3292   1      30.088868268498072      22.350502956517943      2.9387479653611885
  3293   1       23.73732454481555      31.060526875584586       18.51020617624836
  3294   1      46.703363760427706      22.225665567391186      43.456961518221533
  3295   1      23.667105925515042      31.719756826607881      41.842413213704184
  3296   1      6.0958055023153026      13.164669657717193      47.839842912935374
  3297   1      27.216572790116508      15.552139239339182      20.564863935632442
  3298   1      12.987750743879438      46.400418346162397      46.183224503917536
  3299   1      23.085260307998627      4.8239304526090754      10.498497866847881
  3300   1      7.4371456711802812      27.377865991105878      32.508791179088682
  3301   1      32.660222498078667      33.436043046397238      17.922462196314971
  3302   1      42.020460203434055      18.405492967770293       1.163587381600951
  3303   1      22.321501167015438      8.7992055096240218      20.822629016959731
  3304   1      27.013665582845743     0.51897206925489137      33.588893048543547
  3305   1      10.259395357221839      48.434930223951859      41.252278597709306
  3306   1      5.7111985374783663      16.490579983149381      40.675854035153151
  3307   1      20.188544785521543      5.7866737264236745      21.790131031404652
  3308   1       25.78965339281406      30.286541396391677      44.275290966108123
  3309   1      2.0429091091832672      22.314293404191957      20.232362313015198
  3310   1      47.272683685269151      5.5582893636433193      34.596021831435436
  3311   1      37.407034189694322      39.954868510044633      44.899225651517249
  3312   1      30.774706509745663      8.1825463904789988      28.394934914869975
  3313   1      32.434521042626962       49.47400537823146      10.552335624461403
  3314   1       44.10916773987686      29.903721647729704      16.775839557483277
  3315   1      38.748929866641724      3.9615372340525044      34.518775316061578
  3316   1      19.319895117807292      31.060372805056289      27.008252270150585
  3317   1      11.761261718622565      6.8029827956089477      13.900004732610963
  3318   1        48.5882736679579      37.601119730973494      1.4369504950439187
  3319   1      1.3131668536384322      26.547994487023487      22.595872306956512
  3320   1      40.000526586852416      27.505506530263055      35.098446481435289
  3321   1      31.472004549188338      25.769142397592507      48.435279475573353
  3322   1      30.480369405993944      15.354832095872817      21.150957216008461
  3323   1      31.711637153154051      3.6050570459942213      12.242731504867599
  3324   1       33.64383959656957      33.686944693464781      12.397644297462904
  3325   1      4.7271666683715932      4.8104003784708516      29.897976849129748
  3326   1     0.72307003932895841      39.663864377061813      46.597632728761184
  3327   1      43.042806579054535       5.912095948085863      37.672367586220844
  3328   1       5.552277521178226      15.173781095096855      21.086219278465396
  3329   1      24.826407841041345      1.4474060697573552      31.119314567437616
  3330   1      6.2420960808682127       21.01941670564646      36.850958653612487
  3331   1      31.399535825524236      5.7153180907333452      1.9861362273880869
  3332   1      5.8879969203345679      19.081499237187732      20.087066604562214
  3333   1       43.48810624760786      45.108699561175179      44.213391312062249
  3334   1      48.003354631711666       15.28044044942386       42.19810734931081
  3335   1      42.683198016482109      46.990984788161278      46.693331884732316
  3336   1      34.623730706977135      13.574219315154332      6.7061432956634546
  3337   1      12.450007056260777      39.236471000306615      19.780442249057888
  3338   1      17.543983615281892      5.7482916438969776      24.277768897524474
  3339   1      46.790517898765238     -2.6318965014881801      44.344172350448638
  3340   1       30.03922874973712      22.070100236698316      26.555331564574676
  3341   1      9.8763825378183103      33.529005849440743      20.074357644780434
  3342   1      39.798647005495141      29.314687593994705      29.993448993797021
  3343   1       28.09568195738095      42.949999909246792      15.271517545824141
  3344   1      26.441060870079934      12.556267467141398      37.770514231490054
  3345   1      20.928036531409667      47.499253290728653      38.729764575665911
  3346   1      1.7988311265132657      0.6799681998705337      2.3538664192715433
  3347   1      18.844929287919918      37.378403358663533      44.316816622618475
  3348   1      18.115583468587989      35.165124393537674      31.063500600609689
  3349   1      5.5246641159361065      39.678063561052895      2.8836743174938841
  3350   1      29.355575868309323      29.258838588454879      19.188062293347215
  3351   1      42.408972513493772      16.261510425370286      37.893783207117366
  3352   1      12.136953329591687      41.563613734581423      27.150116017770703
  3353   1      44.528016985473585      49.013062886397925      8.6850059879046348
  3354   1      8.8305188495375084      5.2863017636118093      14.088885276909076
  3355   1      18.295040906783026      8.1604081349582618      6.7568591792978268
  3356   1      13.298475859580945      10.264251086013838      44.880317386655484
  3357   1      22.375533665817294      7.2417764259447281      43.080952189931544
  3358   1      7.2446514418818877      22.320034772438657      4.0876803169147342
  3359   1      31.398102524883797      20.959940324644631      22.147339905895574
  3360   1      43.870172671965413      46.780268373614668      1.1583249081359854
  3361   1      18.531353753976457      1.7513109184775935      22.949118130944584
  3362   1      43.647420587833523      11.548480927179146      2.3235640529103576
  3363   1      39.739545126783192      28.407289019725372      2.6230738509289275
  3364   1      37.472403980392222      25.876245611653736      31.119994666521137
  3365   1      46.947225171236113      35.862188165426041       3.770638434041556
  3366   1      17.031234581038476      44.916452153928986      28.724385047879753
  3367   1      7.1868401976640879      10.541224410338522      18.474461983683671
  3368   1       36.51713909957526      35.987799815790005      19.266359896964111
  3369   1      34.797152728811994      36.724596418937772       4.688910881397109
  3370   1      15.804387895720055      40.022938087895497      19.561784334936746
  3371   1      6.8016941958996426     -1.3517083345891836      16.282239584356546
  3372   1      49.606893767679423      6.1696235428248425      20.131983992973936
  3373   1      15.867578858336989      14.912913840773362      46.037090881951272
  3374   1      41.952606109189141      21.594918340886334      23.393461709362917
  3375   1      38.703386759663573      7.8240792267266581      39.882194874458158
  3376   1       18.77327778344166      7.5452781293754594      46.714880029910674
  3377   1     0.71616027050527498      47.370407230952821      33.572089793560536
  3378   1      31.421084606012393      17.957492977172567      4.1648393671272252
  3379   1      48.019034419653529      47.983258472278038      4.5965017787283422
  3380   1      18.177128960672103       30.91470032630313       43.83746872174342
  3381   1      37.663919317704966      30.495803810692621      45.400296670476756
  3382   1      5.9551469880466064      22.936459852193281      20.001730042117149
  3383   1      19.986917912557093      25.985250972526277      5.8491363954885296
  3384   1       41.49160360718431      5.4099743730146335      1.5776519171008208
  3385   1      6.0671262603947111      43.835012718325693      46.502468393857008
  3386   1      27.605722338760138       36.73015321050606       40.79750295353481
  3387   1      10.115660618217321      28.735674878718672      19.616010988430119
  3388   1      37.470748588113779      23.186441591137733      18.879515457038327
  3389   1      3.8556111413502463      5.1393226816807038      42.021465637636354
  3390   1      11.257285079292332       5.142368093111358      26.601253749804009
  3391   1      10.829925549566429      38.924287883760861      33.605073282650025
  3392   1      29.200459421727707      5.1716381025661384      38.618266430993799
  3393   1      43.995837930553407      5.4406138802956372      14.376689172898432
  3394   1      4.2876700761212634      27.764951721426094      33.754301203722861
  3395   1       11.41675617552932      36.973913564870564      14.617992226316986
  3396   1      44.425792792503358      34.123288612145728      47.507158460653095
  3397   1      4.9188268950960925      25.978843622629061      5.4652468206476224
  3398   1      11.882929875008797      14.845188235416643      34.211695102546578
  3399   1      27.337978062750494      38.309764267791017      14.262367567120645
  3400   1      15.733985397454886      22.982500103210835      33.190284456624362
  3401   1      27.145131941474894      1.5369993932996588      12.908485556146967
  3402   1      34.795581256519171      38.325309740964741      45.221225115990848
  3403   1      49.149261156627126      48.170808147041811      9.1917477968672721
  3404   1      8.5324489013221765      33.891495411056255      23.116956900091626
  3405   1      21.048204381611804      12.727136151218868      33.320333830116219
  3406   1      24.904225227062508        30.6522146960368      28.361533385022181
  3407   1      38.754408961787789      33.463566155812551      38.329392838820752
  3408   1      39.248635353582713      43.083754244614461      44.548495716508526
  3409   1      20.125816569426149      43.945841673907701      6.1928547841364381
  3410   1      10.023770313188711      24.724307495184004      26.157906893124924
  3411   1      31.356472712169356      13.084846892736861      14.705276588855256
  3412   1      22.208071460409364   -0.052457059361567838      32.869899559797453
  3413   1       30.09690195305387      19.701390218423786      33.008114004698022
  3414   1      36.558573425683953      25.061204450933445      16.494972276060274
  3415   1      23.885707703768471       9.403329785811902   -0.048832288714622203
  3416   1      13.120840327217811      11.430248425927973      29.230174718826714
  3417   1      26.003900343091217      31.167111631142006      9.9308828893025076
  3418   1      37.388794780853218       2.084471837168687      38.714178948409753
  3419   1      21.255758568454347      12.250658549781704      28.553255945184176
  3420   1      13.654861030019733       17.91297321521666      18.605115618708812
  3421   1      46.135085569373167      39.545326033218629      47.345591387788431
  3422   1      40.895024683258129      17.770683970920324      13.272390920905368
  3423   1      37.148215967988158       32.50038559746784    -0.02111316088098885
  3424   1      20.674468769342695      36.549076247180381      14.885638190112344
  3425   1      32.223392122351527      6.5067996128347003      11.434218759018405
  3426   1      28.442713607732856      7.0129954041365883      19.512291337369135
  3427   1      29.711115153906494      32.085755921550167       25.50959822796834
  3428   1      7.0169512205934943      15.643992829198071      29.443604750103503
  3429   1      45.728738315270846      2.4791405209520967      27.848653592464256
  3430   1      47.092203765075304      14.084143584034029      10.328197584263879
  3431   1       47.51615280157278      12.001714131421398       40.73845517070145
  3432   1      32.440730891613072      31.406039656804737      22.107670864019251
  3433   1      24.941300205039177      21.106201285159035      43.679539722458934
  3434   1      9.2337817334319503      51.498774108535315       17.00853102576508
  3435   1      7.5187202868037888      38.810698594163831      19.565756433280221
  3436   1       20.71488056866891      19.222583933228201      44.967985128038208
  3437   1      36.678317108615353      40.703871665943566       1.103250818276535
  3438   1      15.654498357346164      9.4612467152275439      12.683408429883952
  3439   1      40.466599404527429      42.131259476053131      49.965382554884705
  3440   1      41.742903061241904      19.509524523268627      38.036299786148909
  3441   1      40.501906158589179      40.334524380818706      30.351160563506507
  3442   1       27.68870885371155      15.818143719659338      5.3856958344694226
  3443   1      12.715512497387282      35.251406769645627     0.87679912486010059
  3444   1      46.109321089121217     0.35122547771410745      35.359724022920517
  3445   1      29.615570963633356      32.820303683878443        6.83097186477137
  3446   1      46.972602772859688      13.458007012005664      24.514847534151492
  3447   1      6.2751360467497737      40.340697695258058      6.1812162154865629
  3448   1      3.6295061606010832      51.211351498346545      24.445842173535937
  3449   1       26.71667765120652      6.1167367651767615      7.9411989408401524
  3450   1      5.8793951433502984      48.490585691628887      24.286280554412006
  3451   1    0.093786177479022528      12.528984004187111      35.725753411822446
  3452   1       32.01739969049725      37.899048147878617      43.682326293432375
  3453   1      34.495645601780488      38.316501756619957      37.790650404743516
  3454   1      13.801642072429731      32.664437245242297      30.996914391759489
  3455   1      12.274282637445635      13.644652223946791     0.40829078802717605
  3456   1     0.36427912670408374      12.020481225668261      9.5219934519607765
  3457   1      33.750681432970026      37.859120783358655      20.105395035943069
  3458   1      4.0681009655656881      15.166118786317142      24.811342018113095
  3459   1      6.9195701271219319      5.5999848950608886      24.470662256663903
  3460   1      26.502195416980324      10.639337745696443      45.914083017795484
  3461   1      25.139335089636898      47.027579942099315      43.134269165421699
  3462   1      9.9885483064155096      6.7779962210004374       45.84869476272506
  3463   1      24.053133790769145      37.690038026684434      47.407890576185963
  3464   1      29.147051401491233      5.4692522149020775      12.899654943440128
  3465   1      40.365980320019546      10.669899485831435      17.881596312755924
  3466   1      15.741290909625398      25.076762755703349      24.508277491174418
  3467   1      8.3374544834872673      24.380868491366346      13.110192475257053
  3468   1       21.40806524039564       23.77926600941823      36.189101186509774
  3469   1      38.258048592374863      29.425233599320265      6.0639786063101209
  3470   1       39.47931568842526      15.024658584991791      8.3862082204058712
  3471   1      18.612232634535719      32.489449034508219      23.321025528639655
  3472   1      44.325554201442309      16.460660999777858      35.169616393679981
  3473   1      43.218878134730083      11.220124350318038      22.761966162791346
  3474   1      33.094878785777361      16.724854784021183      25.149655322543786
  3475   1      17.164366981377935      43.997136292988927      39.596722547713462
  3476   1      21.322503442077608        10.3667440422252      5.7122394013417344
  3477   1      9.5499257236933168      35.669774870281593      1.1249571372337412
  3478   1      1.6556041831297204      20.626690067248742       38.11125490253805
  3479   1      41.620815215147076      39.526748360767371      11.069221514970655
  3480   1      5.2643888329911057       20.15727134908408      43.895997343015551
  3481   1      45.830795380211633      39.214595837556402      41.969286992044218
  3482   1      41.668408637237299       39.53125745990679       18.91433167509491
  3483   1      7.2997191999291129      25.546556168788694       18.47489994838093
  3484   1       10.28453382345616      44.581071256937555     0.26943021209621859
  3485   1      29.360126765598014        28.9762871467187      7.7081210264750295
  3486   1      18.807558314659769     0.42245198877736018       33.44401044714602
  3487   1      43.651222966322777      41.587466444145754      1.3296057116280895
  3488   1      29.445628475972597      7.6212044724058075      34.685163498297975
  3489   1      42.866622266865257      41.379816607632648      28.205163140079929
  3490   1     0.89605279183846287       14.82316677806633      15.882816501451208
  3491   1      38.907529767392099      15.583359513996024      22.393034782453018
  3492   1      23.603517296125482      35.507219341232449      43.105273901317965
  3493   1      45.839946996488919      24.437172829731502      40.672543345599976
  3494   1      28.736931136031952      39.088922010446758      2.8113845304067513
  3495   1      4.6014997611530273      37.055219507978961        5.90600474895533
  3496   1      23.942875629482209      36.617915712582921      15.091556758657346
  3497   1      3.0754564941335634      37.111030483407056      1.8174493788455328
  3498   1      44.836700171923141      30.125019367067424     -1.4436605381011964
  3499   1      36.447478867943218      13.186020000084707      16.414480247542656
  3500   1      35.599194524189699      14.169675875901547      24.291266123721197
  3501   1      18.639880574461412      47.422601085139675      15.333668435748809
  3502   1      45.401816089952526      16.966006304270383      28.606624581585674
  3503   1      13.437524722199827      24.557096918659695      34.809064233038079
  3504   1      31.156390865000585      42.308943832116832      25.624240462545675
  3505   1      4.6568933975455025      35.414909298963977      21.361241606879389
  3506   1      24.087914618482877      33.396190411209794      25.667597577372256
  3507   1      22.966102448304952      5.5818226175331516      7.3909636867577788
  3508   1      11.050556048608769      33.702528245164444      15.667113827191004
  3509   1      7.4578011988348898      10.824377622762208      45.033414350857264
  3510   1      42.906762546457962      8.7579845007067014       42.67046623777955
  3511   1      39.759264332205518       48.16913611760986      37.331281760020296
  3512   1      22.390923832346466      16.150018370557351     -2.9378612413902192
  3513   1      22.200899549711959      16.036819645148583      3.8627457950056847
  3514   1       47.42027692435574      14.119826195413481      28.644358738632064
  3515   1      49.350437744805809      5.8414460893535924      6.9777496048387446
  3516   1       38.46783959430207      4.4753377151476839      48.012272037415826
  3517   1      42.086622404046238       24.72258851235075      25.688348478664977
  3518   1      14.546385285254114      37.876292357832007      21.981130303468444
  3519   1      30.221950680386193      4.0061509500757877      16.240890381712074
  3520   1      22.098832132800599      12.438338615873572      9.2226263662830608
  3521   1      17.293143050644471      13.684102501445334      29.730261123732394
  3522   1      2.6755971221125967      10.880829632361447       28.65181222905527
  3523   1      25.413276263554621       8.023181341247005      36.665149329336863
  3524   1      14.848165803064646      20.600291524027273    0.070052424691736476
  3525   1      17.142589652694301      32.222976152329522      6.1996909810352685
  3526   1      29.394345742001931      18.572203056719452      47.917055640660834
  3527   1      22.341595980560108      44.213688275922841      40.529140243761034
  3528   1      9.8749041018300225      17.423133032434642      33.267557739368861
  3529   1      22.387212745719037      29.413608987395349      30.023505835347617
  3530   1     0.19937391715890912      23.227974607893575       1.805948827074684
  3531   1      16.762092385778235      15.623017037068683       6.168922375962012
  3532   1      45.790727391348156      30.390528894667316      23.498110113144932
  3533   1      31.475514203281559      9.4112478031730262      7.9630411494936713
  3534   1      6.3109072681103022      28.879810146775952       4.143784677165872
  3535   1      3.7857419746366556      4.1412876923642621      5.5635722297511645
  3536   1      36.196488781117935       10.77563665323682      26.924234061734801
  3537   1      24.418528083513518      32.092525101191519      31.229494347531528
  3538   1      8.7348167636015166       21.01039798331437      18.145223428478602
  3539   1      27.903832790373112      38.576753330715277      23.779922606011908
  3540   1      24.380631250125639      6.1372735442859563      17.596590312918067
  3541   1      46.156057355286215      1.2536826354952129      23.540654115797718
  3542   1      8.1340271339408776      10.359755484012677      4.5972929909521758
  3543   1      42.310665938104222      1.6878754012584143       10.70992915556943
  3544   1      45.914043579680182      25.322140480611733      20.434921194628856
  3545   1      36.085572277200029      35.476329960140653        44.0088780472176
  3546   1      31.512768911149742      37.770953014383423      5.2044193827252787
  3547   1      46.597848448769554      37.427932376053654      8.5493438268270907
  3548   1      20.123973657780944      1.0386370967070724      9.2689596119668405
  3549   1      2.4494785779528789      18.427550446761057      43.628855153976062
  3550   1      3.6322237212436583      28.764418647869988      15.456973017164746
  3551   1      7.3968717655316771      8.5296573318669253       14.86267154618656
  3552   1      1.4790155254781088     0.51249597307112582      22.511258008250351
  3553   1      34.306111034051334      33.710319204166836      27.937316976210234
  3554   1       14.02121010025895      11.692263580743976       32.82090047279388
  3555   1      7.8165836122201187      29.823607509695073      23.357310565110943
  3556   1     -1.5697760231561384      8.6082989074579821      27.571534332523552
  3557   1      25.362464410756427      6.5582078045823646      25.295024645282648
  3558   1      30.694878547435529      6.3371404876918245      5.1580932799123875
  3559   1      35.123986037934678      4.7460355877455864      3.7570538738303019
  3560   1      9.9846586492568488       24.60051213849966      32.609689088367865
  3561   1      46.745944316487609      14.928604141260786      21.524964774768133
  3562   1       31.02106484446411      38.396775305439732      24.695341258184687
  3563   1      27.318637302679388      44.363786963878177      43.606499209047577
  3564   1      19.058119828178569      36.765316854798179      10.208771810339714
  3565   1      7.5801092155185543       35.43654715078312       46.57309288062725
  3566   1      17.274124195010703      22.357129056689992      1.2903363557293317
  3567   1      38.603902586758181      7.7179140347759114       1.675965122114498
  3568   1      37.508546952823217      34.992026206809918      40.942427537002757
  3569   1      17.771081750074071      22.254488040329296      19.162189714101117
  3570   1      29.582020315567544      36.321521071880802        17.9502890186691
  3571   1      24.409995698878955      43.519186090350637      21.795349483422157
  3572   1      8.6997912292968067      30.051309232914409      26.996666423347552
  3573   1      18.038389138218601      32.654796649905684      40.419634369201717
  3574   1      21.190636702890153      14.755365484587051      24.762291861962602
  3575   1      36.853847310908208      22.299103975678445      3.4999292251557703
  3576   1      3.9134483322520448      26.135099819015036      26.950304120918691
  3577   1      39.614194435235177      33.481541072068666      9.5646431001376744
  3578   1       46.22911366269733      42.067888629396428      30.654157531670201
  3579   1      39.303896328774535      6.9661459119976001      19.146016570583694
  3580   1      44.850376409224232      46.230160430303194      16.571217697278481
  3581   1      4.9702818382198695      9.9115193753204665       32.43465731177659
  3582   1      30.193485597018068      30.820220927281042      16.307481224443002
  3583   1       23.86404460631098       4.951187361543643      1.6013726867515248
  3584   1      20.178471313527094      16.760780186124968      6.6144035399166592
  3585   1      41.679504328102738      2.5486316632276456      4.5490907897783943
  3586   1      6.1041501918956946      34.697536471054761      31.102510710531202
  3587   1      19.075233519639177      4.7734289391461635       11.92785903475712
  3588   1      27.253085709274259       7.103789474224369      42.927826872175139
  3589   1      23.305848405479889       22.15171909939426      13.223676317296405
  3590   1      32.500822348606555      12.619405391659068       23.48989579595893
  3591   1      44.873162427575991      5.2121180243674665      31.145425745167614
  3592   1      30.055554771696379      33.130773033528243    -0.42201737539225231
  3593   1      18.456468861300497      20.796328858537912      7.4358369496115095
  3594   1      8.2218970351148286      37.515315839822975      11.168094816258021
  3595   1      33.251290601718331      20.747365127665049      10.989115796215723
  3596   1    -0.27392635063399923      24.098170096435954      9.0724413696103845
  3597   1      34.066053190405469      28.665011549037271      47.237767686997074
  3598   1      3.9002355701091505      22.218164839575046      27.257412055466975
  3599   1      30.365324636692598      25.869588332902154      26.252506985606161
  3600   1       17.84730204121772      35.886967186153292      41.518943831386522
  3601   1       38.40810038505461      38.740991058453929      18.896640841016772
  3602   1      15.882665476946048      20.323067389369982      39.929539783466126
  3603   1      9.6194705752331888      48.297955620972338       17.92724426324666
  3604   1      42.398631448173745       15.56302679803723      22.872340684562538
  3605   1      48.206374442949873      23.989989126453551      22.919967655838636
  3606   1      21.748927777733609      6.7590613427464898      48.522999270508421
  3607   1      41.439059034348446      46.867353032775711       17.45669722261168
  3608   1      10.747820090910372      13.352236568049316      23.163083977580598
  3609   1      27.162890025625778       42.73957398883136      33.672298453108951
  3610   1      4.0434941892032903      4.6718745868827556      21.753752463789031
  3611   1      46.872450444395398      45.584290462563693       6.765805796836446
  3612   1      47.005345472844319      40.247199533744201      22.072831733966876
  3613   1      19.081306713954845       30.95740057623005      16.279475102610252
  3614   1      32.005852298146394      44.747918176300367      15.714168597431955
  3615   1      15.880090094423187      16.956814421990359      40.026158674066551
  3616   1    -0.49890901674765786      34.060540774333724      17.427743877769348
  3617   1      30.116521468032694      36.772549635466156      37.321109993873243
  3618   1      35.754192321424895      24.237440082315992      45.303388255173616
  3619   1      34.225085981848892      38.053064337024644      11.654770559674615
  3620   1       25.19792089484708      13.395792436273055      44.454757378899778
  3621   1      47.459166203799327      48.687458445068778      14.903402934221873
  3622   1      29.505002268447058      28.702188271291313      33.166257968551577
  3623   1      18.557847112586551      11.462218483214127      25.270703185050003
  3624   1      33.918192236598401      24.884319528049222      32.318267083756929
  3625   1      44.842130165134407      28.434944155200345      20.776661616783343
  3626   1      19.371046708033795       23.11252260981578      33.160131926739048
  3627   1      29.855957069156126      46.195695703436762      19.083918392207266
  3628   1      1.4939846266534813      39.002349426135957      43.348461135552938
  3629   1       18.66682584089622       3.817286808184551      43.799576604641075
  3630   1       41.98640724390485       26.52267436790612      4.2571394251793846
  3631   1      39.608656066237444      21.800909691177267      39.813797040816461
  3632   1      23.543071247213032      15.996069233493071      22.737645078268031
  3633   1      15.356422708441876       29.97700988745952      10.608627077169112
  3634   1      11.116247616654226      13.342707360684471      16.411137141114917
  3635   1      7.4483955429302462      38.831838283260844      26.633822516219379
  3636   1       48.92755862454193      47.756517932011583      37.579399140457255
  3637   1      24.387660371718116      12.765557739971841      21.850335131022558
  3638   1      47.541904277193858       9.397608545220562      34.783192857654967
  3639   1      22.479396363951835      7.5837005708420122      38.844748705465925
  3640   1      34.997552970150636      30.026116435470289      27.928338248664886
  3641   1      30.735002350364187      33.334881233420248      13.885004334352251
  3642   1      30.524064619735974      39.359382594698999      46.492137408117628
  3643   1      37.054589654276505      30.347232228837626      34.490070075460068
  3644   1      16.391273013403236      29.246598002012842      32.756459728412388
  3645   1      17.991199960584968      17.074607119262591      42.721282485655735
  3646   1      19.585031740008326       38.95781353799736      20.612737320865872
  3647   1       11.18957004723749      25.500810942868444       10.44226762897301
  3648   1      33.556202442887802      33.509324425354649      4.8076858675836291
  3649   1      46.311186496089668        7.75296089126266      22.071575475590539
  3650   1      21.722415080496017      3.3298130970955833      37.681000954625823
  3651   1      42.305114116431966      44.878533517225932      14.957125089665432
  3652   1      12.746829328702447      4.6767457416660809      29.715034090637122
  3653   1      34.877153246633704      30.687435146278389      40.853283830836418
  3654   1      20.057031488225874      22.457197403043438      5.1966119299438738
  3655   1      2.9857396645283201       40.31855591479416      5.0850407695921973
  3656   1    -0.68366221212901901      17.824494712162302      16.251953200107238
  3657   1      47.780462732316835      15.050347088916631      37.458318288596963
  3658   1      12.264524601020128      19.407155663252336       15.73741142799512
  3659   1      11.199169804474352      31.771412857190249      26.295561047435715
  3660   1      7.9281313412175001      38.587387067389898       46.34518635351106
  3661   1      40.901859477183798      27.315683531210148      27.243962159992765
  3662   1     0.41507169210269373      26.105120435727201      6.1595647662603819
  3663   1      23.415037666224602      43.964084665729175      25.915106885928459
  3664   1      24.388964967346933      22.814229038494791     0.83491545896342001
  3665   1      30.373241673152517      1.7237992483023379       19.41168758679105
  3666   1      19.087608579196576      17.344884983824695      27.827731654132538
  3667   1      8.9096601504797572      26.366396730585034      28.908955592083082
  3668   1     0.39871902717948976      11.923439386277295      5.3357464161583996
  3669   1      29.834234441152827      37.091080426581911      21.564669509364904
  3670   1      20.876977600387509      38.127257798521825      23.651677206466694
  3671   1      12.310610325220315      17.834000475924984      40.180897984737733
  3672   1       3.890744208625049       7.067204608643638      33.908380283401016
  3673   1      6.6773907379555304       12.38964171876313      25.465425268575295
  3674   1      33.653746909032655      21.659507535179209      14.039733536790415
  3675   1      38.108408319380807      1.5590032736470516      42.218331052323897
  3676   1      21.966965043446994      31.222864967856875      7.5771919880703784
  3677   1      31.788172031673295      18.102778891761687      39.330660188641168
  3678   1      36.445196172137678      19.797182661004712      10.208961705271939
  3679   1      33.766991697680062      11.085649081831125      2.7857183590458714
  3680   1      14.529073938079174      26.560416940061007      5.3742825423861253
  3681   1      8.6046150422952579      31.955451185840268      11.398738451991461
  3682   1      18.748174688784712      19.142702422436034      39.826746557882934
  3683   1      5.9565165410293712       5.129950152936825      17.582679163147741
  3684   1     0.76208948750679451      9.4191725032129501      19.212934430123433
  3685   1      10.914329745015921      30.207910308535919        15.4417837674258
  3686   1     0.33952744594020295      2.4696607144255949      42.678285830006295
  3687   1      4.0120619986018236       49.85185451648821      41.303085214063891
  3688   1      11.412406717949093      43.047837005435156      30.139785425240252
  3689   1      27.102995953818255      26.071244818262542      21.078694534537902
  3690   1      29.311038224638768      17.272878221696182      14.949534605215286
  3691   1      43.668564485959003      45.939496356651006      25.825097614986412
  3692   1      32.499317666593754      14.199042510283054       3.924774068596959
  3693   1      48.611756352983384      40.519531531905578      40.584523914066658
  3694   1     -1.1850723041628266      5.1043664906533035      28.465544727764655
  3695   1      35.019456038000023      4.3870804529624134      48.265452114459741
  3696   1      21.021504427828322      33.354672575010675      39.124171644844687
  3697   1      25.206566247828675      11.872471486698258      10.302955640612796
  3698   1      43.618876935790219      29.358017589223422      6.7544409480570042
  3699   1      47.917834730347373      18.979551631164615      34.868256821414462
  3700   1      20.893925677842372      36.401425746317635      39.940015385816402
  3701   1      32.025330926645708      32.449517956541541      37.110316550141853
  3702   1      31.129759347629165      22.645083384510585      8.4866220348732178
  3703   1      9.3676811970145426      34.289616171946392      43.176924917512338
  3704   1      11.530065780080816      12.485152535902689      10.291785236593318
  3705   1      24.259936251148162      2.1750719610601523      34.282676520542132
  3706   1       29.88764242222171      11.608526988821273       25.81249311655024
  3707   1      22.428611733282338      20.232845421356199       40.93242689585734
  3708   1      2.7123136092048021      43.733854668671974      47.921016428828771
  3709   1      41.070853213171347      41.777409540972634      21.105113241892163
  3710   1       41.66388812302899      17.611419449757374      28.820539450588903
  3711   1      42.899544193401503      44.753540279984072      3.7072494243720699
  3712   1       47.49601969165753      38.170286221012894      11.747675228525647
  3713   1     -0.7074427242225827      31.622967163536714      13.830302439678256
  3714   1      50.492599520935208      39.971433859710743      8.6531120369158057
  3715   1       38.79025936450364      24.835939495982856      41.519528066788773
  3716   1      13.823466569253323      21.343421811169943      35.398198328811695
  3717   1      39.089928284650632      32.011015271674374      24.622720880574676
  3718   1      38.962251162900635      2.0888282850149609      9.5549688711336813
  3719   1      5.6142117463843979      14.794658159000397      13.611871501124565
  3720   1      23.939425775618115      3.0935429590700161      20.119242945664098
  3721   1      8.8516359678969803      34.820660637361641      13.338754835602098
  3722   1      16.204292648687854       5.647746905160747     0.57451634400898666
  3723   1       49.51953714626341      34.855570935292718      40.507112461085903
  3724   1      17.321828435433012      24.487257083789256      6.9843833211758861
  3725   1      26.827332171542619      25.037728892690247      2.0922965597145904
  3726   1      44.290469809824167      22.921649202841675      49.336825587709335
  3727   1      1.0176075697891716      11.739612570072827      16.939090885226022
  3728   1      14.525553257509284      44.475754732013158      50.265228048350785
  3729   1      38.067133144222879      16.980658327929486      15.643478497438277
  3730   1      19.345425275860901      6.8670736128064691      41.553448941528252
  3731   1      38.598223424784067      4.0703794631928085      21.079028897847699
  3732   1      3.1369213400704354      30.287161756906862      37.623475841264828
  3733   1      17.172017544634091      32.057538136745599     0.18461601812902956
  3734   1      22.144898347334841      24.696505794336005      15.147114054081493
  3735   1      12.930686659300424       43.25191678751527      6.0666161477208878
  3736   1      20.341241172926253      45.455414240738385      45.163511916658855
  3737   1      49.886168023552742      45.068290022099433       20.29445384044072
  3738   1      6.7131997249820143      45.036984225417747       49.76384284765475
  3739   1      13.119036941397006      25.192751641343605      43.991309186528532
  3740   1      10.410664669722415       1.119261285224787      45.734841484272209
  3741   1      31.372462861423564       43.70549937701113      41.815241695877738
  3742   1     -0.9632164204375242      50.243088410119555      49.458275837699709
  3743   1      16.677904655356237      13.765964918584885      26.423177856387955
  3744   1      17.595472696867233        36.2183233693723      6.0213782717193576
  3745   1      27.153062900342665      18.495406019423346      32.012554364339344
  3746   1      6.3216812632073029      7.4841749480858635      36.348999337467937
  3747   1      12.575170705777278      26.120631191382142        47.8373415154337
  3748   1      19.256170704857656      16.393593905392461      47.544596402546667
  3749   1      2.1777255864627807      43.725946194272211       14.81482639241367
  3750   1      27.369020146766935      7.5201616357323084      39.258303258013939
  3751   1      40.576211930216331      3.3866868024683301      38.384535056604072
  3752   1      1.2621114176455805      31.524636304819001       41.44957585966548
  3753   1      19.339904992606069      8.1225414370691382      25.108882916817453
  3754   1      17.223290308143021      12.459139798742701      2.5712861122685364
  3755   1      46.655418147838283      28.313139067883405      17.071727035503795
  3756   1      43.479596541761815      38.483593174023774      32.830057221096361
  3757   1      26.369625008370786      37.720224451279357      19.511249287147702
  3758   1      10.327208938640274      36.321407086730652      17.597365367972454
  3759   1      41.154406616784399      27.477080595110973      45.033906351397356
  3760   1      44.703566948723292      2.5591503245594596      12.739726334427816
  3761   1       28.66943818832587      33.446529434348328      38.107059879513031
  3762   1      15.768512068858119      20.060265190050718      20.837335075403011
  3763   1      13.533823356502975      11.693828112137039      36.604978950298239
  3764   1      22.242664934592671      41.222813944344722       23.77791954068654
  3765   1      35.817236713196799      26.938361105942825      5.0805437972880849
  3766   1      23.597412962314969      23.185525107322047      29.015942488786223
  3767   1      8.2913917813422948      40.643920251188071      32.767563028974671
  3768   1      2.8089666963681248      48.111068316499292      25.494684866152454
  3769   1      20.874445403595722      33.964480100152194      11.240587171867441
  3770   1      12.946146550257062      15.323043180098299      43.610138047693752
  3771   1       32.53602314822038      17.799855938890971      17.736148044598458
  3772   1      20.749809113204986      8.1796258991273092      9.6691864131893155
  3773   1      27.093988149393802      21.462953000144537      3.1833297825985953
  3774   1      37.817860530934915      24.658773520956217      6.8398207822131898
  3775   1      39.337978180361702      37.821042457133686      40.073243807385637
  3776   1      35.368974234134427      19.662275145109369      27.881594537339101
  3777   1      39.464972943882756      45.221368084581322      7.9063262844803006
  3778   1      16.883323832935886      34.547721376623343      25.260696018897715
  3779   1      38.438208481081112      26.062205982152097      37.487142287900092
  3780   1      12.232908172363295      3.5408268757816468      44.750331974351347
  3781   1      15.148544566397208      42.110504891879522      16.683013996364974
  3782   1      31.161303235426054      35.330852476063363      24.310330823466536
  3783   1      49.946163015895777      10.061965046054869      32.874668722837107
  3784   1      33.157484143583531      22.140535254397076      34.465868517102358
  3785   1      41.903417856797908      35.832557713241052     0.32101199617081633
  3786   1      38.212589077943768      7.2482940576544097     -2.5561945212031434
  3787   1      27.378382872203055      28.371365054085068      25.868641927459258
  3788   1      24.383510964876351      5.5280984343511221      28.156772479138649
  3789   1      33.446756235975649      40.013894211623658      26.827842779678733
  3790   1      18.118363161988196      17.957781037786411      19.565445988408957
  3791   1       27.29965126947959      22.305813086842583      21.401234395121712
  3792   1      48.983619273973389      25.737504929552653      25.560958390732644
  3793   1      38.609655743088013      44.441283266502154      14.407716898245349
  3794   1      30.889134879846097      9.9284521949968667      17.748972794862166
  3795   1      9.1562968089716783      7.5467792282586892      25.822504706650594
  3796   1      47.636710353388054      22.974081494584812      36.410013079974853
  3797   1     -0.8484765529084255      41.174366191819303      18.347609042384214
  3798   1       43.46797878361869       8.138278831911439      24.066051938030565
  3799   1       36.89397246356301      12.795134813044879      37.318231801235946
  3800   1      12.207422842634493      43.070592527171023      37.791785070679964
  3801   1      9.6256395786306257      25.925890337135812      21.876152304284229
  3802   1     -2.5155270875854505      21.018036648907994      32.342381308353474
  3803   1      6.0590081865106047      26.959796812747872      9.6278862246076855
  3804   1      32.885665607093358      35.525745455648504      7.3420526395314525
  3805   1      16.204399423072903    -0.63670840548467833      19.494473027763689
  3806   1      7.8122732888263604      10.427908068496787      27.827352776407295
  3807   1      21.581217600562265      31.026531935351564      35.825370938826644
  3808   1      5.5587027866731331       28.99385310254155      45.763173645662796
  3809   1      32.636788352978549      2.3093028094818906      45.126527567060812
  3810   1      23.347935925797788      1.3741749037752269      41.874207116635816
  3811   1      23.777391969085688      40.121688136901227      15.021001963947677
  3812   1      38.637170679795709      8.3694330185415833      32.684361119869905
  3813   1      37.212977746791601      10.633415485442175      18.679864642121739
  3814   1      28.260188519129745      19.937463879122362      24.251190348756275
  3815   1      13.641515604447006      45.321914115071579      33.245940767555986
  3816   1      31.572454019638855      30.220735421556324      49.706456207863226
  3817   1      36.747121778370563      43.144739383404051         7.6855655253655
  3818   1      21.370691428738404      30.901854948179732      11.128879677682846
  3819   1      35.609288923721152      2.8102061006088497      8.3028592484275432
  3820   1      34.443247205320411      47.068574373651948      39.345247675938182
  3821   1      3.7877587870864962      48.073241492250524      32.584970658927475
  3822   1      27.590185081694351      12.849629665687317      1.5844429528201096
  3823   1      4.7649995072367668      19.141687313309269       26.39073601655473
  3824   1      41.335226275253142     0.38895538478289871        24.0786882679702
  3825   1      12.884854258459679       5.443144333106579      17.984146171860694
  3826   1      48.579827956608327      15.271378180827455    0.015501395335408142
  3827   1      3.0698426003920316     0.81243669381905681      6.4057073044166302
  3828   1      16.068529693046948      12.245237416141467      5.8726802673748768
  3829   1      15.250613633736608      23.154126638491139      46.675433431372404
  3830   1       38.14335639803987      4.4092367109527046      12.137632150905505
  3831   1      40.575914781790885      34.360245310012353      45.382704226313912
  3832   1      13.368998367358715      40.478276767631009      31.533434912754029
  3833   1      46.185261528957106      26.537517241104439      14.696682869881696
  3834   1      15.175991322095015      17.686323213894813      24.745642645185974
  3835   1      18.738990933442803      18.444533319851473      23.719402926356082
  3836   1      46.415725418014802      34.415531975899931      23.204610623592291
  3837   1      42.212972163724153      36.047020907534481       15.42367623046637
  3838   1      1.5957667655925152      31.354623254615667       49.01507770036855
  3839   1      20.249398747255626      27.997126705990606      14.655072827421634
  3840   1      3.9114514022304028       21.25559332522635       31.54865315818834
  3841   1      6.9836378647024802     -1.8960608565478407      43.527714225223704
  3842   1      31.639997078613771      29.938503036211948      40.238174904551933
  3843   1      9.0696208858334906      15.242258340195148      49.469581743331979
  3844   1       6.124083720790062      2.2825194860400715      7.0736549192160423
  3845   1       45.35379072858607     -4.0767334784264202      47.045221164891643
  3846   1      12.673231528675842      13.673028910956186      27.313513800750908
  3847   1      7.4932927309426658      45.316780143248835      23.158238207493191
  3848   1       21.19433809795169      27.921111074073309      35.754773143032537
  3849   1      30.386165535646818      9.6142417321043414      23.404970048730313
  3850   1      16.037400278237261      33.681159296746941      8.9403660006830385
  3851   1      3.1708632252382065      24.805648042118726      9.0431557426644193
  3852   1      49.551837204409935      41.684400968104129      11.440099831089999
  3853   1      18.734939309021769      17.200861598959399      10.952345155354999
  3854   1      4.4835049982759756      9.4926514719910067      38.687378524669924
  3855   1      43.725122127008689      6.7479141052551777      34.163472786012186
  3856   1      3.7990318833892931      12.918003900849838      50.486106358609611
  3857   1      5.4166081425917234      40.386879363594716      10.537813770583959
  3858   1       15.96213439413615      28.653643292319352      1.4530097968449351
  3859   1      28.611461319418517      5.0644950070061574      25.469807622230483
  3860   1      26.144342909342782      17.623817943064392      27.765024543724554
  3861   1      31.079159562787506      2.9348447928009551      37.111271129073614
  3862   1      22.365808852491785      8.1457947919753675      28.470137407089798
  3863   1      28.848280929787204      30.396119987484447      27.870661042044194
  3864   1     0.96286640937342771       24.54901220836658      42.940562064408972
  3865   1     0.92591903185152258      41.454113452638836     0.80726427527680422
  3866   1       25.10802935755801      41.317435004767034      11.541420461863932
  3867   1      18.286453860910086      1.7746271228959103      5.7309198195523461
  3868   1      35.541495418271346      28.605701292226883      30.812424921173239
  3869   1      11.153471507752267      42.274887239794992      14.958608407413291
  3870   1      1.2948391664175838      39.738515796247171      28.974874467804334
  3871   1      21.012130490885884      44.449684648546942      15.720705677633974
  3872   1      15.523247241800881       39.06938629735528      8.2568572242319274
  3873   1      26.095154774049821      19.231290981524282      8.4999630610726289
  3874   1      45.103401025351701       30.45869205518515       39.27065083673935
  3875   1      24.750293481220925      9.9460406233096172      39.398733581302537
  3876   1      33.141573699730074      9.7376903833229811      26.619096361252403
  3877   1      45.554493920985962      34.649004846581171      19.531165362238838
  3878   1      30.949967391327515      22.401772724389179      45.127130156244554
  3879   1      37.182093105460147      10.728038903344233      39.666739677106591
  3880   1      10.697600417872517      14.896206082712258      30.789557765741982
  3881   1      15.686023528870155      48.699341902495021      34.972650893724825
  3882   1      14.706282656901585      13.642683257009136      9.3410664444190328
  3883   1      43.561671314045213      12.407751265864954      17.898211194696874
  3884   1      10.067398425861798      14.730132592817673      8.2795771300628047
  3885   1      9.9116518135444664      36.103809927456957      32.654328003372605
  3886   1      33.399542599637002      33.541525797690767        31.1562608762124
  3887   1      37.112925568976181      41.905168520069715      25.021916723806292
  3888   1      4.4231621533691392      25.685000487144091      23.935130067390858
  3889   1      34.288247236243208      15.004543022988297      30.734649381218485
  3890   1      46.127361727184613       2.339208993360153       41.16953420379334
  3891   1      14.499370206512777      34.284130836747622      39.563414364439957
  3892   1      37.749119971881576      5.5578478570568555      9.1665887218754456
  3893   1      20.021601603020144      13.652919660647122      49.320672921428731
  3894   1      21.277011878115225      31.783359585902321      48.006965790752901
  3895   1      27.530260289941378      37.178093145561867      30.624328266560685
  3896   1      21.952330240349543      21.236759259645464      21.721999959702455
  3897   1      41.420468655859345       39.59763015629327      25.825241873478014
  3898   1      19.877120278564103      21.401259864648527      24.572418176795914
  3899   1      33.375747231129722      29.680657880769992      16.714485718528177
  3900   1      40.669579069113041      15.653505398592523      31.613558131631709
  3901   1      45.447233805843837      20.837581406126993       15.56975284506693
  3902   1      35.259198938231272      25.619030138232706      40.222204126211523
  3903   1      8.1885248396482684      18.145305377078287      47.198283286689225
  3904   1      21.522981714110774      4.2466891117487613      40.794270188300949
  3905   1      23.886953712925834      29.707619419011483      24.307948551162195
  3906   1      26.523392073186653      6.8412886802663397       33.37689570751062
  3907   1      4.5765282684678255      44.908213284840471      38.677687709400388
  3908   1       42.30187027388866      12.837286202075232      39.168084753788278
  3909   1      8.9240225301486422      44.347516708853924      32.785440428957081
  3910   1      37.478951022838913      15.719959246220032      42.842223096520485
  3911   1      8.2649031010780867      40.883320946391301      24.311859876441442
  3912   1      18.157091235478795      14.039711243067346      10.079495745062175
  3913   1      45.067751297449391      35.376020445119835      39.257999433675955
  3914   1    -0.64825143038050081      42.579593824109423      47.047863526821544
  3915   1      43.000579082321238      8.4573449508183849      9.8706222346668486
  3916   1      45.804522895695683      14.703968806710762      18.344347573385004
  3917   1      31.048891214758854     -0.1544745178425076      13.322209088420118
  3918   1       20.55302221104207      34.100744249069827      42.322734861048112
  3919   1      6.3117106123242044      39.363227008589512      36.671030162282008
  3920   1      12.264187656166582      29.162184740687387      7.5081800115678075
  3921   1      25.970451787605104      19.326960226880033      21.693738455755071
  3922   1      28.460742696217835      26.082039933565227      31.491397006549139
  3923   1      32.565053333439309      32.966402392754595      40.855889580446473
  3924   1       37.95129502282176      11.391676962691502      5.8423517280055206
  3925   1      8.1217496359491186      17.954173522687977      9.2007490870395205
  3926   1      9.0340562259409865      46.221955811682307      10.805374822285192
  3927   1      38.232342811338768      1.0777615012694719      13.348005363778855
  3928   1      7.8433881815181046       34.41151244714915      16.584816277767992
  3929   1      20.484166339763618      43.773459623301747      12.509454753188795
  3930   1      4.0213283329375233      33.105893153119879      -1.451603447954638
  3931   1      23.594859666050155      17.704072747419868      6.4631406301971657
  3932   1     0.94278697267004885       28.01997136345555      13.678595651279554
  3933   1      3.9091048452940806      26.987246321502685      12.718266207762873
  3934   1      17.860456582715678      4.9841255155613977      7.1909659738799849
  3935   1      39.146212485390791      22.140317067493328      43.001523053677481
  3936   1      45.464577622616041      21.360662408061305      21.558871819251827
  3937   1      10.459293492767138      9.6733766816728188      14.440766192357533
  3938   1      2.6535390259862863      18.414407627791558      32.948718272623445
  3939   1      40.683844923075853      24.914591816470875      11.521686728772117
  3940   1      45.829463452281182       6.419446897652584      41.135746333830504
  3941   1      11.391048002010844      6.0500852728572454      38.869786746516958
  3942   1      16.150211296219922      43.347244898232837      32.389887667076188
  3943   1      34.194700065781063      4.8156797617454155      34.851357614247931
  3944   1      20.606743547926619      14.897275747400064      12.403557836884078
  3945   1      9.4345080831423207      27.605343987827773      39.587771834648663
  3946   1      11.205914565867376      44.925985341027918      13.197594763422709
  3947   1      8.9088575928147709      28.501217248645368      9.1746266901310616
  3948   1      13.980451131271648      7.0679154210517972      35.100864621273374
  3949   1      34.148362523781934       32.03685204012087      43.761087710451115
  3950   1      25.093207334843591      10.086280176898963      32.664821213571521
  3951   1        15.6860039112184       2.167516650731951      40.547627623786084
  3952   1      11.955591963421105      21.737887398128642      43.192291609829269
  3953   1      8.3656539741594536      30.637328558122213      17.547440510633074
  3954   1      28.161470033132844      35.669703288182404      6.0907522901728637
  3955   1       39.97112430382704      24.615991990774251      17.042116013649164
  3956   1      10.180995296541354      5.2239723704150256      23.513272853856783
  3957   1      34.010376767921201      44.747447645965458      42.893408776729586
  3958   1      41.348513387800033      11.437396652912424      9.9696886156661613
  3959   1      48.996028994445723        37.8747380142241      15.943406054974794
  3960   1      1.1186678973003101      17.888939331710183      1.2481800125946325
  3961   1      17.023111278840922      47.208418144122362      22.501791200088221
  3962   1      36.798300942621196      7.3685929982018186      42.763278434920544
  3963   1      28.265336769273915      13.112719740599942      22.584724447185838
  3964   1      34.635425144841946     0.75468386898739714      14.674175111960318
  3965   1      22.760134373681517      5.3561774684787435      31.344832601358892
  3966   1      27.435334051322481      43.357147996621229      37.251471414459374
  3967   1      27.399651911143806      3.9662577460466979      18.217510397504853
  3968   1      37.919028285646824      27.133635387676001      45.291438709412901
  3969   1      40.211297388656867      29.581110029528833      21.059739594525546
  3970   1      29.077941856872755      18.193779047386474      35.565252757271089
  3971   1      35.495902485253914      44.673785037751969      14.002390562837254
  3972   1      39.306429947161689      42.522486117077172      4.7147482031385781
  3973   1       33.21104571233397      12.768156729402124      32.925025995591831
  3974   1      27.331777477400685      25.552897578627437      43.604271760004139
  3975   1      14.175392919361052      38.326822969667091      35.494301259211923
  3976   1      11.099444632318987      33.374084426561282      29.482447744728603
  3977   1      30.909352783010295      31.884022222225852      33.355963360082022
  3978   1      31.052271483541109      15.685099972790088       46.03477379645949
  3979   1      42.725047879775879      48.489203560173095      39.217825221075401
  3980   1      46.054981412611305      42.839440024092411      41.824443953542485
  3981   1      40.002004341306325      44.117097010402972      31.129183579712485
  3982   1      30.777507528731732      4.9099909313565577      28.217397639552829
  3983   1      38.530168783182226      1.1695154870661799      30.073257535417326
  3984   1      18.143045202017024      26.806789831779795      25.764914619958788
  3985   1      48.602777339946478      2.5163429150145347      6.2908408376719596
  3986   1      42.775323016707574      4.8304142030804558       8.861401223670768
  3987   1      5.8219222972774274      1.5033214978200795       3.475975277355118
  3988   1      20.322139432910408      27.351559754409472      1.9529102792346087
  3989   1      6.7347376180867142      17.034656179964571      44.295268588322905
  3990   1      39.887156557613238      45.812723915186915      28.106847632496159
  3991   1      8.4577364087371389      2.2028677971660513      39.697764733086821
  3992   1      29.192637064157161      7.1168934186962121      31.197293779339848
  3993   1        10.6241522293051      14.506036839928496       3.964727609606495
  3994   1      2.9438825300245046      33.749270511326451      26.565758542302497
  3995   1      37.974466752235863      5.4245818780202635      31.575468733798875
  3996   1      10.232464615117761      21.490456300870257      3.3828054340500251
  3997   1      42.241774343263913      37.584219877109732      45.364563033919154
  3998   1      38.116797624911719      43.558423399933076      10.664195298460776
  3999   1       46.28274374256479       30.71377663349308      8.9814991447575423
  4000   1       4.081290713183769      15.767634601617104      28.494872337296403
  4001   1      23.316108579618241      11.616085578685116      42.334657541966642
  4002   1       45.96803158341055      10.429648804917477      42.998722680228084
  4003   1      32.042390220867318      9.0291393774163566      47.360553405197173
  4004   1      28.935450482092513      10.958561584237188      29.119791553811638
