(written by ASE)

4004 atoms
4 atom types

0.0      48.780000000000001  xlo xhi
0.0      48.780000000000001  ylo yhi
0.0      48.780000000000001  zlo zhi

Atoms # atomic

     1   2      32.352303868889258      27.637245155154105      45.949827427565332
     2   2      41.049047193589722      9.0626988011853324      46.647088071522475
     3   2      21.323590945151029       15.16122041535527      30.291792458233925
     4   2      31.376896059101291      12.536231686757249      47.384802288693365
     5   2      9.3053609318460655      47.908487121254673       27.83641286896388
     6   2       1.239157565897588      3.8826209619326315      14.371764185585548
     7   2      25.430710276995839      15.514947932286228      32.869857535032601
     8   2      6.4934232182495624      21.885862269212314      11.278825891732671
     9   2       4.119130815809644      30.527934364146731      47.605825887830775
    10   2      41.902144026629863      2.0002343700811918      38.305709453353948
    11   2      35.639839153941338      23.743549831174469      6.8254497088759551
    12   2      34.341883028218426      47.116962179771363      12.725389341274493
    13   2      14.081361349486029      6.4252191770835481      2.3378248931419012
    14   2      33.214362283806892       60.41220370373744      31.618467419579101
    15   2      31.519035674405782      37.697634575026505      15.047358186864988
    16   2      34.415193085768777      10.692177050935756      22.551929301514644
    17   2      14.907646219477915         30.375578313001      46.498171671368347
    18   2      37.923258720179376       25.13123116663543      31.484017332854279
    19   2      9.6592970512839891      48.481424559107531      20.746546827319769
    20   2       18.26570403628174      17.610917704712065      17.640193843166131
    21   2      45.383772459205183      17.938151028929298      41.895604279340553
    22   2      5.1893806788425891      17.210443034453746      15.364988358704155
    23   2      12.449923500824648       45.40135350297939      7.1250476563549912
    24   2      1.8923845230449206      11.173058994645555      30.175539283674386
    25   2      6.9879648681574569      22.650905613825053      26.821369888427348
    26   2      12.413454625229532      41.967597426172865  -0.0035677924128530132
    27   2      41.975180815798453      24.124808142167453      29.873189648713524
    28   2      11.800551770663773       18.93678773595899      46.428372027504629
    29   2      42.389585899565958      42.199944298622107      30.719003405319654
    30   2      42.527777047722076      40.491009601563221     -1.1690374375649255
    31   2      46.781059204681938      20.055372533071168      28.098499989975291
    32   2      39.562148941928854     0.47931494886542964      43.245851766150061
    33   2      8.2644116732546458      34.730379784499867       35.72964475627758
    34   2      25.618911343252094      35.848100579330641      16.316164792371289
    35   2      17.999814473344262      31.437394238965208      19.021093872849054
    36   2      16.887920977559656      11.613985999512042      36.304674589131317
    37   2      41.600611974119012      4.0525461984251514      20.317792873947116
    38   2      7.2851422404418891      27.909287755388437       26.00610891788978
    39   2      21.929104797965653      38.339034492811628      31.251263469070704
    40   2      14.473683368965126      14.510168000276975      33.554454049171312
    41   2      36.065851370040832      13.317791231825913      10.989331485327265
    42   2      6.0829093818678883      37.230028784244027      22.490348912629049
    43   2      46.949339019990134      36.666741479139681      24.798508010867639
    44   2      29.452883841644216      39.891696055852755      41.923349821823386
    45   2      1.9047451405985703      15.217437171556508      13.151609836219654
    46   2      53.335957767814492      6.7915835113052623       14.43357500241426
    47   2      4.3399161063055098      29.268558635266061      33.648840125677346
    48   2      5.8365451919838955      7.4535799753396352      19.964675332622853
    49   2      24.552625610064901      13.195225329674749      29.735188034770268
    50   2      28.457140140600288      9.1239714383992681      15.402517665487144
    51   2      44.350825724679147      24.303334621084506      6.2617619628288574
    52   2      45.646465765114485       40.43161360580109      28.190254896267351
    53   2      33.402550497877655      43.674568581155725      41.269164789460483
    54   2      31.543321865815422      41.407750209909501      37.566791153682722
    55   2      20.300846579711944      37.984040596515456      45.742972082015442
    56   2      14.932101351612401       26.48687702808024      9.6144410216862148
    57   2      20.025928552083428      30.684350216679849      36.588755263592333
    58   2       23.75933951927772      44.324606707133789      32.012297953976955
    59   2      14.526392972054992      16.471453431844726      11.127998762939171
    60   2      2.0969661641678132      3.5203449884505469      30.460968122065598
    61   2      6.7808490130759731      47.360969928121484      33.013723247443117
    62   2      10.816987664837768      18.122219143279366      23.463447291779481
    63   2      10.985714374324649      20.662506775398398      5.3310189996910911
    64   2      14.358518887898388      44.779240352196418      34.466488327435897
    65   2      32.444458395712843      28.735845538602469      11.517897380924405
    66   2      8.7845564368862057      9.3169856876975992      22.270582984347431
    67   2      37.904378195027704      17.666255495016184       34.94586710567792
    68   2      48.342178854933472      48.987320258645433      42.879396131660847
    69   2      5.6129671455763974      18.848151731907368      28.453101232369161
    70   2      15.626331547454738      28.764883706709856      12.586890795488983
    71   2      8.0755250137494574      38.857786412757612      25.573736437702511
    72   2      34.628568662303017      47.731209178576016      40.431988871322361
    73   2      37.978047574163611      15.573249609436509      48.984499468401708
    74   2      33.194912500934137      6.8026857856208052      46.539396650654041
    75   2      44.581377344967514      20.339622591652713      8.2893504068385742
    76   2       6.387364841427229      35.851685116778427      7.3304554638298756
    77   2      25.885441718665657      3.4852415175903393       8.155555778311097
    78   2      45.984139697140655      10.417964757769784      32.923923248368517
    79   2       7.051390863469873      19.990107903300121      4.9789848754547439
    80   2      19.075992209822299       49.89544191640109      8.8333855091792675
    81   2      41.839376436878837      38.296388358493857      24.141188789829865
    82   2      22.307490392090898      43.863167295943938      38.505837844120343
    83   2      45.891676098106515      10.408194352431089      45.480534358714721
    84   2      8.1361504171490786      42.664407708617148      32.295479519511872
    85   2     -2.4618175525890473      5.2182229096296622      8.0554743838125002
    86   2      23.615587453166281      18.288720431659083      37.186819776778393
    87   2      14.653407484428518      1.9391706083755211      45.662555791402696
    88   2      27.001130119835654      33.198936716788019       43.44961316693189
    89   2      11.788558417931672      29.843904477915061      10.284760441779724
    90   2      18.781564311475066      21.022293806529436      29.412527689755134
    91   2      9.6493251790959551      20.121047920973361      1.3383860983538842
    92   2      27.479417031200189      3.3225247361621162       42.02508529682661
    93   2      10.800669061540736      22.287577793712259      16.140523252955024
    94   2      40.145964352721847      14.859327905268708      13.197016006639439
    95   2      3.9922123917593941      3.7186773189157707      11.116194737526797
    96   2      43.921289755003336      14.960827138268048      10.077045456864505
    97   2      18.347180560960489       25.24555184055059      25.454002582003511
    98   2       14.39286331428689      10.595608194467163      16.283714065582693
    99   2     0.84296827278717101      19.316983680856822      14.951526346284359
   100   2      21.303258604582997      44.725438128371557      14.416578114638162
   101   2      42.712978148933693      4.4794890577942628      7.4164916730971857
   102   2      44.308369868829153      46.647795838082253      32.350422840937988
   103   2       30.87920811800625      16.481250825243912      35.297842105087071
   104   2      48.010571509188303      24.951057367905165      28.138027035535163
   105   2      25.184014956046358      44.868544392638128      8.1068795510575793
   106   2      8.6247686827970558      46.373946547993384      5.4897903957007985
   107   2      4.7633563354878437    -0.75231024828357196      42.603753706702932
   108   2      33.695888444642364      42.909127568192297      13.189993104225717
   109   2      23.288928067990184      11.827063557116086      45.997332108458394
   110   2      28.595470417093477      39.121589649530783      6.6012863093118375
   111   2      5.4002553275890373      1.4095505270859212      39.417766831707993
   112   2       43.06627122958389      9.0220400910336682      42.354160297801798
   113   2      5.2971917860419842      22.143871077968203       15.23933943502561
   114   2      51.960468718350995      17.740319623887071       22.08568813231398
   115   2      30.186699236608959      6.2438007653903904      22.837111780920715
   116   2      41.637137329973662      40.974990917563971      12.152624622219973
   117   2      11.512626477143296      34.923424966221269      30.703301762858938
   118   2      21.207279460515938      45.841072953840737      8.7107798799058749
   119   2      13.272004315456028       1.937372749657744      25.714888254050603
   120   2      23.399539130004111      19.655298399045833       29.33771813724643
   121   2      37.371784017112354       22.23886889612761      21.476074433737537
   122   2      2.8607138704103106      40.764130777274048      17.837873721753759
   123   2      17.143388910295243      33.554008156297456      6.1348498413404178
   124   2      20.646577783097957      18.990778123692262      40.991231391827192
   125   2    -0.61335162478123162      41.410396609577099      15.886184497685923
   126   2      29.670866589997786      33.726109359623507    -0.68095536882771335
   127   2       40.87531782665549      27.894668804370266      39.199785527531859
   128   2      41.490535392468978      6.9752867464510127      1.2719034823801452
   129   2       8.763540789346834      40.627231876163215      41.757081086693908
   130   2      5.6837443691684166      37.176593777785776      17.472860151827806
   131   2      15.709633353147632      11.070500845987443      31.955059150581278
   132   2      45.620845702083884      2.3901522743617263      40.239002362109972
   133   2      37.952512849420721      38.318102138271421          42.57073830889
   134   2      47.829355644198323      1.9021219529958058      5.3855166138848443
   135   2      29.564191485820661       8.386097128724737      10.421160665822274
   136   2      39.058526756771933      26.247578286301003      9.1615241205945068
   137   2      16.586893844776398      40.442151726103262      0.1912693069068841
   138   2      25.146568210399884      43.963261781220048      27.056216921163728
   139   2        18.9834723028601      14.056871298828284     0.77568367125348914
   140   2      26.176193150390048      32.355132756229821      13.211252304498654
   141   2       2.155826061267712       20.07680921259675      4.1288290560887262
   142   2    -0.74685884014390458      23.108196659160733      17.572096638857513
   143   2      37.455637535810389      44.302030602251669      12.345896424177321
   144   2      17.047645899659695      42.122943393866393      13.795349469430894
   145   2      32.899612832600063      17.176398079987354      46.426731533717678
   146   2      27.572217945470694         30.756094536435      22.706127058284057
   147   2      37.849261402463263      47.254240477368647      20.023620957549795
   148   2      44.442989785195941      28.017566988617943      45.870910552393767
   149   2   -0.054885883025065307      27.025138373413181       24.19750724148648
   150   2   -0.012395885583781872      7.5783555803253186      30.986941416197421
   151   2      38.727044864263192      33.064474314579861      44.913549235765366
   152   2      36.210670109387671      9.2356947918416488       8.364804732439783
   153   2      19.733535495441906      7.5058725229463432      3.7860414566771525
   154   2      47.492426876002874      32.413784926741805      32.551916894124965
   155   2      21.063326494109511      1.5917479684430098       27.83558445263095
   156   2      20.322855994047174      36.155452975139916      53.140174916860929
   157   2      1.6853361891261465      13.262396115987475      18.791722052180347
   158   2      10.984984146036352      14.985127571699129      9.1624370915578286
   159   2      18.868059581931576      33.827873195710502      41.730887341364713
   160   2      15.242371480906909      25.498105336034083       47.15807152301565
   161   2       33.38224391325592      25.862581045143546      32.376733566732923
   162   2      48.243148406123225      15.339416063217508      33.593742898662491
   163   2      3.4128878894266315      30.057419049110827      38.648175720249149
   164   2      36.226968331355273      20.894008886645199      39.568370671968211
   165   2      40.286444500418739     0.89707891398745221      14.179219086770654
   166   2      45.700316200959627      23.870962312043535      24.131555714390792
   167   2      29.484584802570577      18.939483144339373      4.6417563386371929
   168   2      26.962261513465911      2.3737637430256835      16.206959985855985
   169   2      20.435549474171822      29.083018317752884      41.641571500625588
   170   2      39.657646225935203      21.958338733881547      34.606097750447191
   171   2       18.44245142697406      1.4441507431961336      38.909237458059692
   172   2      48.180693583033943      46.208651499013484      4.3792379416311906
   173   2       27.09427984746635      24.652838852870588      36.664020050534575
   174   2      15.184899416376197      21.639736919714288      45.653390819155639
   175   2      10.198904451618484      14.814680574658734      40.672477930175965
   176   2      17.917296044945292       31.90424484721196      49.066913658930837
   177   2      12.935201620537025      38.408765445138549      2.7449917376734971
   178   2      35.495406487374837      4.4868344884014935      8.4409523444319721
   179   2      12.748063860530625      25.680042899240661      13.897349907145262
   180   2      12.917025461631145      13.480204196585898      37.870081412296585
   181   2      25.697232362712132      28.057084615382323      16.529867726374643
   182   2      28.901466092820911    -0.41686878378658498      11.634812375999923
   183   2      2.0374896887885816      34.065116433397314      35.035838359328459
   184   2      30.454387440820174      44.938238366763912      29.526663576079326
   185   2      13.846528693106537      30.531089248515521      31.965485379830287
   186   2      33.998152460132864      46.170504827962581      45.219916029472927
   187   2      26.838306409779232       50.36992146223664      46.231754148615266
   188   2      26.627504447784275      18.553352434463218      9.0616639528835989
   189   2    0.060809669347147766      5.4383554057248666      2.2495444036825489
   190   2      4.2929681584556993      7.4040401118355206      31.126329909151913
   191   2      8.5752234968424474      35.342372076171941      40.178362183222504
   192   2      16.843350256132183      42.200259576346767      25.308623666186858
   193   2      1.5451422819895881      37.804295922049405     0.76612779698478906
   194   2      2.4917210679681423      35.768295890785879      30.411660167713347
   195   2      45.645267796174274       29.58589374778165      49.305340653682784
   196   2      1.8268061618655735      34.203143664056064      46.894678521369741
   197   2      2.0899455629818187      22.944751826075553      11.605738270701563
   198   2      36.010941035376824      39.292769186203408      35.390326180626047
   199   2      45.671669998480958      13.151019270998384      13.753495871202006
   200   2      39.020441524628893      15.617889418943193      18.565522217342654
   201   2      19.603197451392944       17.60875448077913      7.2248649327852705
   202   2      8.3162781290305556       42.59613850614582      13.394779441083696
   203   2      34.218993686516527        33.5687438692838      47.599370178732997
   204   2      39.581731127830416      45.855368772508129      15.545218679529114
   205   2      24.344181216448671      16.192712870289849      18.085269112492245
   206   2      34.456863567617781      17.445565267593928      37.393076301691352
   207   2      12.234866981613971      33.963435054111059      0.1261324887120128
   208   2      27.168072366140436      27.598077026952787      24.315166808178152
   209   2      12.594673188097415      47.158551893868129     0.99319308897465775
   210   2       24.14174859920935       26.92425678945688      34.927475808133124
   211   2      31.222679798444474      45.806263906366347      37.369174848211387
   212   2      11.006124930129818      10.160700576575856      33.570000680526263
   213   2      13.303747561084496      47.492332091655783      13.263210970165479
   214   2      44.314551092991152      16.927920089007586      25.647254560940766
   215   2      45.565589429329918      34.895174618339077      1.2931364489283541
   216   2      39.258853466850262      38.070288579090452      4.1918920409672502
   217   2      14.560535771608874      15.131705428835856      15.859475116944504
   218   2       25.80386764136048      34.052712562197122      24.465308037391726
   219   2      10.046403937215686      19.693079696431059       42.99061668318592
   220   2      39.672327913604839      34.710912700174319      30.037462426699495
   221   2      8.5238071427778355      16.209596217330812      21.085300884133325
   222   2      11.230884839846107      22.951409978549663      46.190944277532381
   223   2      7.5988490641668376      1.0237834757044142      15.195688955923577
   224   2      36.847822265841074      12.477736343858242      16.967757153337015
   225   2      27.784771414329629      13.004147606391246     -2.0611439552965032
   226   2      41.036572806330625      18.726029238208689      2.0894593786006634
   227   2       34.53416291706715      16.110004109750882      4.7464534629833519
   228   2      5.6903834737806864      5.5387810906813542      7.4604026217522943
   229   2      21.526946409611085      16.479783710541206        44.2324901195188
   230   2      23.884194315725516      32.280755415753234      35.659155029373473
   231   2      20.377912385148889      3.9526765653107923      23.437301732838549
   232   2      31.883327226102118      6.1478076049908683      17.664581791401837
   233   2      26.565002035835107      18.734902295700103      1.3669472456451903
   234   2      9.3865197500867374       10.99660728563906      42.849774734749104
   235   2      42.856819038183417      32.444153892180061      46.814686234374406
   236   2      37.137040483349089      16.455244341638245      39.567278790737987
   237   2      25.285957404199632      29.958103765244214      25.967309747418174
   238   2      9.2917500108771716      27.947453453355653       20.86032248560398
   239   2      25.839810497024548      36.694733797985364      12.219981175728755
   240   2      39.324240323315607      40.395864820044714      46.233386383344211
   241   2      13.926143406870873      19.679185178827062     0.94428601900903919
   242   2      4.6546119205386214      24.435910020659229       44.84174665045029
   243   2      23.793692511722409      14.824108985797279       4.993958931244376
   244   2      13.720849662450995      25.234732207961706      36.212416373117229
   245   2      44.924738381952231      43.341673039471843       17.70277621518817
   246   2      10.291387635788416      27.932554687874287      33.201969530222684
   247   2      7.2778511764356653      41.003411787026195      17.515866299552126
   248   2      11.621537623382329      29.857334145341728      5.4495838905707448
   249   2      10.334939744396008      30.884632396697906      29.482164231992005
   250   2      44.053695437837661      32.758784983002663      7.8803681104132446
   251   2     0.18899441352159957      44.546163879309461      21.463671350445889
   252   2      31.698072648304787      1.9922760020552845      34.964523375427682
   253   2      10.029369800973758      50.598910271791432      31.992153244719876
   254   2      19.501317257564764      35.985362245667098      17.797568069761397
   255   2      43.846887907674038      15.710132625552658      3.1697500844310791
   256   2       36.11247575706529      44.463829374350077      1.0238926411058547
   257   2        15.0633051999763      20.733699049551426      25.592165064158074
   258   2      14.930914932522423      16.247497281007753       5.835267325181297
   259   2      22.733936135467324       33.70580549865636      12.652597058622279
   260   2       10.53960641426452      36.000401907153034      8.3650166286455416
   261   2      18.740941767465824      36.309871910047711      8.1199979466068886
   262   2      13.762886370450385      36.174241155839233      18.150274661055754
   263   2      30.149524380666232      4.2664979058884951      7.4184892177095776
   264   2      36.821538159921879      30.515974461913945      9.9962272432824602
   265   2      18.656272688406915      18.977599500365905       10.23671456728159
   266   2      32.783292528576538      37.544298037642079      8.2784200117810833
   267   2       15.50560254432556      30.067587791534525      42.238227415471407
   268   2      2.9372376977140462      12.434878185761399      25.375642179288629
   269   2      11.981621975568125      45.641631679788546      37.818075795947102
   270   2      9.1226330434805654      37.941710251223796      19.894409555294619
   271   2      13.922361611754184      34.412404174458494     -9.3464745014392072
   272   2      8.8774261510033927      46.963994334337229      10.174655976243656
   273   2      20.968044661221757      34.279817192845847      46.244827879419859
   274   2      25.156203675537874      31.812692051093148      8.5504005529751321
   275   2      36.453666397803964      45.090946087267504      33.409974585609064
   276   2      9.0215334819797768      1.5852592507798766       36.01260190684328
   277   2      29.974366052476356      34.926571915766878      22.020911998310542
   278   2      13.022775453518566      44.912847159275657      19.631583090109775
   279   2      5.5342674196391473      27.889940102267179       2.130291153798002
   280   2      8.2379272787492042      32.752257713743333      9.4688369223646678
   281   2      22.125886039282317      2.2680510457848468    -0.67510572443132344
   282   2      44.082529569954879      6.4515424853849135      27.100300522511869
   283   2      37.144191583533249      7.9349893669963318      31.941836583631297
   284   2      36.583957168729214      49.233311344488421      47.108243256080179
   285   2      48.260089757796152      2.8650356300533901      22.461809776640237
   286   2      8.8558241658399339      28.805449179925631      13.008383417824751
   287   2      7.9579037842599671      39.102103646353847      6.0772668932606395
   288   2      2.2676696775654572      43.469028866340956      13.673068418725718
   289   2      28.002097099020226      26.667431608009462       33.38617353462466
   290   2      23.872239465646985      28.657297702689664      38.459150501788017
   291   2      37.691137777607459      42.279220228997531      28.645177739165838
   292   2      26.585815306259544      44.948951586349487      45.271465234559123
   293   2      30.121861129693396      16.917710362761525      24.864465086194656
   294   2      5.3179985807463783      36.686121629630961      36.996161431340774
   295   2       24.52463982385347      36.973128737832759      44.455585854208344
   296   2      40.682907672574373       43.35870766043805      4.4813515853099375
   297   2       41.69359629560121      37.201596736436031      7.4670954970094474
   298   2      5.5840211087981926      37.863973289063104       2.989229392349535
   299   2       15.99085123212731      7.6843599072261375      29.456098263733821
   300   2      23.404953093862122      6.3259957557235271      16.514853805348881
   301   2      24.602671708600717      43.686758985569782      47.874768587294874
   302   2      18.459666029143897      25.881696406269199      18.222595824554165
   303   2      24.741325617858923      49.271698263595255      38.788074254398808
   304   2      43.399232754371901      48.261797626851944       41.35536068364717
   305   2      41.688096720327586      43.812715050164677      39.341982387771566
   306   2      20.317224380761761      33.849970219665714      33.962472414274458
   307   2      2.1819432410045461      15.399436781623773      44.082478396472155
   308   2      28.341466351509474      6.0788802653907528      19.018970504659546
   309   2      49.618713587290422      22.246056717091165      25.510894671369186
   310   2      42.181393986989292      20.544779949193302      42.093010612122022
   311   2      38.115629154902983      3.4221664415930593       5.104021288678779
   312   2      46.403030813850883      38.024948171905862      4.9897769929958837
   313   2      31.710169284053105      1.0089931417762708      15.820592765472581
   314   2      25.837125837566099      40.362777120307534      37.635948259874141
   315   2      35.051060328419496      10.542921594598267      48.582471905795622
   316   2      33.834585641746777      39.670046862402891      23.199225183081751
   317   2      43.246894526046439      12.156463677645601      36.519798792678756
   318   2      3.2120650880240391      2.0174502259907947      3.9352499312747304
   319   2      41.529978381552006      12.035030757480257      16.949537846245821
   320   2      5.5001194340229427      43.631816458426336      45.191900908201724
   321   2      23.523716339591417      40.785254135865976      28.067249904518139
   322   2      30.541568256865528      35.374480211509088      -5.895845291707408
   323   2      10.027252460303419      10.441704476592877     -0.8077595711210378
   324   2      1.4644664235411589      19.571325861588747      46.814335358899356
   325   2      18.464903649150241      13.776356932549891       33.12071867617616
   326   2      3.3703592966342319      34.712305757374509      25.498972725347716
   327   2      10.658538662683647      1.0263349773766808      8.1285982118993569
   328   2      1.2718615416028913      44.411467876590336      42.979017640710083
   329   2      28.249286532907895      10.221743098472031      31.979640424484632
   330   2      22.215054187664474     -1.4319207697545069      5.3460551105508749
   331   2      11.328737388503452      14.468225725207164     -4.0539788551590128
   332   2      30.469242895040225      32.142126261816443      32.607092765347289
   333   2      46.144305570361738      6.8685075137305018      34.904321137928243
   334   2      4.5078881200411791      40.143688958947322      14.301394260615995
   335   2      13.861875526220377      6.5883438222496959      21.090589593976759
   336   2      26.329145257919592      1.3243392073192384      26.184092618771217
   337   2      44.526146859298315       6.377812295468364      45.013887033283282
   338   2      4.7962244504835025     0.33624415513213568      27.807230761584005
   339   2       4.910105075121642      25.486340285996324      35.363140456070767
   340   2      48.328936270979078      5.3361708342996099      26.867510393800451
   341   2      43.237807584367197      22.116764866787143      46.210913548016151
   342   2      21.234434213484771      32.291929546729506      7.4860314700250425
   343   2      6.9970064753980781      14.107105596020384      44.543994873050188
   344   2      11.880618428679162      2.6595515765507498      48.772085277481239
   345   2      28.396170731797046      48.227367355726834       42.47876346917645
   346   2      16.903083098899792      24.237614908017925      12.755101606050975
   347   2      46.968221123680593      32.000453010712114      46.794464452637875
   348   2     -5.6728885495604091       26.80308629338279      2.0865437397610069
   349   2      29.136697970527639      28.468401782481976      29.961689324107279
   350   2      26.954112978205085      36.659763109648061      41.464333485312814
   351   2      12.602995494890862      34.396795813491039      26.298166302421116
   352   2      43.128031954016528      28.824427486486691      15.603596686060007
   353   2      6.4354405625134747      15.489404037320728      9.5624335325555965
   354   2      12.052693679278406      38.361813284587463      40.364758383098611
   355   2      29.404113487224503      42.004517818295007      33.856871785653951
   356   2      15.998115404188477      6.3985188979183381      40.497341262689062
   357   2      14.351073652818123      42.761272088106224      3.1155095815810183
   358   2      20.064016934169981      46.497326732360456      18.282212759100222
   359   2      34.730668914562159      42.228046763724173      31.597487273240013
   360   2      40.389505952627459      24.722461585778458      4.5675408108455215
   361   2      30.212573964099978      32.009829772897255      41.042897468255632
   362   2      12.196012773030402      26.390944799519527     -4.5195401649582134
   363   2      3.6729068261106632      17.736264389989852      39.560606243505511
   364   2      46.229248450714188      11.324409567514456      8.3944932166903499
   365   2      10.276097913267851      14.168465318454706      24.467941659284513
   366   2      32.432334562627133      6.5945781271123636      31.242875796149647
   367   2      21.975355687226124      28.441722920467811      25.330888836665107
   368   2      41.620950530451331      17.079082425655027      6.4856180387093936
   369   2      41.508226602676331      29.075137938895214       20.59648088683257
   370   2      32.345607299651718      44.886264978784006      6.1405748301412535
   371   2      34.255947423972898      32.752019437694635      43.924893375495692
   372   2       45.95980990114623     0.36256119595370234      36.144410421719769
   373   2      26.339855494250397      37.077074999585356       19.51659495184801
   374   2       39.18592301764923       47.26478090689757      39.949650215376906
   375   2      32.158812436025727      12.904981178574445      37.095950888784095
   376   2      28.606495005727854      11.180947767455587      40.393461770209228
   377   2      1.6455995363924947       36.46247521300036      21.430226856069044
   378   2      47.121640640875007       3.263083810842629      47.401673992846021
   379   2       33.69133772218305      15.558719480009779      24.372680968408091
   380   2      33.109450816800759      21.042593245967751      23.297479761883732
   381   2      48.238916911175778      41.406255804564466      38.424707203296798
   382   2      25.566957819754951      10.451776729612233      3.0600659756769986
   383   2      26.484113553503889      23.060658974234304      3.1584084748911172
   384   2       39.15031137604231      30.189288883918753      15.028131160010744
   385   2      35.359117494605343       30.05741203245643     -2.0724277406342542
   386   2      29.499743706292257      44.108485838242757      9.7134877439791953
   387   2      18.139826503400052      18.660953176768189      3.0025402617824493
   388   2      21.870629291488033      16.999732026033875      12.599674344433231
   389   2     -2.6967994809069369      45.643015230940307      12.503011506917447
   390   2      33.031391517226922      31.259505953844254      7.0840098854013176
   391   2     -2.6383436716862323      1.6455100078789802      27.523454443362272
   392   2      8.7347835170451091      33.803967136910629      25.296715104016307
   393   2      39.231497013885587      37.619410836660528      37.522187622219263
   394   2       40.55803297851795      21.189343272419418      25.109795372787566
   395   2      8.2320591909787488      19.292299172070603      9.0717818108169475
   396   2      38.291892356083629      7.9113224588946798       16.45120095854918
   397   2      35.611586310487482      13.875435358677867      36.269138170267816
   398   2      5.0192301307002332      29.986797050722132      19.310231353739237
   399   2      27.898580771059279         30.584422066363      36.266493510552735
   400   2      51.066977267053396      5.4517148119563013      33.526789734058717
   401   2      1.0238851623967347      39.066388567269108       34.32426155464659
   402   2      1.3511366865203966      5.0299512268159114      6.7440494019043129
   403   2       28.28703597209087       36.23580433954529      9.4104911461360654
   404   2      4.1495153682068304      25.447331799258503      18.456772029124028
   405   2       44.86009336668959      31.095198227324019      25.586321215785301
   406   2      28.495804541169939      15.302792558353435      12.217733722843819
   407   2      1.1818295365580453      25.784917208598205       31.81393591797768
   408   2      44.736252337932505      42.166594748616468      9.1173679568465644
   409   2      22.831015185064526      43.425218939874654      4.4776723313370921
   410   2      39.239514037311466      11.443172996646032       28.88658449128873
   411   2      3.9571641911016648      7.9659307146655891      39.051604016301546
   412   2      36.555182153399308      25.061364241928128      35.786666145647771
   413   2      48.447200132160816      42.654801589671585      30.859038705400494
   414   2      10.701595794120392      39.440737401907541      30.037357931366699
   415   2      25.795154449432214      1.8649887348189333      11.424728372472746
   416   2      36.325106519724123       9.289799081394861      13.352396790586146
   417   2      41.051553152814321      47.166204074054029     0.08456083611395937
   418   2      31.501696844115607      17.444095771800551       20.90533785369594
   419   2      8.5435601676127124      36.011249650776158       1.317198092499605
   420   2      30.137787831152096      -2.104278883100938      19.528316829486737
   421   2      31.333373947841022      15.720449922562231      7.1440543109840906
   422   2      24.315463873875505      48.751707595448131      43.340606083837798
   423   2      2.7499700802338238      6.8240003718160995      10.175963025356303
   424   2      30.871944181074124      34.914989349688923      17.067020523372715
   425   2      36.089757724590719      28.947390258889278        33.6482038149963
   426   2      31.015871141685999      25.538243936620642      9.2973568099496671
   427   2       33.14396217177751      34.590937842119089      30.892976778248144
   428   2      37.214757157194654      35.842595561359566      33.367308447982559
   429   2      5.9726566682225881      31.599817277607812      23.386609258258307
   430   2      33.933409885368349      25.244296124190157      20.100303081485791
   431   2      21.897508561225035      47.171987744563495      1.3812057616567104
   432   2      26.914491072554164      21.274297382872422      29.269358883433576
   433   2      24.512453942980116      28.886286667290992      11.893347490473509
   434   2      18.974544476299172      44.218448494788717      3.8364001431967214
   435   2      8.3939845502465911      38.165412257609702      10.935235452795673
   436   2      43.156617363007094      40.426627034803289       3.767733796832883
   437   2      40.350005503532479      30.084048158659861      24.902582018626202
   438   2      39.277275874822742      20.893092131963133       5.954724779115999
   439   2      21.366031569364996      30.551138186302836      10.248074127252222
   440   2      28.762681287774996      24.751892135166791       48.00734247816505
   441   2      11.838237025800279      22.049503708343305      27.678831950507782
   442   2      23.500105350673973      26.814164254743059      22.344380255248659
   443   2      21.566823701888737      35.574009409707649       37.79374914916508
   444   2      35.478498256222203      2.7994973831859848      13.502746008134761
   445   2      21.387025429403867      36.928165389448623      41.633472177322453
   446   2      36.598099491849275      40.233470875205811      25.036863002550025
   447   2      24.756461594825147      4.7758552377282344      26.267457735321699
   448   2      12.493242133859505      8.7966544576707513      29.249734489732813
   449   2      10.041738946568163      30.185972184972751      17.501285658464063
   450   2      33.202735642683464      30.198251478407009      25.877273813358691
   451   2      29.105251551532429      32.344368945062477      26.339308150847174
   452   2      6.9588155632776054      13.956958081605718      33.281092293160022
   453   2      49.213517618544955      32.027815469099984      42.624083898113447
   454   2     0.90902645460945064      36.859864955866726      38.027718791517493
   455   2      1.9203845763060752      6.7781161707399189      20.385482852851908
   456   2      10.638133503230094      9.1981883196737542      10.312003421738128
   457   2       37.13644214498769      18.051467911819184      21.542402479155434
   458   2      2.0815281647949559      10.485786762684581      14.590608464007708
   459   2      29.197328896268719     0.96600202986693484      49.985557152426736
   460   2      47.381305289916327       2.018950011507461      9.8613544181930397
   461   2      7.4100046468538929      20.883544542514453      46.745706214576991
   462   2       18.41272532510466      1.5013205066619808       12.83270398094044
   463   2      14.263498750809338      11.727752969335976      3.8851464842278696
   464   2      14.865557469224608       23.98293309432432       29.16966994895451
   465   2      14.327013397414998      43.734210070755104      30.970362059035725
   466   2      32.170408920535898      14.528029480175553      43.328433818118455
   467   2      22.573711162257002      32.304463805045458      39.648328025986778
   468   2      8.3956696314600148      45.875994085258569      42.499052608299955
   469   2       39.53387919337699       3.632640261389263      40.983281079564613
   470   2      47.865461439659526      21.936674574411605       1.701869239559916
   471   2      9.8193728802939368      38.151499017444777      46.602947627581628
   472   2      30.198729684725965      35.485330453841158      5.6742916514098205
   473   2      26.539557200529774      9.2790560047035644      44.696109038296406
   474   2      23.863695284525846      6.9516539946587868      6.1119013868075731
   475   2      15.350738611984459      20.214222809980427      33.579591607610972
   476   2      8.6901092523715402      38.659048899819282      38.577022971342032
   477   2      43.406334008914079      1.7641156254815782      23.740712437762106
   478   2      14.073525198849584      11.297042474011432      40.662207760784455
   479   2       24.20025372369776      35.930091704418025      27.863555437060555
   480   2      12.053935139908623      17.670579879496209      27.095065951836556
   481   2      22.298594723932641      9.5442765157361009      27.032944997489398
   482   2       3.306404933087228      39.054698210974792      24.797057394071537
   483   2      19.110777897097208      5.6118637908580657   -0.032335448709878083
   484   2       41.04537643029682      13.111257225039955      4.0615609683413787
   485   2      34.213076277142662      34.529888926892198      20.757889972204197
   486   2      37.338154064421261      3.3548807782569887      21.338683628962457
   487   2      16.628589990446812       5.919145787134295      12.178083823132823
   488   2      1.2228267203326166      9.4230293424083147      48.577367059793566
   489   2      13.648542260437345      9.1580917922176912      37.228521660418885
   490   2      22.258150682624365      19.613043348264142      16.595273491955371
   491   2      10.274740412239227       16.86044398479082      5.3883556182255781
   492   2      45.780054628005132      19.808105767604545      49.604691758242978
   493   2      20.721377022869557      9.8801483919008799     0.82394421502288384
   494   2      33.496733069167554      34.123135030377377       12.83873864908182
   495   2      14.494545244087362      7.2776425289730167      33.168674024341747
   496   2      7.8451980231360778      18.605089312709676      17.705239188558981
   497   2      26.784159963311549      23.854096400425508       19.53674723428087
   498   2      39.910554018991128      11.399090012628974       20.47068265026904
   499   2     0.87615449392281408      9.3940357142777398      34.723948671481899
   500   2      3.6641003297009789      50.016680467401855     -1.0885827087348368
   501   2      42.159869822776791      42.596761574890301      25.496288623324386
   502   2      22.975008138406952      24.367463752704406      38.570602838675228
   503   2      47.443169502406775      35.672558930866252      44.200790602996278
   504   2      11.628183574322597      38.421343754615023      34.960705889576865
   505   2      14.530384266103463      19.281029211311367      39.510938133452861
   506   2      1.6909018040177912       24.90465441433691      40.477266894143376
   507   2       24.42290722832298      22.975631753624633      33.144189327534463
   508   2       16.87516782845795      6.4894462443158982      16.487575467170785
   509   2      21.275032305902368      17.305933674778082      34.355786860300654
   510   2      30.836475390889593      31.086717490634591      45.213566799220509
   511   2     0.86680530869612216       19.99961946231387      42.579445159962994
   512   2      31.146587112635189      22.057585027728347      11.029633283405939
   513   2      40.306608226795909      45.950128334512826       22.95999314532617
   514   2      25.703480965345712      23.143105081181041      25.219634269861771
   515   2      1.5348521939912563      37.914922018110111      14.157955394522402
   516   2      21.707996997958443      30.721777125913064      29.427329509626617
   517   2      28.219261169289975      37.736346390098859      45.548575992512774
   518   2      4.5327681933382591      43.201244949284423       33.60223339039154
   519   2      20.700491038882529        14.3329012448207      19.746948572606193
   520   2      18.242471281214186      48.326605941956494      46.193190313743848
   521   2      6.9751102852133524      24.990418849182596      4.5686283764732565
   522   2       33.57065286381463      46.311495291901394       17.23701702443169
   523   2      28.075056765155015      50.306495849951951      20.865875544460085
   524   2      4.0470642592398729      19.392247678843319      12.075518110894773
   525   2      33.085709780107777      18.684823075733959      42.014072776557533
   526   2        5.17439143457546      51.363227243896858      33.592895518851222
   527   2      1.8533188629758781       24.12910817037249      5.3891082974431539
   528   2      38.430007969483007      8.4869489252052581      1.4260785581322937
   529   2      18.698368931347904       26.67330858953796      6.8559409462703664
   530   2      23.115289897864738      12.127797483612062      33.332223607044639
   531   2      42.969173249189794      2.4542883094887245      48.106412443118735
   532   2      7.9356262436759435      28.805879817555237      9.1654277063189902
   533   2      23.916147626654851      38.308172415250965      23.741622026968773
   534   2      31.593623797295376      36.992121914138181      39.707991073184431
   535   2      16.183684566446271      6.1154980209313807      25.431627676227933
   536   2      36.800398784444894      30.001550834964938      28.937273804181984
   537   2      43.194014967700973      34.447892640785959      21.816701654242795
   538   2      8.5941947056828685      34.072478872377509      46.196034771282747
   539   2      6.9523903719313962      16.254808138145748      25.278522046458978
   540   2       17.99114768613903      23.391105871622571      38.959853718046297
   541   2      35.066410317547664      28.318174241946455       42.85436545187676
   542   2      43.218389634617182      47.341018831997161      18.918868572659722
   543   2      16.622447603339765      40.452875308827394      34.145909795938969
   544   2      20.407995367492656      44.776052586414131      27.743524963862029
   545   2      11.423308453044749      6.0540962969475904      34.574140730499806
   546   2      25.808080405295556      18.934848395222005      32.760236366912771
   547   2      27.965325088896027      36.631583810179016       25.62666935299119
   548   2      6.9264299167310774       21.50132259270951      31.158740219263116
   549   2      28.085969037766123      47.758616417438361      34.063927551226818
   550   2      31.425069576498554      9.3044222252486577      19.180051098302389
   551   2      38.887000078601424       35.52245059810555      17.606078328587898
   552   2      8.4031002013072822      18.338351969788039      13.373694595902151
   553   2      24.350382670486969      25.474720144910115      47.897999050225948
   554   2      13.052288945785797      48.440894730999425      17.302166958034096
   555   2      11.636163169673504      22.415123009619656      9.1164839884713569
   556   2      3.0753620823177168      23.668051735284287      1.7763809069428811
   557   2     0.40261092639525314      19.433499060016924      35.150338686115212
   558   2      31.710649302986994      12.914173626133788      21.630811893731696
   559   2      25.773341564694597      45.040532152461523      22.553352861514142
   560   2      1.5858208415369117      4.4788172369618424      40.893803427597838
   561   2      2.1306316994205403      40.823950336097042      28.356001478012789
   562   2      41.010814330892217      4.5918915730372465      24.959299618933457
   563   2      9.5317876016026766      31.653848810590411      33.543268837553207
   564   2      41.911352419147796      31.447384482662926      11.503213411344536
   565   2       12.29960495528678      41.183694135694999      37.237069581926697
   566   2      40.162344185410568      22.851514906169903     0.17366009966066634
   567   2       37.11909467542354      6.8478657290007634      27.097385484482661
   568   2      31.966605001748654      23.420960418463221      16.371990398409018
   569   2      31.748899912399445      31.275206722977885      50.396347632782877
   570   2      37.775921020377361      6.8710246975412916      46.679806174621966
   571   2      7.6546511990358104      38.464572345094211      32.513067981607129
   572   2      1.9311609703667663     0.93131788773341295        35.4616686322249
   573   4      29.065653762130953      31.695240749159069      6.8306354092577122
   574   4      6.7864811783843519      11.943190821364164      25.600239136293279
   575   4      12.935165382667895      34.675326336528926      35.037389856864948
   576   4      37.735145788737725      44.645532693072518      46.333839541453841
   577   4      22.343764033268357      39.326915362691189      38.422028273067717
   578   4      34.936315727681119      6.2383920935248254      1.7004524924631577
   579   4      47.615298380873355      32.816971378329917      23.445890320542894
   580   4      17.834465239169507      42.761107834386898      41.713493504685026
   581   4      1.1305537175797478      35.656502921906522      17.701079834341201
   582   4      26.639155050168768      41.375515039282419      9.7061717188479939
   583   4      22.285739187048954      10.820146119290042      4.7716916954458748
   584   4       42.73855332858416      1.8424651252601871      17.433952626942524
   585   4      20.232667863267249      41.816837441821626      11.882901568314615
   586   4      5.1156055846006465      8.9585882360731883      24.057154612148977
   587   4       15.45710950939503      40.163852497609376      22.628247001305894
   588   4      10.040311077162324      24.216031564592043      30.771879793200405
   589   4      36.850212505810049      20.189119823690721      25.566355950074815
   590   4      11.572328385480867      15.677414942377888     0.78125041824994657
   591   4      26.283301006446354      41.616914787666843      29.889948074742243
   592   4      37.315817063957432       32.46320931123195      31.606769867215895
   593   4      45.779333644269201       20.85371502460146      35.030914521397087
   594   4      18.150198925387318       42.39146840093948      29.431304124619039
   595   4      4.8924792555326349      17.694801289056084      46.037694499048825
   596   4      24.957809659494874       16.46268787495794      47.311863094184631
   597   4      42.728637127512577      19.703105786396215      28.294987365141328
   598   4      18.712618248228736      31.077011450144823      13.098053958335552
   599   4      18.058140823514371      31.065187501668287      45.049909451478435
   600   4      25.828232153977524      44.133828434126741      36.143629772223719
   601   4      38.007156162660195      22.098248848145907      9.7677130491616957
   602   4      9.9842085411119772      43.556766133793175      35.057307714861061
   603   4      6.2243154909845746      45.026635513393771       29.15953203237078
   604   4      22.058817193862371      44.377507608820189      42.219496907619451
   605   4      23.442970973609235      21.962268426203611      22.390996590853224
   606   4      42.917694645900426      20.919639821842768      4.5361607946575013
   607   4      13.381378393093161      29.815427127713285      15.784739401040088
   608   4      1.2126769393276664      36.660494390138389      5.0760134238096892
   609   4      39.095461779547485      33.621779185456852      40.525086455808513
   610   4      24.226750278240701      22.855411736229989      9.4938910207424367
   611   4      39.530307024154233     0.70555862559620919      22.315661425079767
   612   4      39.609458835523128      11.787754570947378      10.211981410464366
   613   4      22.320853783673527      19.213400957695733      3.0329570854380123
   614   4      36.143372489653011      36.813919554240435      24.766411648921821
   615   4      1.6345723653100492      10.039674858513903       7.786166195921238
   616   4      22.446923957485488      27.763776417309735      7.5442561574692446
   617   4      47.736249072842469      38.629287698828215       31.28796052649346
   618   4      37.290056970851928      3.4048739877173637      31.782258448420585
   619   4       2.626735474381634      26.133137987648329      47.436308308726083
   620   4      4.0897318250345247      16.524658116929071      18.705719884179985
   621   4      16.692123516465344      19.616530484931371       6.949886672667362
   622   4      21.705874474356566      23.138401817681434      44.759922700308749
   623   4      34.469309373012955      34.284725242421061       4.498670073281863
   624   4      26.345477125688674      37.802981765662636      29.980148770107714
   625   4      9.7976865299020783      20.512163557145648      20.543710571613008
   626   4      44.443795611390719       1.993575790427518      31.447311080445509
   627   4      2.0089166692444724      20.769363745677229      7.8496814914619391
   628   4      27.888729913148044      6.1661723539729092        4.47303621212117
   629   4      27.805772809199752      35.253848209586955      30.453908621804537
   630   4      30.081253563531245      11.083977474752004      44.181737657514482
   631   4      9.3494355700438057      12.854364195839644      19.539558313929682
   632   4      28.716970234996314       14.53542662865445      37.757885939576276
   633   4      10.777210793402977      11.746898902411042      6.9130118709003909
   634   4      11.911133916682955      13.076618912881825      30.477799778283654
   635   4      18.261448876847059      45.157381231420793      38.828828329408694
   636   4      32.191803375549085      1.7785412741805178      39.919136156612936
   637   4      48.742371120555255      14.706672929561853      22.118519253782551
   638   4      41.592316440437529       46.28843327381545      12.329635670364571
   639   4      30.070341509126955      38.182449131088411      35.479446636446887
   640   4      42.314223267092046      13.097303831314296      23.219425754477442
   641   4      41.210068752339012      26.417513844910765      13.140837890570229
   642   4      5.8435411429014046      42.951898482273798      41.130853246059189
   643   4      19.980092140599819      39.076460787405964      24.526315644322427
   644   4      12.192418908057801      34.522994461134708      21.119357560509197
   645   4       34.44827606093088      9.1627613759994215      16.875582908192566
   646   4      38.633635814778295      37.212987880549818      27.135910256779038
   647   4      4.5198113577029888      27.628948266461709       6.709297611183608
   648   4      26.830998103902154      41.014223802460251      21.548238754931123
   649   4      17.085835670220995       1.966315133057531      24.319271877446681
   650   4      39.258099321815337      4.9841757032176828      37.409555229072126
   651   4      23.402264405355279      38.841611783095281      17.752759824284315
   652   4      29.542523238635024      43.857983151652007      40.705857942388626
   653   4      5.7304800080486986      42.398829465241285      24.819591347343291
   654   4      36.114550017397697       24.80634396938979      39.986359372475121
   655   4       40.96774960328888      41.158391419900596      16.147919329015107
   656   4      8.0886886867070782      23.576677799368717      8.0348418589896209
   657   4      23.125977406460194      12.667678941996643      41.911394981568414
   658   4       12.26756120398856       48.67454040739316      43.315274274819778
   659   4      16.538908544766272      37.248842891076997      41.154755799775828
   660   4      47.006983883718156         27.194854729265      10.887811314735043
   661   4      14.485565708273384      38.079998301731997      29.588005146028134
   662   4      32.947588725096409      29.496798362165503      30.442158558664516
   663   4      47.243965366339516      12.259125590797948      20.983511308916182
   664   4       30.10187780711971       20.90253645922812     0.27125055482079097
   665   4      23.164389903971198      41.170409678412135      20.820076775523624
   666   4      47.455135266609624      12.492531960987371      36.471966460837017
   667   4      20.458293251214943       6.597883898887809      14.208640355306024
   668   4      6.5698952475926822      17.952287487391345       32.60398001795749
   669   4     0.72290747318641335      46.806912691046875      10.788893647150912
   670   4      19.946938559877069      35.028110139320404      30.053192061930186
   671   4     0.28176663567967658      22.022386011684059      30.642021143079656
   672   4      15.812068488693535       36.09480789097033    -0.08605303905423356
   673   4      39.006225641920835      45.605553104588495      26.986770586779699
   674   4      20.150037265262608      39.159140445576163      35.200579517097765
   675   4      26.007952645613866      18.232685592515509      26.482456184643787
   676   4      13.012645561271244      17.668085114977369      36.386934707952442
   677   4      42.485521372203365      36.529063109056942       4.083026733308321
   678   4      27.668338931761095      16.928223082742033      29.610931478725963
   679   4      21.076108357599459      47.295235891062887       39.95571556775969
   680   4      6.0851353424913821      36.478989082885299      47.338227086007592
   681   4      46.916250318124888      35.741970173508427      28.899943750614128
   682   4      37.401783759283262      11.067386113529215      45.293758643705146
   683   4      45.931560962933283      22.275500942974713      20.782492011893559
   684   4      29.503754372879193      21.586942437634672      25.170006040053629
   685   4      36.710811299163886      30.632747371305982      39.729494608634219
   686   4      45.431710727183138      6.2767661091394436     0.98753989073665438
   687   4      2.3212012377270153      34.191593948606325      2.4061169738118435
   688   4      11.353625317438686      15.616216497515021      13.573941220712095
   689   4      9.7333460941063983       3.230759248308646       27.88775325473987
   690   4      47.760301870192038      31.067987798087181      6.2363479256920282
   691   4       18.60234354470094      45.105918561683303      43.916599097570703
   692   4      31.106755242133982      15.866792989746894      28.827246060020137
   693   4      6.9746108581389059      44.796912830677961      19.732960425677387
   694   4      38.592860430815598      7.9587053675414712      39.530689034388359
   695   4      17.913862025208772      46.416521820573799      35.227439093294862
   696   4      47.440243283391744      35.787251548170374      33.915645424369075
   697   4      36.275526536551972      14.796406769457509      21.296439866250871
   698   4      20.708598445187192      32.601040699003846      16.025779300992571
   699   4      11.744117742661526       39.87851013230383      22.057967607571062
   700   4      6.1495447534401713      34.167241452123186      33.222591342024593
   701   4      15.482033533187415      10.185830350266444      46.806180476902497
   702   4      14.276179421426784      6.5681893195133476      47.321231538198006
   703   4      30.447526871634917      22.320462433308439      6.7544539661989811
   704   4      10.280344692769022      25.721807876886139      10.280834787791814
   705   4      9.7103666675897244      6.1336265173019848      30.232971461096902
   706   4      24.352599018743579       21.83202584112318      42.138638587944065
   707   4      21.927380537373967      15.680913134799503      39.857986953956612
   708   4       11.15165845598754      30.358252810919325       44.78436553288271
   709   4       34.77789804906633      16.956526692957386      8.9321101704294339
   710   4      2.6801394676911818      17.156721413229572      26.484301378841295
   711   4      5.2589596586207454      34.343830697571867     0.51174422402070174
   712   4       13.03186896263804      18.838367968218147      7.9395696575668975
   713   4      5.4151660428712303      10.452889968706526      41.972358642458502
   714   4      10.767403744571205      48.510575047907807      46.871535212378774
   715   4      17.385452514224607       30.21043422871287      4.2579782506416191
   716   4      4.4154706232728582      31.438698807395582      43.400398952930793
   717   4      13.465027725958665      2.2868335140087663       34.75721112749001
   718   4      17.994633551547022      31.785665141168188      9.7734292263995766
   719   4      31.567267155951519      41.821854266205698      16.321219156768347
   720   4      41.357622750735715      13.381590545180451      39.762873146451597
   721   4      42.904719014303915      15.478218272064037      47.845590211984572
   722   4      28.065907246934309      39.602877601476358      2.0973920784297899
   723   4      41.022894229365015      34.499845258948753      25.593392108948038
   724   4      48.364323719249235      38.099491642575124      10.893297640641958
   725   4       32.92301956493322      10.307375496544882      10.454602541511237
   726   4      46.989376308828398      4.9622538500617752      12.581820879391115
   727   4      45.892265372524847      19.340057614943959      16.634570015472825
   728   4      2.0514173998923302      28.096073992482641      16.245335541246728
   729   4      47.643493266207543      29.101656120016823      28.959336962426271
   730   4      0.9394954256647875      27.848192329717797      35.112483744236805
   731   4      45.914434256376872       44.96353884652882      44.103477845283962
   732   4      33.902743737491001      19.941219205137308      35.061201436693175
   733   4      25.366163814231783      4.6458792945460381      38.007226262774523
   734   4      43.359210166260709      47.336313831250536      45.691516226936116
   735   4      33.711374851015954      27.885301957160291      1.2601472595894514
   736   4      4.3483477922598723      24.400548910838648      24.592376038536962
   737   4      28.700533619352175       47.23475130167288      15.686519618554888
   738   4      9.2175248559694705      19.245210214333582      26.864460742673486
   739   4      33.742634358278671      33.066809577364019       39.70566613423572
   740   4      28.278435319680245      33.018039586284424      3.2995518545892137
   741   4      27.389663264545746      4.8926540282765094      34.749416241522027
   742   4      7.0134292479453091      23.041558293532486     0.85905304860784282
   743   4      24.065624949297696       14.49503397153371       14.68736127430877
   744   4      36.421798358939618      27.084052186240925      25.223652322883048
   745   4      16.441909289009903      44.964500340534386      16.531342781324962
   746   4       42.09320876837409      33.982705485926488      17.883132513379405
   747   4      18.599984566419451      32.703199449401609       22.91360097041423
   748   4       41.44873283242589      44.083930502746576      46.488687686268243
   749   4      17.309238594016144      5.9308202261315621      44.629922378560813
   750   4      32.884579967101324      43.935315529881272      34.292928795546665
   751   4     0.94980892429217745      11.403208739001943      11.257134096039266
   752   4      45.285594582163071      28.863728754409195       8.000935209560545
   753   4      4.9983207491744119      41.539913284509097       10.39190109430079
   754   4      5.8133806040970111      44.982414012309462      36.469988048758658
   755   4      42.486047152625481      39.459970726152157      44.282984350645066
   756   4       28.81352169914728      46.840298147246948      6.7696994984851404
   757   4      42.680630778529029      14.848208896738422       42.78726274925495
   758   4      29.731193520359543      19.190407241787522      13.587045920500788
   759   4      1.3465175166604337      39.171973522089537       7.888723050805913
   760   4      13.469195319757382      23.144211661862791      3.3551734737357091
   761   4      24.820104685862614      8.6813222371516297      47.935454960238921
   762   4      47.089236030328486      8.6300758405323617      41.833772602039787
   763   4      42.850749553979718      5.1042644994829089      32.723765221419335
   764   4      25.842310988262778      43.622935651179006      41.558403798147047
   765   4       1.497548892073397      15.036112344615027      36.939439755521526
   766   4      7.0429165729105234      41.587177061761103       35.72397528647204
   767   4      48.290552994651286      17.679663569661699      24.487617375156461
   768   4      4.1830994021467616      42.795637771254754      21.375697779177226
   769   4      31.824379494601885      41.125618033456469      7.2878822146749425
   770   4      9.3280869797297434       40.53115753202303      2.8927696013243449
   771   4      45.527317717853087      21.691132248162923      42.425895282916045
   772   4       6.103176910821368      7.6109007844277441        3.85868441384924
   773   4      7.9946472061808214      6.2241854687475184       11.12299249609446
   774   4      33.849147661905491      14.395379113304781      1.5402549412958764
   775   4       8.249509193881849      44.712198943999162       23.35791138453995
   776   4      23.048597647286098      1.3106549057505368      8.8520025301412222
   777   4      18.637583255177098      23.772891922179859      46.851057479886144
   778   4      13.272888699391464      12.628163019587982      48.773379421243582
   779   4      5.7378732092099742      37.743461142845071      28.359895252660863
   780   4       27.74328741184048      11.518180815176329      11.994337827864724
   781   4      22.069947518749018      48.440620110212258      12.218287797071032
   782   4      11.542946588268034      43.082436326497671      11.437692738137955
   783   4      44.392809611020155      34.878784245699151      31.802879539172292
   784   4      18.453267084417003      22.107836076686215      43.589852703487445
   785   4      30.415652536900541      4.3458042521558333      45.753278736581123
   786   4      21.814143338108472      18.987753849018805      20.620195174444355
   787   4      30.376813461967711      25.215841518100476      13.013668989494629
   788   4      37.188139936257897      48.266284799647217      15.368139170430538
   789   4    -0.59246984682385684      27.079332348226021      45.808051691089112
   790   4      40.534678187841507      14.596480740615243      33.492555125304996
   791   4      22.414826791767545      34.210472274209941      1.2814724835129314
   792   4      11.323399450777927      7.1991470722807112      45.142370892407129
   793   4      35.049341949164621      30.319946683066437      14.277872976797722
   794   4      13.885807455028377      24.674105974962455      25.007542553179469
   795   4      38.925077758605582      4.0347215504551652      28.701215006190008
   796   4      37.916700804539225       12.07451994352733      34.110643438265903
   797   4       34.94851566327911      0.6553084420489893      32.478498268710396
   798   4        1.38509986776911      27.613905299906559      8.7536683299373621
   799   4      38.457080724085372      44.378808450755876      37.990866103580075
   800   4      47.729604565687602      24.443318036007032      13.188732217020721
   801   4      29.061968294490473      5.3389687380716611      14.337548311067366
   802   4      18.478261578400218      11.849966828280875      28.506782485024065
   803   4      14.761953902561205      15.970489406149499      24.198210596817631
   804   4      15.285405671044044      14.892460223854007      1.7473531892630372
   805   4      45.063846669385114      44.618888390896657      28.851599073199306
   806   4      17.672381652934263      7.5227127752036882      35.965388709216178
   807   4      47.743717375181603      27.385844689016622       5.772491158683418
   808   4      30.279058959781185      9.3559738672353348       28.38534447917511
   809   4      41.707983027782596       28.02644850481407       6.769259087817467
   810   4      19.923146782880512      40.484209439842353       2.862860861059104
   811   4     0.86722096029126228      41.472640435656665     -1.8594461921034469
   812   4      42.633301627919039      10.830924825567614      12.313091278131834
   813   4       25.22212343431443      1.0694191451259123      2.0582970388379547
   814   4      34.651423938342113      47.793212094813164      3.6489077922014284
   815   4      22.475960590282558      16.769554906850168      26.454589922641407
   816   4      37.091763702022298      46.618900136397833      43.227250265049207
   817   4      30.109237869027876      39.042286373386396      21.670229259764064
   818   4      39.969084905870069      1.7680221651677408      1.8985655732252071
   819   4      21.518294983329568      38.188660106621313       21.00332708515522
   820   4      38.718507934215268      41.116148360401638      7.2067306074517443
   821   4      10.770205954458536      35.060411477463298      12.250250429840268
   822   4      22.466622967215716      3.8870296033870813      44.751598039766449
   823   4      16.472110032255056      43.668022988722903       7.385304722663891
   824   4      27.104454949190938      33.134340582836579      19.109488002793139
   825   4      44.886282849145374      40.548183327354728      23.274956536456259
   826   4      17.128905387631651      22.857788371501112      8.7848443329277561
   827   4      15.796768025170861       26.56131912566434      33.043359830190361
   828   4      24.940853655385414      40.073118824345876      40.940802649114367
   829   4      21.331105004665524      41.379514329751018      41.260159851184035
   830   4      47.859618437586626      47.016236784898226      30.267423887009862
   831   4      44.344719753725393    0.049887636621679221      7.0200176529324603
   832   4      11.257982814550338      33.237452465855775      42.261232381963985
   833   4      16.874067711917085      9.0691799881121771      19.652089421617703
   834   4      38.482984630140635      16.160846331032374      4.3871176936793868
   835   4      26.993409221820929      45.457722401925096      38.580136324613399
   836   4      41.825896956517823      37.799238744489138      17.395916061629325
   837   4      38.669908458218551      40.898059048286363      14.294645666530322
   838   4       35.01218526808205      37.070795710323416      17.448676514661219
   839   4      36.194493070574531      23.936993479187418      16.920645609643842
   840   4      39.531727166407407      26.864707417725381      27.481920791875254
   841   4      28.873448924760662      24.688299158858548      27.252671128702271
   842   4      6.7184080248817057      5.0521261254094041      37.016502587027531
   843   4      32.935083783120916      40.801305923251057      27.794551878168441
   844   4      13.232584465109316      8.9046150591674973      25.252238531322714
   845   4      15.054433700866916      22.996548621987479      16.678163124830061
   846   4      41.486244157384867      7.8915798811134046      18.366833525550412
   847   4      36.040336239411971      35.959959109799698      10.287647829767138
   848   4      46.849156874928426      6.4788074830738474      20.932325195795503
   849   4      36.080060888046205      22.334271960102306      3.0696553340543167
   850   4      46.246100211581506      4.4434936895682409      29.553885477024775
   851   4      18.544089445044399      5.6067872191682406       30.08140954858473
   852   4      9.0574810595867099      32.245705807458556      21.140660033439616
   853   4      5.6270443921954012      44.264208756225138       8.098216425649257
   854   4      19.751793888334795      22.270137965777533      35.483696503431915
   855   4      38.708056977249811      48.334815219973279      35.412334870116979
   856   4       6.926294280224246      41.426854178852722       28.40464457951634
   857   4      44.074363633792466       38.63976080545028      32.059247727283491
   858   4      2.4327624263050476      45.171163870270867      29.887556225612144
   859   4      47.935087351906454      4.3108331026198936      37.129021390755824
   860   4      8.6099549885180728      43.387072702452869      38.504573592711608
   861   4      39.335167345825404      4.6702587169465097      9.3522019197542789
   862   4      26.109890614506945      29.890187191719949      32.661718661323214
   863   4      1.2971852749729487      24.210275221218904      44.491592189379105
   864   4      32.281902135045613      47.263077327485846     0.73924742944357558
   865   4      20.662481179358259       25.41248473000736     0.90792929277054768
   866   4      8.4284625063357854       25.18768833546962      17.431543372766605
   867   4      15.823069089171939      47.580093439721033       43.94936252927269
   868   4       23.46313534360392      35.910287285791419      8.1565730207305513
   869   4      3.1644746593799762      22.588430192498606      37.350285917869456
   870   4      36.387727753354802      21.283823948572145      32.449208732953409
   871   4      32.689764213588617      37.020526787474303      46.360435188364633
   872   4      24.378326432089189      2.5335888920645746      29.607882996466415
   873   4     0.26594168893142273       15.99796723856806      40.459801417788057
   874   4      3.3042845460048169      38.181417508682898      10.886915610155564
   875   4      32.341806891472153      39.310011283814248      18.973295663994957
   876   4       18.13198264824301      41.957085246654081       45.23467507972677
   877   4      7.6290343651798764      42.501132476613535       5.522021068630603
   878   4      16.399279587576704      37.856306354430721      16.247909602697316
   879   4      16.148867624833724      14.023105939505722      47.180660302142023
   880   4      27.593860640191934       15.95770342512102      5.8994730274094804
   881   4      7.7045373403801074      34.743672443052226      29.820131122595669
   882   4       29.45455467909925      14.698857263904367      31.958667348602205
   883   4       40.57900314439383      38.114940660315284      33.551588550384295
   884   4      23.651211958066117      10.018015400775635      21.358711373120819
   885   4     0.75024403294736564      47.855882589730051     0.88866291413864951
   886   4      40.105435020280915      2.9727953440474728      34.352458580374837
   887   4      38.590289395884525      42.479056251393558      21.320550320177151
   888   4      33.175751633270622       37.33869519812351      33.400276635736283
   889   4      24.449333450600527      6.3862209811879875      20.373940848631207
   890   4      38.768022011770995      5.2489731244366906        13.1661363638641
   891   4      19.625039416105992      27.401433381672589      28.369510165971395
   892   4      22.205440889717792      31.689460285342257      23.454770042622982
   893   4      49.050485889681461      28.156108368189795      38.733728948589089
   894   4      44.230555154797081      28.480969568002589      41.527090886974499
   895   4      6.3183187797223841      8.9515025325940289     0.72631903622475114
   896   4      7.4957690965950245      18.094341655460557      40.052830128592639
   897   4      6.5945806879695095      44.403134335072124      15.965072672103085
   898   4       41.93713259944284      34.168222269294482      38.089406940397133
   899   4      39.477856131878404      32.158761604773872      18.338236170825393
   900   4      32.425690101131423      2.5019854879894834      10.877762374018802
   901   4      18.978169348986253      14.725354933637821      10.309042502487598
   902   4      36.507926289132691      47.981548960050212      6.9508489233020878
   903   4      30.123518675366604      23.766077156938554      30.691499058089871
   904   4      21.236664488606777      1.2363546051079481      20.562073422694059
   905   4      27.609563760949623      6.9958310301020878      39.971434183230265
   906   4       9.969771787385536      6.1087359084164055      19.869137886375931
   907   4      35.917317221519667      10.532919635355215      38.701586390715981
   908   4      2.8989717149116263      1.4392441983997006       20.20043521426215
   909   4      26.339384313847397      26.826218892142418      2.4201486514326644
   910   4      31.298584242691785      26.327993470281488      36.939001428039028
   911   4      35.198252109015904      9.6272779199162937      35.110230618215503
   912   4      24.336035692908109      9.0608624133918241      31.088686811354737
   913   4      6.3451551412345655      31.853712846352408      27.676578733316536
   914   4      6.8109444343903158      12.668109054534291  -0.0045561491047737294
   915   4      37.167568627383098      16.755844454546555      14.977496781323538
   916   4      30.717308035700579      31.738063650384635      19.374949177887636
   917   4      20.399516709854542      13.056849689800554      7.3040008032414674
   918   4      46.250833453074293       17.53344767180895      13.192820826993826
   919   4      28.675708096135612      30.054950040423723      10.326751795316749
   920   4      22.589380161393741      7.2429879988035974       23.58697298361324
   921   4      32.935430333043854      20.663082928812869      19.821211741914809
   922   4      25.770385530266129      41.140286452160858      44.310977065188148
   923   4      14.402166305952306      9.9581870274529649      11.933417794790193
   924   4      26.057609456550537       31.98044774970343      29.445930381584944
   925   4      3.2657835506642212      21.929533915192415      19.047035163822368
   926   4      9.5582427179072447      46.035417400629946      17.380507208659793
   927   4      2.5381321389321658      47.370477874144015      39.877373259933947
   928   4      45.194011040756266      5.5778121896042565      23.311408567096127
   929   4      23.455862121406092      13.464491690963388      25.437634614543867
   930   4      27.380155982238975      27.752036472456673      20.314083671398812
   931   4      44.387291768614759      27.632340080067031      22.450397431299997
   932   4      13.394375806389137      46.869663463515451      28.478631773403841
   933   4      16.530257503068572       46.65889221506928        1.37199536366445
   934   4      22.592194437401183      6.6825086812879686      38.589712553982551
   935   4      9.4406513165399222      37.072788232927017      15.196661178803838
   936   4      46.622420006254671      30.422939340216718      39.249742750578491
   937   4      10.541673352988054      26.106138281296253      23.811683572241584
   938   4      28.576150461101957      46.823588824322407      26.454697436270525
   939   4      8.4264125248758734      31.907922235209423      5.9864677382195959
   940   4      11.852139043813175      21.311825457433432      36.211900032805055
   941   4      41.102200567856571      8.9157863380315394      3.9617549063243529
   942   4      38.889662901179854      41.588591719058556      32.183496180900406
   943   4      2.9760840380281208      43.746575658444321      38.777379893177503
   944   4      3.5246657765061942      3.2726849874646247      43.940923272557711
   945   4      33.074631272392871      23.922460936810221      42.257539524923473
   946   4      39.356527251699163      34.270162117679313      9.6088807195988704
   947   4      39.256609178354402      21.132668513883843      45.393241360572254
   948   4      7.2266305074715786      47.246935347177057      46.418881390151725
   949   4      28.783459240888536      3.4081764283473226      11.033567145020884
   950   4      21.456720219123387      4.0020332187559173      7.4842316240758242
   951   4      29.230575069182603      12.505852311923185      18.139809375525761
   952   4      20.929381354598863      13.500053258729265      36.873737609964955
   953   4      25.312588734376472      1.9419353000370301      33.199814040695401
   954   4      33.947725088883224      6.4377807537164804       5.359766721219219
   955   4      36.944675716684259       7.297701702908312      22.897501414018887
   956   4      42.198348225639329        22.4182241395931       21.26126691005463
   957   4      27.781149494419473      13.818205207252584      8.9440789726615666
   958   4      36.188207189303718      39.866643915432981      49.676828351256738
   959   4      6.5628667662170903      25.274934179165761      31.677645511317177
   960   4      5.2088534654375946      31.353142522718432      7.8727444912100717
   961   4       25.70875243283766      42.597176783178838      2.4050373670660803
   962   4      16.668447756677228       16.83451844216108      44.550636236600674
   963   4      40.676851757281014      7.1032260153972695      28.289651718977694
   964   4       11.93196689876658      7.8081354263526634      41.495398506486971
   965   4      28.002787483271661      24.980693433729073      15.521449984928443
   966   4      40.666621254791188      20.448441557823454       38.11388994484593
   967   4      46.852110411886372      41.344897543900586      11.966914507212151
   968   4      11.712388209614204      43.133952755946062      23.502119887940967
   969   4      41.089334930510717      43.893110270506426      18.756491994225648
   970   4      3.5866018666598065      40.409094370017868      37.009714209056575
   971   4      36.646217046103338      18.402808915041689      44.514982041656928
   972   4      41.261337685412109      26.608639661423656      34.489524373254604
   973   4      46.855770325650866      47.904240779726614      23.449259029950472
   974   4      32.501170140190659       6.969202690812244      35.645115377159236
   975   4      16.126186753892163      28.991812842490809      21.332539685206353
   976   4      22.959404221813159      45.407788164414491      45.745367271101664
   977   4      33.773738590517048      10.703639610274648      44.686199775653762
   978   4      42.799267252742304      42.922116435865135      43.103185387009901
   979   4       45.03416833194715      1.8962248839823748      44.806930078389286
   980   4      3.4367122131069237      34.069266561535898      40.918332900795768
   981   4      30.130280529146571      47.912946983883572      23.254508823524851
   982   4      6.3762800244624991      31.175874076818904      2.1032478672772057
   983   4      2.8524595273187217      9.0754961698345635      18.263056260359139
   984   4      14.915958756417771      19.884212246824777      29.436025682994767
   985   4      41.975152021919527      8.5455305835554043      31.431025477491136
   986   4      2.0990313375291918    -0.44939119775308606      31.768107139948736
   987   4      2.6724223600274684      46.636893633319382      7.5709454439020547
   988   4      42.774182633817695      18.512987615700652      11.808460477631987
   989   4      10.091463620164063      31.911244195454909      2.6434286599900925
   990   4      30.747815463916108      10.285988568197387      24.675158055890396
   991   4      23.488648723486328      20.421608633649146      12.270685417415933
   992   4      48.302761557894179       19.41567573774903      10.512873276754307
   993   4      8.0308941989494436       13.81494889019619      12.879359711211011
   994   4      15.538952466349549      28.682809742163339      1.3464558390264181
   995   4      11.755339576691146      41.054084260694601      44.637900321403201
   996   4      42.149583859572218      3.7273587395399712      43.374151199486377
   997   4       25.25728646218068      29.591167471176064      43.385356962383426
   998   4      27.442982417397577       20.63659330930204      36.958417976667995
   999   4      4.6769921796387486      12.237790791442036      12.005845471475743
  1000   4      18.195234371665819      47.992160380768972      21.824702342530127
  1001   4       14.54244214347932     0.43454322717825355      22.124037329221377
  1002   4       17.74004168888629      16.360776556477447      13.636399839394462
  1003   4      39.734070009550976      28.942948797604078      46.859287821062978
  1004   4      9.3159264991677748      11.921531712945663      36.778316828756509
  1005   4      11.190717696740448      36.561958414091684      24.120095916551296
  1006   4      39.341256851852023      11.082790536633253      37.533984910638246
  1007   4      1.9078192847619726      30.613457877504633      22.715418320333121
  1008   4       45.62847545883546      24.836153414050745      47.567252917608087
  1009   4      16.890726507385597      12.888994727561744      19.203917097118666
  1010   4      41.855844932791818      34.819745999763867      34.720643677120663
  1011   4      34.123827397669849      3.3321004322842862      18.822723727659188
  1012   4      18.229787651738867      11.634600984353852      46.860821513838133
  1013   4      43.668817879926735       20.65930791563515      31.890976385620519
  1014   4      7.1355017677784556      4.0543045542153111      18.283050998607791
  1015   4      20.068391356726856      24.904012258589816      41.881376237658927
  1016   4      32.133144208295931      47.109221160226461      32.517747381327339
  1017   4      5.4776088784436192      15.930712921355084      5.8623845112468498
  1018   4       4.481976481400487      10.779882447135837      33.221844455731116
  1019   4      11.921579742934304      42.181792526067838      33.161867800470645
  1020   4      13.658105732132029      18.081519230348693      43.049500180837356
  1021   4      40.973765028237224       33.83409061350546       1.929565725480143
  1022   4      20.013637392951193      45.106960320000816      23.648998283626412
  1023   4      35.855101378307843      12.414219107933635      42.166931015140143
  1024   4      20.043384260298343      23.917030825321326      21.998489905248782
  1025   4      3.3501798345707323      3.8035353774888128      25.875645957039911
  1026   4      23.280092988369052      21.131247910674805      6.2086741124925213
  1027   4      34.741493496329952      27.404127058253515       8.118560506355788
  1028   4      44.516345451805044      15.835030309400759      17.268142362463433
  1029   4      1.5325680634911778      31.456492533240649      9.0923773460935848
  1030   4      18.545369282875079      20.400970284521456      21.914388272493309
  1031   4      28.013268810042543      28.155448982913558      13.622904785402449
  1032   4      43.940434904346226      45.224875408754833      5.9369561984332204
  1033   4      44.310559113308038      13.955818831666283      6.1125402998506422
  1034   4       7.978292796834042      16.300936066799714    -0.57358471196673966
  1035   4      29.377108651655025      35.829211968609073      12.685885477783623
  1036   4      16.918215002499217      19.757623049714162      42.319243109753344
  1037   4      44.259756610126111       22.94538074737315      1.6030073962686404
  1038   4      33.608898175310877      27.841615679683983      22.697551186640656
  1039   4        17.8662392944941      17.648091337566811      31.265590557816083
  1040   4      48.903345187319132      12.522080825094623      46.289059548023964
  1041   4      29.784299778124723      46.551572987955574      46.676076500848197
  1042   4      34.721773995299877      14.274916979046644      28.990498703277691
  1043   4      25.268118812106149      47.589634474456091      14.120800584531919
  1044   4      15.728121319646977      32.063273894288635      36.037853096849361
  1045   4      11.289372887595629      7.4878057738188692      16.572168284432944
  1046   4      22.214697951241281      29.649442068291258      33.038677242608266
  1047   4      8.7566500543347026       28.86504165639488      3.8326737442664274
  1048   4      38.461301946781205      41.084170182467886      39.790807282287815
  1049   4      34.036013555650641      27.916450295338333      38.821073803281273
  1050   4      26.222089685380645      33.632469119871281       39.17219958389633
  1051   4      14.401313232945915     0.38057798766880779      10.126826289811746
  1052   4      2.6121650861486549      9.1663618187645994      4.2910312145964244
  1053   4       14.23057889878233      30.960401854301768      27.913486245525341
  1054   4      19.195167642010386      5.0778785390185668      38.458557888250411
  1055   4     0.40750110684530444      34.431786531337593      10.841406627143801
  1056   4      31.174362072555059      27.961081603186141      19.725788164059939
  1057   4       26.81038546385123      20.127598413458074      23.284540801147216
  1058   4      44.096731073119891      27.791517946321544      29.106338565636609
  1059   4      25.389698452010762       33.39430254689087      47.903059715246449
  1060   4      9.6480192652554972      1.4189031090015078      40.770709521642793
  1061   4      44.339117880762068      6.9231570606286024      4.6313093577981004
  1062   4      16.123360161185062      8.0865905703145504      5.1611733306469452
  1063   4      43.550574846973475       32.94876145017286      14.544076705695339
  1064   4      10.571780407450319      22.826996322566867       12.69729615742701
  1065   4       36.50255354959787      37.453765880894018      46.730581516217441
  1066   4      48.209423044714633      31.819029739554871      2.9186596129302917
  1067   4      47.097118970314916        19.0737292016757      32.138736523801853
  1068   4      21.978734163930188      41.890354457392256      44.942470415258747
  1069   4       7.857540591339589      29.161685639106818      37.158593274734294
  1070   4      29.417555204722852      17.809412350007747      43.385560055378555
  1071   4      15.377995414203459      29.981786448562179       7.523079300188968
  1072   4      41.150569675309022      30.681417413787301      4.0233620842632396
  1073   4      47.779173692082281       46.25027559666708      17.010065210305697
  1074   4      22.996368019225084      44.630985708155116      19.222904509390293
  1075   4      3.6106856204961919      38.856315995608668      46.288858043274487
  1076   4      4.2091171708033706      2.2257948636345897      16.610234541790298
  1077   4       39.76510989477849      43.280005693616047     0.13663509894282319
  1078   4      5.5701072122148725      29.371085483598478      15.414772138033253
  1079   4       33.87662709287423      1.2560752915485911      27.426846884097959
  1080   4      44.117170319383838      36.255675663003515      45.763887122181664
  1081   4      1.9224743824645598      4.9553138889136985      47.059583841819354
  1082   4      5.0840766781730329      32.732779950926528      4.4902403236963426
  1083   4      2.9837592650093541      4.8309333615377597        37.5013745621007
  1084   4      15.604621714231104      47.625278670644391      40.138935415544289
  1085   4      24.715912583630086      2.5805847844535199      19.759163780015566
  1086   4     -1.5684634421762418      21.926164511467181       45.77806752719367
  1087   4      24.819177378154748      9.2525670473132635      10.851710887889054
  1088   4       47.37817489152625      40.639362626611558      1.0077108096482401
  1089   4      13.664985284469255      26.816340258587598      39.820836568758338
  1090   4      23.469134338363244      47.513722755367986       29.32398291857854
  1091   4      10.605357116448323      43.829577473989254      3.5784923706645642
  1092   4         14.547392789778      37.240165011776504      6.4943702821205536
  1093   4      15.340847810796244       42.87766343160623      39.061675706330753
  1094   4      21.983944339829183      25.942245956323045      15.731274236242202
  1095   4      3.3499526561538819      7.4033847644639694      27.099832667255395
  1096   4      6.7660232311508901      1.2944708482460057      5.5172250792125066
  1097   4      48.991691487637389      31.137939473199314      36.783730003694004
  1098   4      33.380167644564345      45.913067550010879      22.542057096190796
  1099   4      8.4023831621528906       2.458121153899349       11.29342057492979
  1100   4      31.241229959055239       2.263159418507676      24.888273355524369
  1101   4      22.814716539120759      16.038898956428806      22.788630461468252
  1102   4        22.7347141075693      46.633841213462141      21.578862702478133
  1103   4      31.885359127552576      1.5763378061534468      30.627958977856327
  1104   4       14.91575211247747      14.762186840793914      42.120158142386884
  1105   4      6.2787875094332417      28.606218689357412      29.814147721620444
  1106   4      15.842244310178264      2.3260508972230829      15.855182577734771
  1107   4      8.1603144058157824      24.830257896254967      43.014810759179412
  1108   4      5.9459984063015714      45.961646849502444      25.474698880614163
  1109   4      21.024071812058356      23.942789360436674      28.556736328038429
  1110   4      28.503813440942455      4.1126989948288397      25.570720898954399
  1111   4       21.96125733819677      38.688123767320448      10.497537742807122
  1112   4      28.395705999136979      27.537149590545983      44.583864044182711
  1113   4      21.538747167963361      22.753221596997708      14.489892530927586
  1114   4      48.087499216566158      9.2854165963171003       18.70015020353787
  1115   4      12.312166742890671      3.1699623154337733      20.587524656672922
  1116   4      30.592079648817869      15.071331239780926      3.7307709597374168
  1117   4      47.094191394682383      12.468134587702691      29.321228506193762
  1118   4      46.423827476445389      25.321457776736313      20.442598115544765
  1119   4      29.217919181942939       7.752245511090825      36.558320998024449
  1120   4      36.813805069523532       3.625238105644021      44.898941921479157
  1121   4       44.90882973249451      44.826991525031872      36.530150195765636
  1122   4      12.726182116310135      2.4896969358694889      3.7564834617438558
  1123   4      40.431259642857412      19.677302702155846      20.028779908064557
  1124   4      42.615275994729195      3.9787611795269258      29.154147435462033
  1125   4      22.184282172241755      42.086192628443953      24.419002073090159
  1126   4      44.793571650565781      38.796518602554613      10.192422833640835
  1127   4      30.256888371893712      44.393219372757017      13.749103814224368
  1128   4      28.904091259176376      12.109975485739119      1.9569972234180903
  1129   4      27.807620900529063        18.6812561921849      20.271546455520436
  1130   4   -0.078677891565780964      17.094718079600696      2.0952181411754585
  1131   4      42.822313348870523      25.848540688305523      19.605390897117719
  1132   4      34.826098197837112      40.089011737205773      40.205988580133862
  1133   4       4.431078672399555      41.076482665096513      6.8661654887076882
  1134   4      18.681610379263901      1.0321041232077492      1.3907328352262949
  1135   4      40.388411480091314      13.950175801750918      26.339606750346199
  1136   4      48.611949216012484      40.581709563704493      23.317203497054162
  1137   4      47.356960547000959      27.470637384167244      17.548335729084148
  1138   4      46.742862973233407       40.48678988736598      20.041315447149547
  1139   4      32.117781148477086      30.831736557189988       37.16654252630709
  1140   4      46.973966229733499      38.217661735084519      40.901159700692681
  1141   4      35.199176751718419      4.4923627864498901      28.901899001330204
  1142   4      21.432147219450336      16.995809269759839      48.858801646457657
  1143   4      15.261011155702802      3.9922766937336687      9.5228766840147312
  1144   4      33.388925286840262      34.343945326066432      25.741858209075207
  1145   3      48.240260347974868      20.587936981537016      31.493649407658719
  1146   3      46.660708468037917      26.099344310779905       46.24577804921158
  1147   3      48.140646069187021      40.625888301828027      21.506435694877268
  1148   3      1.0569881809000261      32.640108217961149      2.5891682172317094
  1149   3      3.0208685938691722      5.7986076838204497      38.997520855674303
  1150   3      36.890652315178826      13.480628259321392      34.365797881016178
  1151   3      42.171941657560531      38.233052073083812      32.761539912901469
  1152   3      4.3556547054326451      8.5655744832431111      3.9736598955098432
  1153   3      45.961199135867304      2.9679193110160234       30.62849416841874
  1154   3      29.546701572089198      2.4216749914909199      25.868313421312884
  1155   3      29.380314422815886      16.867406380412366       28.76845130329329
  1156   3      16.405074595450245       48.96970212092257       44.93174761059516
  1157   3      48.708851682334796      38.764300805875557      9.1790709978231604
  1158   3      18.441152139614903      6.1989696730279835      37.004088535210521
  1159   3      1.1248227953806369      17.529654414992152      25.535461906168166
  1160   3      47.628116060856819      37.443213271413192      32.765806122516267
  1161   3      46.813778977569449       31.92478270535203      24.671902395852207
  1162   3      23.002204141057593      37.414252760683773      9.1873095146043315
  1163   3      13.896366738746668       20.93426823914022      28.400138829423998
  1164   3      14.895798157280476      47.339884168949212      1.2141322749980721
  1165   3      16.668658787293325      11.002915800146683      19.459168441216349
  1166   3      42.508085102972657      6.9330223349182711      32.363772418814435
  1167   3      38.952316492477429      3.1932303396888986      32.900085202518589
  1168   3       11.75889227968594      38.375734906879416      23.018740296774581
  1169   3      39.564580125966636      45.190479553296775      39.065711382298439
  1170   3      20.343904727316662      22.024696983650628      44.104074884994411
  1171   3      3.4292819275443929      33.289996161131072      3.5777735764679766
  1172   3       38.01145729486727      4.6800741152709797      45.650322536534645
  1173   3      40.174271198471928      8.0274818324324588      2.6926793255661576
  1174   3      26.916995618409128      18.683752813546224      21.988042938920543
  1175   3      37.014145199275333       4.552253121796193      28.432652570010358
  1176   3      39.124786049226913      1.2338305887692469      34.856985275555033
  1177   3      32.325860642697144      14.798008355657618      2.5363337023268322
  1178   3      20.123782564097358      19.510825258951236      21.385856082430848
  1179   3       39.59100927558903      13.084387527823608      33.566229553372999
  1180   3      17.211696378697631      18.388433280345229      43.630146124412938
  1181   3      21.985868307752657      18.042433433304733       50.24863624713862
  1182   3       40.29420295168125      33.562659706097335      17.269301566109402
  1183   3      43.411353693831593      2.3529684606567725      43.660861383283709
  1184   3      22.266800949217657      17.654275599733992      21.867122039279487
  1185   3       6.447771305529896      35.802773727834548     0.50897637343947766
  1186   3      16.522301356797701      21.334018979541717       7.807617000372943
  1187   3      21.557305704213512      43.084856461881358      40.615805537034952
  1188   3      14.379645963922716      13.562502932982158      47.488715796338084
  1189   3      23.659159545192846      6.3180318076504607      22.091194592288282
  1190   3      43.206785396126847      34.849191711838976      33.383308987906332
  1191   3      44.488423817341342      20.292788843399332      42.457866191330417
  1192   3      37.676637091298751      34.994856018892115      9.8231685753385349
  1193   3      19.484599509865316      14.073177129313573      8.6441679714038813
  1194   3      4.7268767813765189      29.519525636283973      7.2281843144370637
  1195   3      35.372842572316827      38.397157210725076      24.372902104381513
  1196   3      42.390759328875092       24.15253143798834      20.623410345696367
  1197   3      29.518825616614272      18.325246845488302      20.491377646573447
  1198   3      42.640820043566151      14.346473545063523      41.076661860314303
  1199   3      16.649713916037307      18.619752770935239      30.336258817537722
  1200   3      14.765238637161849      17.501850143260715      44.503386901894679
  1201   3      7.3588206972112404      42.996955969089711      40.012525364945539
  1202   3      41.353685237808165      4.2328447958630804       33.48209406630189
  1203   3      48.321247656195354      36.913928023408594      4.6919356987880292
  1204   3      36.221281649949908      11.473650622640378      40.682207719798647
  1205   3      28.791891722351693      10.187076053777782      11.454868525954359
  1206   3    0.064938077599381916      25.706009789544073       44.61514488517625
  1207   3      8.9590085077806929      47.955489874192935      46.513888401562809
  1208   3      24.670305435541927      45.075949903736046      46.171889555735405
  1209   3      23.649205168238758      21.532151516521171      10.764121879536768
  1210   3      8.2493789589782232      45.424429450203348      16.309807105618003
  1211   3      7.0684559902052388      44.042150978809957      6.8317584594703158
  1212   3      48.848989103045753       31.54120280478956      4.7282134335234272
  1213   3      32.727663508449197      26.689993286580567      38.088557555536958
  1214   3      28.316723014134197      29.380952940550429      12.090254052482855
  1215   3      28.486666679402152      39.954349454193661      21.585837588973845
  1216   3      31.890109299634442      10.502046525981504      44.098928001898777
  1217   3      26.355285092435246       5.876841533918971      39.146837126751421
  1218   3      38.056486874159994      42.758914864606581      39.016374254613517
  1219   3      25.624046685579781      45.765566582637391       37.15846029907474
  1220   3      11.821194325817462      7.6644101310411932      43.410411644099199
  1221   3      15.825718523100324       6.161144104219983       45.52388145208991
  1222   3      26.803508180077355       3.532722756011792      25.458831440898724
  1223   3      42.407057051728096      4.6780019458671394      30.901213080704185
  1224   3      39.903628188068332      43.102147958174498       20.02926587686186
  1225   3      20.117129553228931      44.684094025340436       42.87496064666027
  1226   3      18.028236476649887      22.786364380737698       45.38607209381744
  1227   3      45.554597595603752      35.239492454966474      30.077863195380065
  1228   3      47.899658777677303      46.107889504357878      10.827934141824558
  1229   3      23.146398372540204      16.715077092584558      48.037131163761636
  1230   3      3.1649445521139561      31.534115448569313      8.2834134192784017
  1231   3      32.619426591547033      1.2686726580764494      28.852123173291492
  1232   3      16.811081339129451      43.758948491006123      15.327211031918898
  1233   3      36.414335545716696      1.8687335247975616      32.414313363212052
  1234   3      1.1032871147911014       29.92306764745236      38.031849185254153
  1235   3      22.590849367009042      16.850356502780823      24.594501684715151
  1236   3      7.7483500989273448      33.590960523236923      33.751809606676254
  1237   3       15.36033356281118       1.535404971854798      23.470452200505086
  1238   3      39.569602123874567      44.562841337397856      45.958435132576341
  1239   3       23.91807112083416      44.035992591943106      41.801773370660065
  1240   3      42.025792754139985      35.807566563636982      17.857395119105028
  1241   3      22.893005829217923        42.9451845415877      20.018375709281571
  1242   3      13.421155788547493      6.8420850098946024      48.828806375862527
  1243   3       41.41783732232642      39.630226020318148      16.994919572596483
  1244   3      3.3008863790031699      1.6989655753180499      18.418350849569091
  1245   3      19.363163339889184       24.78165508484345      48.630830374960141
  1246   3      32.769545444831245      32.288689616867558      38.181765136608867
  1247   3      6.4527614457510563      26.843482005087061      30.611811828796519
  1248   3     0.90988278733653249      15.512537916314137      38.800958852240107
  1249   3      10.708661148529803     0.61814950918646394      42.039358318778866
  1250   3      18.399072588924941      44.071215738889329      40.374208316830881
  1251   3      21.745248991087529      42.552199646793362      43.128939579334727
  1252   3      11.279187183536113      42.144770388344384      35.202123120962796
  1253   3      48.617286828581989      27.291168621120484       10.05978222075276
  1254   3      11.671819906218445      35.801096170540276      22.470342214647225
  1255   3       16.39448581734985      12.115143347360712      46.442437811525956
  1256   3      5.2389428670919145      16.949643015625291      17.485980092376305
  1257   3      9.7521725962311816       14.89781804954991      13.159452797784642
  1258   3      37.002099560145481      8.9288314364714285      39.182545376462009
  1259   3      22.443561649906425      24.506569943837754      14.581039802366194
  1260   3      33.580464669428743       48.15178483755475      33.053388973538553
  1261   3      10.858040442922386      34.971068450404424      24.995017940629101
  1262   3      27.587254260185603      48.184245489707997      26.868021887459271
  1263   3      47.708754962166871      31.607584985321292      38.259381726563554
  1264   3      26.136530623395366      35.836748858943437       29.64131661187006
  1265   3      37.582635313102237      11.472415331656993      38.294113647462275
  1266   3       5.636932869178934      3.0243808507012102      17.413631528412409
  1267   3      4.4642105881760434      43.004644776294974      7.2675733627262504
  1268   3      44.491043333260826      18.064615607047095      12.708025616052566
  1269   3      34.347108660578087      43.980443606704242      33.358836855109963
  1270   3        30.9498428465652      7.0720876179610981      36.703737903584553
  1271   3      43.127812313424165      26.841473406002766      21.235533935689684
  1272   3      2.6983130031803646       40.46505568249318      7.5995614022100151
  1273   3      34.491233731403483      6.4476422063062033      3.5988406327309987
  1274   3      47.793285840757953      10.758493229173379      19.727587475351836
  1275   3      7.2471741723833025      44.568907513541831      37.673151590272873
  1276   3      24.045423041540154      39.702248824427599      39.214843958941238
  1277   3      22.743943090748118      8.9559984826799948       22.83744669413225
  1278   3      1.0056216907861555       8.563288621869102      18.915657859385441
  1279   3      42.768789207129466      33.596933775423977      16.131551621921012
  1280   3      23.017640138543836      22.282038731740865      43.221560239487388
  1281   3      16.859768812712307      46.375563496775698      39.517847844212859
  1282   3      34.459571631324749      11.523319379852298      43.114251799276268
  1283   3      45.894142246740977      35.270512757714386      32.875411610632568
  1284   3      26.375558880607137       19.03616585323709      24.716743734823702
  1285   3      16.255368073567354      15.441964590211603      43.224302022132996
  1286   3       38.73819078426488      11.552059340019335      35.809673338154155
  1287   3      29.664259539352464       13.69928748884962      2.9796359323577413
  1288   3      22.950790578576047       39.35863766339844      21.714945222451661
  1289   3      32.421765463105039      19.952294432685434      21.301474022401603
  1290   3      17.727371100302207      48.227483869389637      1.5274311230498077
  1291   3      25.988314520413248      10.582026081828728      11.316752421013296
  1292   3      49.001220468928501      31.305710089598019      7.6643685057187749
  1293   3      17.630809081429334      46.721938324372047      43.895066936157697
  1294   3      35.005352188693202      26.284615629997397      39.583019064616337
  1295   3      11.303333471880592      31.903416727114436      43.630318262149558
  1296   3      7.7472218329282789      44.569545701431728      21.532235145395514
  1297   3      21.446122986726813      11.869821255342686      5.9470501778575562
  1298   3      35.441779892380694      29.131571394833909      39.421728391799121
  1299   3      35.308321041215528      32.036535381672017      39.607937762599612
  1300   3      28.331499506871705      7.4300997281730217      38.119286127222516
  1301   3      30.420365442628032      15.696494765880857      33.039477876460538
  1302   3      21.109672597034901      39.433626232833326      36.742294343076061
  1303   3      16.670304073056073      30.968016128329523      8.6682982323448368
  1304   3      29.276252556906144      27.673546406196863      19.970626691204547
  1305   3      13.930826907203437      48.196306070886926      43.946704140127977
  1306   3      10.400948711845004      18.569909251913323      25.660125204875737
  1307   3      46.706415705354601      4.9054660908951018      22.420899982643888
  1308   3      8.3088587313992601      41.095701035529736      4.3276278402623474
  1309   3      22.722796823920234      20.363971633822405      21.540401180745718
  1310   3       2.147233319832909      9.3957349993323973      6.0494000070738609
  1311   3      7.0462383282927306      29.559688844447198      3.0632428228713353
  1312   3      10.715580312251088      6.8851820397663941      18.199414771686619
  1313   3      29.451814105355208      26.973028068434189      12.997754446398162
  1314   3      31.063559841885155      46.764491315257644      48.005671068722883
  1315   3      39.030508738487839      41.152734485427757      16.202163071408592
  1316   3       42.04355244453518      45.846824720339796       46.20428874223164
  1317   3      14.962497986931538      8.3360836465726482      46.914620934281096
  1318   3      29.432819417471524      24.074280140650718      28.951045506294424
  1319   3      30.760427333818278      43.126822107585944      15.030192253936326
  1320   3      18.030727379318758     0.70646072203219401      23.261389652725118
  1321   3      35.686859458419882        3.79119999369169      30.586028832771216
  1322   3      19.155708438551329      22.107243852230557      21.908059747358291
  1323   3      28.009903849146195      36.204647967162224      11.603802324376259
  1324   3      45.925723379068479      23.880748443652422      21.855223694719957
  1325   3      44.772596530099406      6.5164645389791795      2.6971022222090304
  1326   3      18.746698248100927      43.897267488363468      28.765529039651344
  1327   3      47.390911943570778      26.174957932060419       12.61205198199143
  1328   3      30.451942990312052      10.137432495101223      26.544571413170921
  1329   3      13.430573054863675      1.7206408829069906      21.384522674608323
  1330   3      22.389104575462518      41.951579340880315      22.553683427297564
  1331   3      45.518044026845033      19.893778576025483      31.625253302119763
  1332   3      27.793030708186222      14.737837631666663      7.2176462818811356
  1333   3      6.6670163816422212      45.839734154841736      23.774522006916424
  1334   3      28.018286417908936       37.18917896273355      30.615454947070202
  1335   3      49.233790703176034      27.501425777139278      37.012018908608361
  1336   3      5.9423700042413383      33.189323251259154      2.0646140613568509
  1337   3      23.682797021751856      48.283439412195591      13.186900777019279
  1338   3      41.020663180474209      36.905506184357876      5.1081891830940176
  1339   3      24.926180471100899      42.400632008766657      4.0090694463879668
  1340   3      41.728198049465718      43.326075448256674      44.743670623768409
  1341   3      7.8893698399026793      4.3644750700963417      11.236271078620405
  1342   3      19.971695954473017      41.840205015268587      45.070386086549973
  1343   3    -0.12384889410232232      23.163944228113333      45.410466017168524
  1344   3      1.5312714048435829      37.902990972378113      6.6099457990361623
  1345   3      45.113391026138252      17.770228109610496      17.197720935684917
  1346   3       22.46824350047347      38.069370666361017      19.330882052019469
  1347   3      4.2595691940058629      44.493567867178079      37.475849754338178
  1348   3      3.1787226196520448      42.055108709006682      37.775814630215919
  1349   3      35.006990271550883       27.64383347697898      23.978760230842447
  1350   3      23.520408125168629      40.248776241401977      19.156968487793488
  1351   3       21.12164475874922      40.564841200570612      24.759050461966176
  1352   3      32.155039127734575      45.622166895703948      33.683084903436217
  1353   3      16.953229228692337      1.8851494560084701      14.608388859990338
  1354   3      23.875161375268927     0.53384387734030381      29.574127833960592
  1355   3      13.785468443705671      39.791671123862429      22.029975478566133
  1356   3     0.29042641547112824      45.648938218232814      29.944530618114065
  1357   3      21.825682392292507      37.720735652697925      39.028332738001026
  1358   3      5.7545512274076254       43.16586194011083      9.6735725633058891
  1359   3      44.426835495066406      4.6602010907412916      28.726763446847173
  1360   3      9.2317226744570764      24.764580947641232      9.0079569380265614
  1361   3      23.848652842500531      41.253106062923173       44.43293739747503
  1362   3      32.103941247239824      28.078223874649424      21.307693509495966
  1363   3      27.180697146709019      12.000577598756045      2.1379297802115498
  1364   3      24.470252044336696      17.266843571195981      26.434085815037438
  1365   3         7.0126038587899      36.277205767164403      28.948219634518583
  1366   3      45.382278009252957      40.545646037429783      21.453220568095361
  1367   3      9.2348930203176138      43.637768896347097      4.7650710008080361
  1368   3      24.905709371270564      37.857301996578776      17.821413586757647
  1369   3      49.158905528065056      31.653005083367713      23.273508915341374
  1370   3      47.044761906801604      20.155340151654141      33.881496115302134
  1371   3      12.178223752252372       25.33310871110746      24.350935842655144
  1372   3      17.930922519617155      30.664778203532006      11.246293722663975
  1373   3       3.118964004303951        23.6856897079468      19.187664484316009
  1374   3      6.4416258505175188       41.85404731128655      26.658620589682567
  1375   3      21.639084096534564      2.7721656663859546      8.8590178903217804
  1376   3      6.4480517299407714      10.766354796295179     0.32020609128332256
  1377   3      19.564859680235429      31.495164513932639      8.9919194683518615
  1378   3      45.446344226107719      40.430979157284952      11.050015971295005
  1379   3       5.603552905341755      30.365946186878872     0.70666351932582516
  1380   3      22.808266919418557      20.126331517814886      4.6957824087329589
  1381   3      39.256865414791214      5.0957443495958481      11.266080019446205
  1382   3      47.951176041690964      39.887784483655061      11.633318264164872
  1383   3      42.780502975012119      7.8430038694215023       4.033599446172353
  1384   3     0.94565210473898165      4.7285391116096411      37.335113389142961
  1385   3      24.483501262422127      2.0735911861633851      9.5764160416390585
  1386   3      25.564506771894646      39.918642396282593      42.859080002640695
  1387   3      5.3203262961290525      43.856604363501923      20.489926744962734
  1388   3      38.944540496106356      48.201836409702686      15.462144718596788
  1389   3      3.4490876057510542      32.761843122162347      42.230916971684621
  1390   3      31.744459059629026      37.833487580521265      34.490732214589443
  1391   3     0.24608185497156498      27.176373756929692      7.3597803705716069
  1392   3      39.271684117914887      5.8293803495600924      27.935427723840654
  1393   3      27.092663374740283      33.353803230655636      30.072990708703205
  1394   3       16.44368281580951      29.459316506727838        2.79133053598387
  1395   3      30.642147266298338      29.861384976817508      19.360143281185522
  1396   3      35.408584886658666      26.119134084988548      7.1554233167105794
  1397   3      27.910186868191847       43.50240659028303      41.558984821520035
  1398   3      20.966052220443604       5.753643080262103      38.336857495506891
  1399   3      6.9774466680504501      43.294413653102929      28.915893029229366
  1400   3      21.457631430959484      14.666083843564168      38.262461748783871
  1401   3      36.682243246659979      40.402151945799872      40.342148937168567
  1402   3      8.5518962344927054      5.2368948476817714      18.941166821456232
  1403   3      32.364260498906617      40.498869069484691      17.653678972244759
  1404   3      5.0109369444459633      37.578925701883293      46.102916088465435
  1405   3      39.675259501575241      35.632839594061572       26.22795677473324
  1406   3      31.298907268268941      29.250795120821952      29.904921829676237
  1407   3      43.284563333102831      20.092299820518093      30.104456144196959
  1408   3      36.335916232638361      38.588069325587384      48.255315439195627
  1409   3      2.3123742767662874      25.146815612122595      45.759434920394064
  1410   3      39.334119181861482     -1.0285728494696347      22.160113217916301
  1411   3   -0.019986043744628437      13.792505333664071      36.810263146368555
  1412   3      19.361317686232326      41.717245735787486      41.462817685659289
  1413   3      32.947360005143352      8.5346731972689902      17.550053804147559
  1414   3      16.611208865583048      44.100094874624205      38.398322693246442
  1415   3      6.6249712652776953      34.550439278209019      31.367643572345365
  1416   3      46.106588815309145      27.670648189325217      6.8503796201529283
  1417   3      2.7008726611076286      3.8900520992843592      45.525832854838725
  1418   3      23.256695501974697       40.68744729938571      41.441843363767916
  1419   3      27.387609959159036      28.814845736062253      21.740243331746953
  1420   3      38.778550206175055      19.692050515426789       20.65071550379686
  1421   3      10.441277367639906      33.459511592982459      21.151486216677284
  1422   3      9.7290495717756151      15.834058967047818     0.18290534487166182
  1423   3       15.10559733975049      18.852034164273114        42.0907593805182
  1424   3      44.436192181754208      43.675992496970551      43.813947656638405
  1425   3      3.4613075155931887      5.6959793952212499      26.328958790476548
  1426   3       22.67956664102676      22.005266845739111      13.234980042102414
  1427   3      39.443623494233229       2.698026220270394      3.2694205114980988
  1428   3      9.8199564003185262      43.837935830081655      37.011848306477511
  1429   3      28.247741518355138      15.925389968061245      31.127219284730565
  1430   3      27.553524971505535      26.777727375119156      14.964302687849253
  1431   3      41.212504479878397      11.383350969531708      11.201373570837584
  1432   3       33.56240958841839      38.027994077185006      18.245009419075014
  1433   3      28.673063106841941      24.490530167006305      13.817465014738518
  1434   3      30.964530026684113      39.965949478574395      20.248430668673841
  1435   3      43.258755094187229      13.662347150432215      4.7014983944631501
  1436   3      47.292780767162562      28.859743272017987      38.382299101502149
  1437   3      1.2892869134046092      32.506131101640214      36.578504863731148
  1438   3      40.788483924329128      3.5801208880306312      28.913041098683085
  1439   3      38.179678859425238      2.8966249540230793      30.134763207717526
  1440   3      29.137618467120284      32.548714170688406      4.7839556143578559
  1441   3      29.348483655929396        23.0552860553288       26.32414528878018
  1442   3      24.950625167233721      2.4874501176228323      31.371411368851732
  1443   3      19.534098706266811      49.068922399043196      21.064921111083347
  1444   3        40.5971183918805      42.396064435526675      47.337870552641547
  1445   3      11.365406355403563      23.607674709566108      14.086537566188746
  1446   3      17.554125706291995      41.738361129765444      43.468901885200047
  1447   3      23.061502431548906      15.621201981724123      13.896975581572288
  1448   3      28.072747875921205      1.8035276547702357      11.492824519981825
  1449   3      33.591737144602313      8.4660565060699042      35.777116358819768
  1450   3      4.5403443393905603      31.905779925670704      6.0799948857613897
  1451   3      16.519089949877895       21.20598690565059      43.580665092949864
  1452   3      49.037134122572255      27.383992644499646      16.918467127638213
  1453   3      33.575275857461413      47.733465541378983      2.0919652629014522
  1454   3      23.932081875503521      45.455517556004871       20.74736323093277
  1455   3      18.093184826878499      46.137768654881093      36.937411356055883
  1456   3      25.892578819111236      42.832573719494896      43.443696950745561
  1457   3      4.4477622893897246      43.298904607773281      39.921624553931267
  1458   3      18.740484189085663      20.517118692111307      42.546094023314261
  1459   3    -0.45680593006188902      41.103199364470818    -0.49403758195396491
  1460   3      22.342701175644354      43.415451810291373      45.858058211792404
  1461   3      18.547261025702984      15.602814179080855      12.168015810138089
  1462   3    0.089705470178854052      23.697029169453497      12.073163111686176
  1463   3      48.749052297944175      16.034988363565009      23.568807252067764
  1464   3      45.481617056399593      29.279765497255557      40.452321836991615
  1465   3      34.498650624159829      37.394043160669021      46.498718129610651
  1466   3      40.859865650136562      7.7138857871890041      29.998302181842192
  1467   3      9.5253643446052685      23.862898081144376      17.569749349274318
  1468   3      8.5578567715511973      42.353636468876708      34.785332057113408
  1469   3      29.127449901735375      4.1249882052091369      12.894514173170288
  1470   3      17.351029944786458      44.282481892103235      42.834303340095801
  1471   3      35.012894551731428      20.710009365301747      33.609683514811621
  1472   3      1.0549434090642473      10.701030194743687      9.5149786599059301
  1473   3       22.02260848404438      48.204500196765423       20.83212363662323
  1474   3       24.27988737834951      29.617139520936242      32.912957949590506
  1475   3       5.884917380869032      10.506874378279328      24.851400170315941
  1476   3      32.457722396363629      1.6435931831393982      26.163408802401953
  1477   3      14.549529083397896       11.10707651407405      48.049673603555313
  1478   3      11.233439134666263      4.5857756491279025      20.024314051808517
  1479   3      4.0680954344294342      48.228832109656757      40.202448042078721
  1480   3      30.583818395068999      2.7418610381670661      10.981242642259183
  1481   3       6.628041840766433      39.316602153448947      28.162434889025693
  1482   3      46.127966250565713      45.916484216654105      29.523018408671202
  1483   3      40.555645897031901      40.602880218810057      14.214563863567204
  1484   3      27.162758618873148      34.878776991898164      39.946393540816679
  1485   3      46.155566689742777      18.634389412920228      14.884646492648926
  1486   3      38.944968653553779      30.989907920476291      17.191201056059132
  1487   3      16.195848966309089      15.309238966792163      45.904018736760179
  1488   3      20.763087966413533      43.452509814454764        24.3200228315755
  1489   3      36.544608052482822      10.773464639711088      34.404117234122872
  1490   3      29.827543684718496      12.033790510201692      45.681587039235211
  1491   3       30.13322928335436      40.804843394288859      7.1750064035658241
  1492   3      45.941416050238317      39.043117097007467      31.375749481168896
  1493   3      38.588596001007836     -1.3573526099165818      43.606564830421284
  1494   3      12.941906010854364      6.8393970181617858      45.793047966807499
  1495   3      1.4400622684948825      38.343740355027521      11.564069997482951
  1496   3      19.722807983567513      31.798441605712981      14.515183275327772
  1497   3      29.455915686037397      45.790909687997321      14.915785126849658
  1498   3      44.640147440660073       46.16750169177552      44.979004105476172
  1499   3      18.084234055800462      19.033378499184348      7.9006350806743102
  1500   3      28.870721395427658      32.562748703297245      19.428540247029176
  1501   3       41.38665188634284      21.410508079431366      19.939694811953519
  1502   3      21.746146101983676      45.796978553304477      40.915688448744874
  1503   3      26.620974166771749      17.977065213797342      28.208901484669891
  1504   3      5.2315749293512388      44.216747258617779      25.421214042707714
  1505   3       44.47105159071473      21.160641264251609      33.641111632784096
  1506   3       12.39854843065919      19.423255438430754      36.335370740980167
  1507   3      43.403409436372584      22.026916283166052      3.1136654376816759
  1508   3      8.3096581224275763       24.80730745779222      31.063352919903519
  1509   3      12.263072388839776       20.45079851794997      7.9451864227664553
  1510   3      2.0142566217607456      40.086667055852594      46.831976150076017
  1511   3      25.227547276605303      21.111875224065383      22.939901806868281
  1512   3      45.371006239071235      7.0111433359407247      22.028100770212504
  1513   3      3.7797233281287337      35.055133663316717      1.5823360551480949
  1514   3      25.564461632192867       41.95432140568554      40.733536666792723
  1515   3       7.943182392013763      21.631779487470997     0.32422861154213567
  1516   3      48.821360838879137      13.062802690576165      20.456079509645541
  1517   3       5.223234872642613       40.70771796044847      8.6884454656462999
  1518   3      47.177166098407355      26.476434448945536       19.16736210731127
  1519   3       43.54381047659507      37.679321610516318      44.710515090853228
  1520   3      7.9075829722106761      41.983969712145154      37.350433191322509
  1521   3      0.8581098984923855      20.325054898029467      9.2592251763903661
  1522   3      40.264799138817601      12.534651733604033      38.414642652886563
  1523   3      8.4796668307567007      45.559347535672238      18.856018197380482
  1524   3       13.55282823467604      15.582518594010306      1.3439960070521157
  1525   3      44.784824743045625      2.5695148257765683      46.430190303875975
  1526   3      44.383454716366344      0.1375350528019785       45.17593070716174
  1527   3       4.230385918918051      44.754340799647238      29.672426729166926
  1528   3      17.701901657708589      31.395464038802409      46.741244723399411
  1529   3      14.643840634366658      13.038548504323858      1.3449526988410931
  1530   3      7.3081868645846653      43.142693855231087      24.010231720805109
  1531   3      40.879118915363129      32.114760064884116      2.6345335831886061
  1532   3      9.5287377314388095      4.6345033190462326      29.198366031587707
  1533   3      14.284486812826033      33.552844486452095      35.515293344581742
  1534   3      30.507955462703563      14.889187270306842      30.272365819135924
  1535   3      16.521249834733801     0.28378689025890314      39.637898976368987
  1536   3      7.4752133821156299      24.621228013390041      6.7131851725170284
  1537   3      14.949438692200912      2.2017223562567572      10.130259707871701
  1538   3      15.908420138089312      47.600132376267446      42.042788438256473
  1539   3      47.236975182831664      18.511382840789484      11.961549708469926
  1540   3      45.976643557750499      28.274412857172951      9.6106020818922389
  1541   3      21.412068092970095      40.633129068905916      39.471604484253959
  1542   3      34.692785586190702      2.7711105591279193      28.034220121713965
  1543   3      8.3810090355707327       31.66936327312651      1.9747320704010449
  1544   3      42.468111659264771      2.7681076941623104      18.858700195064916
  1545   3      29.524327539139865       47.21199766045401      24.880175645091654
  1546   3      38.088978027230077      34.049672664758724      31.761440636635932
  1547   3       8.554237701951541      30.089375153894256        5.30523578532764
  1548   3      28.499848718001658      6.1606233510781596      35.661350942941738
  1549   3      26.743076204459882      40.928493256787881      2.2094992839375975
  1550   3      6.2719474654058773      17.133906102290069       47.04527959551087
  1551   3      23.993246734544918       33.94317484871813      49.026969288875456
  1552   3      47.103333297928209      3.6436621812560088       28.15698258978183
  1553   3      1.6942557790897974      35.423630283111166       3.607325278274248
  1554   3       16.46464224044367      42.182546192259032      40.549564290892071
  1555   3      5.5084939842465994      12.166898712957435      33.563418566545231
  1556   3      4.0896573444560351      39.812740898900842      10.989559579279629
  1557   3      39.500795787052283      3.8821850172464774      38.745554671040701
  1558   3      23.911773292636006      5.8805220715233659      37.472791307212418
  1559   3      3.8018813770688329      28.956402959620874      15.596437336063669
  1560   3      26.884614565596724      28.368616587265482      43.910890325498656
  1561   3      6.5139481749873447      9.0569987413857422      2.6987000038158109
  1562   3      46.363095757858851      37.915738304016621      10.484826606983825
  1563   3      45.788008167044623      28.560637653450346      29.092618928959389
  1564   3      2.8686930188176296      27.466541760376995       7.503717174073409
  1565   3      44.066598794955915       36.77931548152884      31.738958762293425
  1566   3      42.018438354838786      5.8278380729382269      28.310632571946002
  1567   3      31.521305219272122      48.755521945954897       31.45393528473917
  1568   3      46.616582213522612      23.493286572606863      19.514193052194251
  1569   3      10.706111084292855      24.379815726241173      11.530769443226951
  1570   3      29.237040058211594      15.605840817662465      5.0672569048603719
  1571   3      46.767285170942586      40.438717066835878      23.830506220504954
  1572   3      27.053412980417995      47.212966899812642      14.860963111958641
  1573   3      26.104955408085129      3.3786160812966264      33.913673117866018
  1574   3      38.082224941797513      43.821638579491555     -0.5297848234636704
  1575   3      21.763898347016056      45.903735300752324      19.863711660199083
  1576   3      41.435988373120381      39.753696345922741      45.663643182201696
  1577   3      44.595553530850722      23.836460196686115      48.681449577105802
  1578   3      40.500272336860014       3.025950296203566       43.23327523305619
  1579   3      40.555104186222643      33.812749285610991      39.396142785859183
  1580   3      5.9366240769483936      45.724154453808374      27.467261704513447
  1581   3      27.721152472094399      21.451070255645831      24.510984144235881
  1582   3      11.353751319903377      48.602118125474867      45.005735619134533
  1583   3     0.37380466043378258        48.2496532109013      31.049727115174544
  1584   3      46.124250615225066      23.332247533157812      46.532729718574295
  1585   3      37.698824621305256      15.790649167822568      20.923200449626506
  1586   3      38.835598375648303      36.485924563888844      28.757129949326909
  1587   3       7.347399582136604      42.856595982037284      15.537979902440174
  1588   3      10.277340547327309      42.066129622111305       2.797841751996291
  1589   3      22.353840462000125      14.163634541220302      40.877124133965438
  1590   3      24.288137103062034      8.5132979703202878      20.577139024242051
  1591   3      7.2432185946001431      14.586743134190499    -0.54675064106417093
  1592   3      9.9289371175558241      43.501963238611978       23.35978411473608
  1593   3      3.8245428092619793      7.9692902340312184       19.15163981336136
  1594   3      28.117087588122867       42.26965752875391      9.7717670796626948
  1595   3      2.7679028640556007       11.75255336890017      11.593340417748916
  1596   3      18.660135665365473      23.605340002872421      42.462990661406593
  1597   3      45.816413241547295      26.750349195094227      21.665685382533709
  1598   3       20.44009713572293      25.701842163735108      28.271391881535436
  1599   3      40.893115915757626      36.392462217184985      34.556779321883184
  1600   3      7.3001782124743775      35.760783859952831      46.266197474994442
  1601   3       36.03334633533504      47.747319735502757      5.2493377755378861
  1602   3       43.87439834737193      3.3873195262682385      32.562912821793326
  1603   3      10.111571092462201      36.069497813502586      13.703695116102743
  1604   3      44.140819783350096      46.936684775187722      6.6507572186264747
  1605   3      7.0834613238927222      32.581981222608491      4.8227294140834021
  1606   3      2.5264188478716196      38.315357221080383      9.1710047702656325
  1607   3      1.6168825033363117      46.270723042250815       9.059634682060377
  1608   3      19.769104880293376      46.271820649130518      39.089765027700516
  1609   3     0.35288824491308723      4.1972466528538082      47.049265164641099
  1610   3      33.958618088005309      1.4786279705804954      31.185135198696724
  1611   3      27.711992872240479      12.960466830398115      10.663957831700563
  1612   3      19.078036663857219      46.675361351764039      22.780371609166664
  1613   3      44.093934279779994      21.881767856070137      20.966742962617385
  1614   3     0.73248991922878948      29.683004756386548      35.500438339540032
  1615   3      43.537969734414197      28.343462292232378      7.4121489251713921
  1616   3      16.042541734729127       29.85182720039807      5.8108893181939267
  1617   3      26.269667483337219      39.734812074156402      30.355239170658312
  1618   3      20.435723573503079      32.043896678994216      23.143088580907175
  1619   3      4.3763461833889599      8.3586285776425875       25.73877588296882
  1620   3      47.433285771842577      37.248129488916661      29.943976139557172
  1621   3        40.8304866875757      44.751332711770743    -0.26572023780869425
  1622   3      22.949523683016729      2.1094484348813198      20.242397310472739
  1623   3      43.309974143185158      2.3893285466084517      30.007912992220238
  1624   3      24.949434057509624      41.465915985144449      21.439606668071924
  1625   3      32.943097881607805      29.476802492083909        38.1500401065937
  1626   3      30.513749639047244      39.524464495298467      36.510089688018624
  1627   3       48.16740810754392      29.226293122087771       5.908993890310029
  1628   3      39.533900828516131      4.2935166614085682      35.590794123432254
  1629   3      22.488674863317328     0.31296764826818146      10.482490082217392
  1630   3       42.79072134823793      34.652994482809902      36.310133121798891
  1631   3       5.992006752724067      43.320325603342397      35.514700261866281
  1632   3      41.993143555942687      34.892644403192165       3.065859749233026
  1633   3      35.525103081652148      10.795416310547743      45.586302335289865
  1634   3      21.253364602381616      24.430014117289439      43.231855295847573
  1635   3      21.688488870299022      45.680057967126821      22.797704537945073
  1636   3      13.206361308256458      43.490237161783227      33.132489842133289
  1637   3      6.3352139147997857      30.446050179221569      28.913716164701139
  1638   3      6.3049202306407341       44.50981486876946      17.898302303870512
  1639   3      31.041241143971408     0.63059772197025843      23.959167298477798
  1640   3      4.8900686450575224      42.705586368386832      23.149391489523648
  1641   3      13.795599282286984      16.279668255591901      42.404673684391369
  1642   3      10.380467844564649      43.439139151759619      33.096804392319953
  1643   3      45.671021401966577      21.904970612557364      1.4316445475468222
  1644   3      41.098495402160601      13.595390708830957      24.494156610164577
  1645   3      6.9718803111651058      33.229911884962313      28.844726063336349
  1646   3      2.5340872952994116      25.019190810691807  -0.0011892548587379374
  1647   3      42.391976915914185      41.109759516669044      43.248074081429017
  1648   3      6.4092097481828674      12.892219702166591      12.312854549967593
  1649   3       46.63795399317771      21.988357348108508      43.987827514010284
  1650   3      46.217450959866611      30.333236117719849      7.2094074383647211
  1651   3      4.9735305399168395      31.134888665768468      3.4526563033227786
  1652   3       0.805512360349673      26.864702749508872      47.050712412490391
  1653   3      22.128192464242002      29.828245099694147      31.307121393877129
  1654   3      39.763603278476722      40.026347982431432      32.860784526842593
  1655   3      11.927584121172734      41.198049909954193      23.559714318092119
  1656   3      14.917855665552738      18.955435556829137      7.3593448689339178
  1657   3      26.131925734138655      30.881287954454809      31.041606987213253
  1658   3      30.198209224218179       24.71692577078981      11.341240196838848
  1659   3      17.324302012607355      9.9282983691622348      47.055418598694189
  1660   3      5.3683582800519334      40.850612499122242      36.601147938692122
  1661   3      34.613688313487891      35.704344710607799      25.152312889223701
  1662   3      37.923491988615766      26.841559257065864      26.619217218412405
  1663   3       2.662189982487408      46.621573371333135      31.120234797040403
  1664   3      29.016742527861719      31.011609188816482      8.5030502557907806
  1665   3      28.735131594737638      44.912116328157175      39.314944964746346
  1666   3      20.627512785866372      38.508030392055673      22.930542762914854
  1667   3      1.0964105386407259       33.30377454884016       9.519214429597822
  1668   3      39.354887079376034      9.3387405438190747      38.182063310200242
  1669   3      9.7920317523021652      32.179480765745772      4.5178858818406562
  1670   3      34.586289976380947      24.262640376867378      41.304550402520839
  1671   3      18.249822577702449       13.50442170476715      47.376667508382276
  1672   3      25.961958657623313      31.178415594037574      43.377405289456398
  1673   3      36.731631207047982      16.170161546002159      4.7012994983635066
  1674   3      27.239387598502091       43.83907301091601      37.391139516951462
  1675   3      32.997099794278746       14.87354203541928      28.992465313443777
  1676   3      21.043932395319835      40.226208472103401      11.255980859531157
  1677   3      35.514255783613443      9.9797454663203577      36.913459941498488
  1678   3      2.6263119185049284      45.497225231506235      39.631429281817617
  1679   3      10.049364063494018      29.837970726798289      3.0612648672612881
  1680   3      16.330155081762292      14.824232332723204      48.895037869330466
  1681   3      26.453331442381938      4.6385104700332107      36.619895184403489
  1682   3      40.946157334919711      42.488367074191522      17.469483926360724
  1683   3      38.718080791782342      6.7715689595301347      38.168021131190685
  1684   3        4.86255688160335      4.8475136641269785      37.047099588574319
  1685   3      6.9946871066895717      31.275312015161699      7.2449018660883056
  1686   3      31.914441007397755      46.915024217211588      23.019856932746418
  1687   3      4.7201318260452956      35.102366428337959      47.555725135424332
  1688   3      24.532934327151807      4.4874818655389328      20.002961029826135
  1689   3      48.478632601698273      34.463255750374003      33.457482924832689
  1690   3      22.586338878758053      45.155770732962154      43.914737819722802
  1691   3      41.182723437272614      46.315311257139662      14.053349676896197
  1692   3      41.434502370277656      20.252706610752007      3.8638337880639146
  1693   3      1.3150799125799599      29.437824743529145      8.8812507576385666
  1694   3      48.837102725408279      36.191594302277153      10.449707507553665
  1695   3      11.869469821988352      13.867823980606794     0.19050713974309505
  1696   3      23.003839013745711      14.883353448429045      26.592900391877453
  1697   3      4.1844229703373772      45.513474926878843      7.7144433621779527
  1698   3      38.028334135899748      32.242531092894112      39.873571297189187
  1699   3      47.273245527476114         7.9838428473895        19.8191489935408
  1700   3      37.090267071881762      11.601379837267173      43.611678956570167
  1701   3      21.842243865742841      23.104791407421718      22.142766405055546
  1702   3      47.143555113074527      13.777110691277642      22.334917217538859
  1703   3      41.438741193760102      29.518179314677599      5.7243038945943558
  1704   3      36.970817540135656      45.508257981029203      44.780279917085018
  1705   3      20.389406361919253      23.956307798927135      45.931118406457564
  1706   3      36.996218076035433      36.597092754158119      26.408568723067408
  1707   3      6.2942686922064457      41.351623002717965       6.213085533805514
  1708   3      25.555031163904253      42.110202829565402      28.317855739123871
  1709   3      19.462107324585482      24.330693153951579      23.582333199437468
  1710   3      9.5120554808192885      2.1590598084860133      9.9938874975413494
  1711   3      18.339196585048054      43.891469141808408      45.345248129507887
  1712   3      23.658509440462602        22.3588225016248      7.8198920378609973
  1713   3      23.018154726197938      14.199556951583659      23.773191636397527
  1714   3      44.647731237126848      25.446322942239245      19.702058457071576
  1715   3      25.980533757236365      44.441310756858016      39.786089139855726
  1716   3      38.120734383445154      19.624425960670241      44.856810743995041
  1717   1      36.825044120252656      17.737402547703052      16.971895779778979
  1718   1      31.919769032762126      28.158141415893308      24.400758999267147
  1719   1     0.84688267302339304      10.907531890345751      17.278741279562908
  1720   1       21.55891932705423       21.51575274112195      28.828509623517323
  1721   1      22.785529639265981      31.905546721309811      21.144696869894393
  1722   1      18.535749272433748      38.762465569247375      33.051411117525532
  1723   1      44.086234464342489      6.9908719082585051      6.9985855963858441
  1724   1      45.277021426375171      45.902297867047103       42.01969811291908
  1725   1      17.560659566424704      46.898016382540263      19.926167248818864
  1726   1      13.027436252861365      13.796136941711749      40.692987174652984
  1727   1      30.525934264717304      47.323391765024468      27.725453493697184
  1728   1      49.377360175336108       46.01074093347389      15.401588414259351
  1729   1      13.316935246352697      29.768816042179864      44.065170455842065
  1730   1      39.931737488416665      29.281228898268559      27.413682794065465
  1731   1      15.611507106625698      38.261544748021308      39.279833180085468
  1732   1      19.043128953658517      8.8486511771133092      19.014936835214908
  1733   1      9.8234535747370479      45.003849604203708      39.705529493925141
  1734   1      16.569154787075639       9.334450542739587      11.685609199664304
  1735   1      25.058275402650739      34.790921175080555      13.789564471681985
  1736   1        18.3572197688563      7.6846508534021947      14.201148603449111
  1737   1      26.662345192662634      16.775649042217193      19.707455133366508
  1738   1      28.613815067191876      10.383090037497475      19.185705868264943
  1739   1      32.219508550323475      22.987685561293524      8.1588378423029333
  1740   1      7.8254480338795664    0.013080251209507366      40.331073167857305
  1741   1      43.636235400375341      14.952169967234617      23.350430872227992
  1742   1      41.575381010204296      31.433407849424658       14.48805310754206
  1743   1        29.7042340355103      26.068322595181357      31.544841885648086
  1744   1      5.3623656795359782      12.860028000911607      42.057825262980195
  1745   1     -2.0253995865915884      15.899712431268711      1.9472116835797919
  1746   1      2.4365864559828569      23.045584031176201      8.7481081729351597
  1747   1      30.698220713387403      6.4097070460835273      20.026083923560076
  1748   1       3.637727671915941      35.088235450174949      32.663295045294909
  1749   1       16.97334638130166       46.40009186894472      3.7393674744065071
  1750   1      39.893473761318695      34.509895061145862      36.586368065839487
  1751   1      46.150226564968484      3.9489229315227261      43.779455312279957
  1752   1      18.457085055763084      9.3747746200998936       37.16734679426348
  1753   1      8.6477132004540334      34.239886284076853       6.873185646273992
  1754   1      44.756649583813157      2.5130409591551981      7.6719879933452919
  1755   1      39.087908546886183      44.254975851367476      2.1781059603771689
  1756   1      26.858530003512758      26.295923304413037      46.181024033184272
  1757   1      24.420606072561633      7.2817821652666739      25.013752404307269
  1758   1       48.22695348264498      26.901644812485955      30.043290931715639
  1759   1      11.142930821265686      42.679349516655087      43.024950165288793
  1760   1      17.762410343885463      36.022128867433288      47.447961985576462
  1761   1      47.428551199868672      18.111063816885046      30.069000302660076
  1762   1      9.3015321850798465      44.863266236250283       1.908138594800072
  1763   1      17.847641967708881      22.222686279276225      34.241457555597194
  1764   1       32.03266411813938     0.84085280144973173      0.2827500159883814
  1765   1      27.920463983160598      46.111162777192618       17.54015087608829
  1766   1        22.2843779797076       36.19563448917981      21.941270806071966
  1767   1      1.8638699935783565      37.135774882015824      46.427118698913112
  1768   1      21.369650462567087      18.100052386345588      38.510242324126324
  1769   1        21.3016448973354      22.359982825182765      5.9661779077446102
  1770   1      16.030747639101712      32.324496112045701      44.387835832311858
  1771   1      25.510424159597829      31.312635633508499    0.093948304428843429
  1772   1      29.595509622696085      32.794040660648591       43.47809915687818
  1773   1      29.019437262165621      5.1415253768121296      40.352755367795716
  1774   1      39.992047305415291      22.806673155574195      22.093478674444402
  1775   1      20.919677087268283     0.59753520452129993      18.238504296026473
  1776   1      29.862011194650297      46.211110780608522      31.901358243040065
  1777   1      14.690200853134085      10.322776860549025      44.620683907907015
  1778   1      34.378950700816993      11.189633519271293      8.7769615077774024
  1779   1      11.204743835821473      4.2508453576629064      26.439752831280021
  1780   1      23.605838168429067      25.485711365405127      17.457554593959021
  1781   1      41.617026206652184      21.841573069373112       32.36294908013371
  1782   1     0.50555447955641841      1.4394022425442115      20.266494226207257
  1783   1      47.304443377955572      11.040963910107891      11.109570488462625
  1784   1      15.255280593184969      39.819983772632277      30.956776305938686
  1785   1      21.125819912794803      32.565406778675388      48.729979301802913
  1786   1      8.0635845949410712      40.567071833469939      30.483005289324478
  1787   1      46.530811787476466    -0.20941947740022018      5.8170021949183184
  1788   1      36.263170740194141      35.555480885980884    -0.73027399287564687
  1789   1      16.413727896269442      5.9487469807584707      48.489452886320755
  1790   1      7.3378916131044702      6.3492766978779889      30.537340273816113
  1791   1      44.489621256949789      46.068077267464695      3.8144519276397868
  1792   1      42.802868116598489      14.074989085960285      49.813231400494914
  1793   1      42.764388719103984      35.710523349975659       26.58198479645576
  1794   1      27.984138113240466      21.086518684596349      21.175040919069581
  1795   1      13.093620981134096       39.66815513282269      28.471153894952629
  1796   1      12.408936889797618      30.316754909162444      26.496966971028463
  1797   1      5.5920600315535207      30.511552181734618      10.000046913467472
  1798   1      19.097084069235549        31.1136007393231      2.8353686086782486
  1799   1      5.4751372783358594      7.4658568804755827      28.267757908198796
  1800   1      35.198634587894311      21.009808124167748      26.925204218916935
  1801   1      45.382744636738167      8.9388960336161105      4.5040315097157109
  1802   1      44.820940308788735      15.388960797067375      43.249272773390359
  1803   1      48.387932980310282      28.598188296265217      43.965503922257049
  1804   1      27.226447400144796       22.49759673914647      38.472542649025172
  1805   1      17.716707185975562      18.134873951354443       33.61609097706372
  1806   1      38.910324546847953      37.626399850355291      46.712203961522803
  1807   1      33.934114675201592      8.5239231822087902      43.904789699547571
  1808   1      49.064406277111885      36.225915207926498      27.460230398841425
  1809   1      1.9208817975942458      17.469617859517964      28.664099871942106
  1810   1      43.421715886740436      4.8905022558918274     0.57256614132343164
  1811   1      42.336185307547716      4.4618801486283894      45.660620359747618
  1812   1      22.389779935177543      36.756853868539068      6.0877722771703793
  1813   1      28.173262905144846      47.001538103733218      44.822734888797712
  1814   1      2.9106930410860756      10.675513373582634      20.052505712071266
  1815   1      45.120652213930931      21.694470163088848      6.2013386221426412
  1816   1      43.531671306135401      36.778110327101807       9.267734591199952
  1817   1       14.88758423742051      24.416372666402449       33.58696729329931
  1818   1      5.0649805882471419       10.76925825068391      30.819175398179002
  1819   1      38.426282214601443       17.61368840937115      2.4529278130743513
  1820   1      30.364704985716955      25.667371599488067      15.968312262107341
  1821   1      42.374624039765088      19.766449135543365      6.8274937947957941
  1822   1      9.4447182628366875       8.430872344594027      15.605745686234117
  1823   1      27.046748636324548      39.102462031593426      40.113860111396967
  1824   1      26.076381813603213      38.813099631196785      21.934228761272013
  1825   1      1.0840544825766363      13.102285242345918      23.343708702614091
  1826   1      27.354370082694018      19.680730062328028      18.190936516962314
  1827   1      23.918045678142054      9.3881303192367653      8.6443977795605278
  1828   1       48.26330170567158      34.048861488534307      29.930056766209454
  1829   1      6.6886109506906815      23.510944736724056      33.246339746896759
  1830   1      15.021725179786904      24.554443708688499      22.961464905665476
  1831   1      22.821142657985956      12.710185933011267      3.2345058634638844
  1832   1      4.8712915099155909      38.618895450224628      6.1431805995399911
  1833   1      23.616936139222869      24.612318754945978      44.990008251565584
  1834   1      12.388788505930926      4.9826645019171769      4.0042879217999916
  1835   1      16.278181959074818       34.15023681991898      49.887612612473959
  1836   1       13.44289607713378       28.50607589489422      7.2953782982491848
  1837   1      32.618075481197089      35.025195092511851      33.555143064497535
  1838   1      24.693490432698532      19.744210122347628      43.088566758903802
  1839   1      31.779148846211228      5.5615739214522426      44.093500142579131
  1840   1       45.85900252453466      13.976267335284493      8.3287241254722257
  1841   1      14.318258626806609      44.728906582709556      17.525948050492872
  1842   1      6.5204798572249389      16.034687821928411       31.18910073527174
  1843   1      31.599941491130135      34.344058716013556      40.204350820002766
  1844   1      46.249870052694938      6.9450404407640534      24.855533994820853
  1845   1       20.13367065679228       7.530216493997874      1.3030108906653823
  1846   1      4.8466052172364025       16.38845202713485      27.546746452377974
  1847   1      26.425470646261697       14.54781568909195       4.411079127279371
  1848   1      43.033217888519076      11.546650963794658      39.623378737947945
  1849   1     -1.6187580617474866      22.527686998458176      29.056544961664521
  1850   1      44.778872013351581      38.521311040118157      34.309787156441416
  1851   1      10.054379032458256      10.812920913662476      20.534858046160338
  1852   1      10.577360240152563      39.452985489021373     0.91104618489161848
  1853   1      22.668478945213806      31.584972280435551      15.141758828119006
  1854   1      19.794946568248985       40.78606207693371      13.949788825398635
  1855   1      13.232805186996002      24.172523091100349      1.2900643488723629
  1856   1       10.33373798102539      31.784268347884343       40.75054563588882
  1857   1      4.0257799546252286      35.764984957152024      28.106516605236376
  1858   1       11.74506646379411      46.654379491149278      26.755403244338261
  1859   1     0.87239500851205443      3.3834932801053532       3.976560332788218
  1860   1      12.421689180848347      25.193204834577962      9.2538736521712579
  1861   1      22.992614071477327       2.262036321790684      33.530741146801589
  1862   1      16.746668553290146      36.133768437146941      17.759595309991802
  1863   1      35.806569562766754      27.326919829470047      2.0033986858633801
  1864   1      1.6636028318945966      42.754010889016328      40.588547055331858
  1865   1      1.7487779345542838      34.915398546292074      6.6120651802838033
  1866   1      20.376865649647186      32.645415917263129      30.578619782517077
  1867   1      33.032318836615481      5.7239646622221336      33.785855563840776
  1868   1      38.879756968201796      34.587995404667694      2.5547713619530037
  1869   1      20.263865937376035      12.494522439397214      34.599737661913451
  1870   1      13.920750993916648       47.68233033267127      20.390833856849984
  1871   1      19.140721819541255      23.666750864214588      30.240466059581859
  1872   1      30.096746021056539      34.078504491573618       2.032198627304441
  1873   1      31.916743317503496      12.318047284820901      10.730432033546515
  1874   1      1.2272417451782025      15.501151889525984      1.0767150155669354
  1875   1      21.127872974393309    -0.95235375023553825      28.394335496922178
  1876   1       29.50055158897543      37.598279786705525      23.573262242865113
  1877   1      40.656671338388904      47.758569173239948        36.6116401157091
  1878   1      24.044011672338613      16.005651421002561      38.916629419765215
  1879   1      3.3039848283640336        27.9169200775466      36.021376538841849
  1880   1      9.0389624789621621      26.255102600721862      41.439294193925654
  1881   1      16.858616292468675      29.146086766637367      44.716673283966038
  1882   1      19.807597284871139      39.290613995534166     0.81176490911877108
  1883   1      36.751232518579691       35.86444470635827      16.288792902659164
  1884   1      16.485669875217333       6.053000876129361       34.60696107692096
  1885   1      14.600633083900835      42.342996509612128      7.9606910300304135
  1886   1      12.021803950053089       10.54178595349671      12.394844798853677
  1887   1      29.174344918645151      13.653303808327307     0.20598512467657273
  1888   1      36.848017515391831      3.3731956305164625      42.556434703903939
  1889   1      0.1358405074205459      10.814857579433687       37.21390763101688
  1890   1      5.9135135666777705      9.9589061413386943      21.876542528539915
  1891   1      32.611258429053734       35.66776318581401      48.399839773733092
  1892   1       11.41504013489781       46.43642269766957      42.850119317973942
  1893   1      20.212993430840573      28.280526948599174      8.3024594476414588
  1894   1      6.6020293295671832      5.0488056744375314      34.586404229408998
  1895   1      32.621901618567755      15.037004687491011    -0.71787297824795493
  1896   1      34.007701354263205      22.556126340795775      4.0878525438989755
  1897   1      31.897841499882187       32.21079798808131       47.52584386936671
  1898   1      44.277985098974142      19.394574105470898      35.957780644073189
  1899   1      23.717018382572419      2.4217468326713862      27.080289600130158
  1900   1      44.409086679923185       29.59058917707085      21.151713982231669
  1901   1      42.357877717059282      16.463323315000896      16.549857291223578
  1902   1      32.812075984261874      26.149750025706723      35.180432414188445
  1903   1      36.340309500315151      15.504138980995645      23.650357178773124
  1904   1      48.062640685864402      18.596637956049829      17.569148164634989
  1905   1      21.927207559703263      29.395175797208527      22.759943015739793
  1906   1       30.97923868422583      48.184875708193516      34.365252182738139
  1907   1      20.572816327048756       6.646769767047612      22.419869727162624
  1908   1      7.6113714200944216      43.073869924265964       43.00014775984328
  1909   1      34.767889333230158       16.56125532818821      1.4859035663202509
  1910   1      30.383810905087461      20.352968609183492       15.52825944976899
  1911   1          47.70380006768      27.344670587450889      34.220066506566241
  1912   1      12.376672243217902      24.932426596284632      39.900714550600739
  1913   1      39.401500140101639      31.735499059181294      5.0314993025404275
  1914   1      35.766215082588374       36.93454026315807      8.0958414726566961
  1915   1      19.912293932151414      24.446364504735541      2.8628535657066441
  1916   1      42.513583632478081      24.535968091528915      17.661982174630275
  1917   1      39.452904537066651      8.8196034622517097      19.170922232088977
  1918   1       43.80657514056427      30.643754012654902      9.3397569281376462
  1919   1      17.906698083153955      18.576597639762053      40.503734067947995
  1920   1      7.0390035998091935      46.805310315551075      48.647481703603034
  1921   1      20.868122196223002      11.474319344416164      8.8857026733757465
  1922   1      32.548343540909599      10.119992548336159      29.080686185077571
  1923   1      10.327875274465915      49.421797915455528        38.6283836904325
  1924   1     0.37025637454288562      24.410531956216406      15.049703004758559
  1925   1      46.350043930852436      13.688869125848214      4.9193274381255181
  1926   1      20.535991931803171      20.664083202681834      2.5966564137140882
  1927   1      24.567688921471117      27.409443004524075      24.681823489550247
  1928   1      11.074245860836111      16.651368466021268      35.698955349823564
  1929   1      19.892221320700084      3.7931905603957525      40.367808432971735
  1930   1      11.643155123288812      28.094186882694302      23.844134743706661
  1931   1       3.992466745653708      19.233679881562633      47.750183248114027
  1932   1      13.537687132063148      16.247597230271506      8.2168733144761248
  1933   1      45.172460000069584      7.1325777128255554      41.471801962349012
  1934   1      45.826998881165636      11.523521312060522      27.694713428862222
  1935   1      22.230279701397478      5.1395376884762971      25.009602851145946
  1936   1      40.695398580906826      23.010092453075359       46.34664778305531
  1937   1       36.92100250547832      24.352554544878892      4.2772895289989874
  1938   1       5.591642121339027      13.393605052234031      50.655987613855686
  1939   1       7.187059017970447       19.15607648776459      25.374981360430773
  1940   1      46.117291823956066      37.153262187020573      46.407411301821064
  1941   1      5.4941046187763458      31.361812062429106      16.839429139314607
  1942   1      47.781965067435785      16.241608422010437      20.517055410297548
  1943   1      28.776296082939908       12.04244711485739      7.7453033637379223
  1944   1      48.696770221936909      25.287960954565818      21.375198595249302
  1945   1      42.870289237364148      42.707174601980775        19.6027394910809
  1946   1      23.650797437988789      17.759086889091559      34.226489825389542
  1947   1      27.544428080286018      34.686792538692671      32.699259308400009
  1948   1      39.595170923797127      45.875609297034579      11.171451612446237
  1949   1      14.989428583338791       11.62853009108246      13.511271324740441
  1950   1      3.0772522605318153      5.4396837187923044      12.922861080496409
  1951   1      23.329782019400756      18.847808261268131       14.16667472179541
  1952   1      41.208636741061049      39.317057109416368      35.428255091873432
  1953   1      22.425712833990538      6.5361256606361673      19.072744203824197
  1954   1      14.734007400240339      46.822522452390622      30.483305906393198
  1955   1      20.581235263418705      20.077144625665984      34.860208488494997
  1956   1      12.926969135496456     0.22424409207809928      3.2557206724457282
  1957   1      22.328670352665394       42.66366375864947      12.944157711881202
  1958   1       27.42363972157257        32.0804520522953      10.774374742612533
  1959   1      10.123518217458811       46.96764043716496       7.723227482912157
  1960   1      30.297486113248631      6.4553683240505677      46.815796715442808
  1961   1       35.59570844152308      29.995548918733046      31.262589647787596
  1962   1      45.546960904145024      34.080098906339572      14.338029712925781
  1963   1      31.199971173473106      34.201818337769723      19.594793305055461
  1964   1      24.234570589556625      18.490866198694114      10.992463053022309
  1965   1      24.810750267042504      26.090281306746352      37.503702676553146
  1966   1      2.9149171950876944      18.368999009491631      19.438553534807436
  1967   1      41.507689042470666      28.011673900978806      45.483782093016316
  1968   1      21.725067267260616      37.655746339853224      16.499897036175643
  1969   1      1.7832104439704315      48.293016978921138      6.0947241169305642
  1970   1      10.176205926685144      16.832473243137677      15.366967655732642
  1971   1      38.791892317057339      35.081506994900309      42.465693915701557
  1972   1      9.1091623487808437       5.643586850897826       22.06013054272308
  1973   1      14.503216325130339      9.0429312101926271      20.112314527304935
  1974   1      3.0296467232663615      26.024110259871367      25.587803174417957
  1975   1      7.1208065869810397      21.368546046666808      7.4581307921194879
  1976   1      18.469317348343662      7.9205339143760103      30.600151573415403
  1977   1       10.42294531627085      24.520418063019576      33.093863141839023
  1978   1      28.846287739934652      22.030776767882312      35.513518618454384
  1979   1      41.928201543255376      21.767215677853915      36.743747180558152
  1980   1      35.409132743625307      18.133839776225333      7.0441852103426914
  1981   1      41.289166836574914      3.1906889437520145       9.801693426253685
  1982   1      12.375911710148817      14.688430101919089      11.517669920887677
  1983   1      29.315582228993339       6.902455627076888      16.483373407871184
  1984   1      40.165457271943346      19.740014280605322      17.742449267473322
  1985   1      12.689172053527791       27.58246479915039      37.792953036322466
  1986   1      1.9080218852795607      29.822830942681517      24.861558572988326
  1987   1      19.344008137405929      33.415533473111658      20.686517416491434
  1988   1      14.018333918795602       40.62226668771747      1.4049188266448136
  1989   1      9.6871877109574491      7.5610441423697576      41.302392253402665
  1990   1      12.652578846855331      1.2348365876947189      32.740606568415856
  1991   1      18.039943594004018      38.210453127907577      25.398693790084526
  1992   1      23.028800166897675      27.516752747611154      9.8766635293379714
  1993   1      1.2301591623076114      2.8726370247203339      42.972463855329799
  1994   1      35.980315924657305      21.617586734675889       23.68204076536583
  1995   1      32.732192609958553      43.730406049082923      22.272025129617631
  1996   1      8.8823213235363703      26.150156316203848      15.381678644246616
  1997   1      1.7705966951057257      43.159259586155706    -0.52057282664544646
  1998   1      36.635762543280634      21.123326528578239      5.1731759162072732
  1999   1       19.62993601555927      48.119996207308098      41.490266893550626
  2000   1      39.068689082141539      38.633018024755643        40.2358466497992
  2001   1      21.184172983594436      20.599700373066369      18.775349323649259
  2002   1      3.9305301263646011      28.179436243779797      4.4975936099170202
  2003   1      5.1277929269871159      25.713672294350474      23.043049237079611
  2004   1      18.008463150486737      28.082707299209943      4.7756037791069499
  2005   1      6.3262182541120788      24.339246269309406      16.404186680893211
  2006   1      10.456397798021101       2.228864599035377      21.761432018651288
  2007   1      9.9679616059635308      25.107416742510829      44.691986414143578
  2008   1      2.8271873143321162      34.539693069714502      18.935153194824032
  2009   1      31.906293353431511      43.129508407848306      8.5423796835661854
  2010   1      15.634619421141517        32.1072418479813      29.412000669230245
  2011   1      17.308755270109177      3.4085141610260044      17.424209399492579
  2012   1      10.918528443481188      14.032650678341231      28.672006170226719
  2013   1      1.6355665913873456      6.3811080065196606      0.2221979449573252
  2014   1       8.605722615458884      15.892009437371211      45.822889500427884
  2015   1      21.956961679890192       27.25112804514735      32.954949576005326
  2016   1      43.179083778621148      45.103896102471289      30.354082676847948
  2017   1      38.720548389182667      2.9347892175339898      13.124876627583838
  2018   1      40.948686810802769      25.473223485925548      32.450832990964919
  2019   1      48.058136736321003       27.52150704715601      26.859930932963575
  2020   1      27.066044733077629       3.190480994847511      18.977383058400878
  2021   1      46.291802579274155      35.435665546229373      35.894801850438249
  2022   1      33.479209916093872      5.3456237415957197      37.027282160924649
  2023   1      21.547732820226415      8.6479669090615197      14.665218558301323
  2024   1      8.0385887926905415      49.052535427833583      12.326376353268058
  2025   1      38.554418676615974      49.026962582063838      6.4945173882362104
  2026   1      24.016375917599785      2.7599173104471535      17.443375598623813
  2027   1      3.5916127786966898      41.520214418575279      4.8106626327955668
  2028   1      34.004994106075088      40.307624187163114      20.268219906957611
  2029   1      45.824720003191814      25.301317508810119       10.29585535935106
  2030   1      29.972182271561589      11.234028060665677      16.246879662597738
  2031   1      16.892607021294641       37.25789092945751      1.6610482570708183
  2032   1      10.321397032234403      34.293922054078543      2.2153231767161432
  2033   1       31.54477430872824      13.702421096340771      5.4979881646129805
  2034   1      25.715158241069531        39.1646668789407      45.966929327534423
  2035   1      10.725527529847671      44.018463384891398      17.225769161199462
  2036   1      30.095902536147022      26.152063277437005      45.919297524250915
  2037   1      25.940529644175374      10.824155197423735       46.80365765939861
  2038   1      2.8750560421417513      29.894312240399458      42.734550086246998
  2039   1      44.098039487862707      45.688182269446372      27.007940601820934
  2040   1      38.989622054873209      41.148093626603284      11.726696514311566
  2041   1      31.994559885042392      16.988735359909899      4.7121490830910489
  2042   1      41.273739960639531      11.875183661657129      26.958136036737454
  2043   1      48.495604278471873      13.378595228604441      31.122497323620788
  2044   1      5.0724589028513636      39.702385850791408       16.82291748871366
  2045   1       42.51851187899458      14.799546963639065      26.891563758200206
  2046   1      16.003709566557781      41.278964070900578      37.493913916195673
  2047   1      5.2492798981978677      16.327510511152017       44.17096797783671
  2048   1      24.843727552736798      45.039219979536995      17.870830564951206
  2049   1      35.867881387455135      23.802133735876566      1.3148918108692274
  2050   1      36.447870192128654     -1.5513478815817312      2.0739137627836643
  2051   1      29.369063186216746      25.964917308993112      35.502980775714001
  2052   1      24.689403405460101      33.337537634386869      40.940504166123723
  2053   1      12.775314692206942       18.13968748501793      5.5496273016343656
  2054   1      6.1082225238861971      30.943716537019633      42.018303091215991
  2055   1      38.097479722663152       20.10617423478201      8.5267629703693846
  2056   1       7.436032868227044      10.647906556769401       40.74976641462581
  2057   1      44.732577765782636      38.050478792398778      41.263675313418773
  2058   1       37.82111862670606      38.679717078913519      1.9934421558429802
  2059   1      11.999274135732831      39.178084153145015      19.803702778019723
  2060   1     0.16415833398819416      21.637653099223645      6.4297907990966534
  2061   1      33.018137838739442      25.942024654469304      43.544592950246255
  2062   1      15.819625142009709      14.970303480494216      13.272235492755589
  2063   1      49.326720726555813      38.287403896231737      40.615258762843624
  2064   1       38.67863145548867      9.5160489792205922       10.21334868181971
  2065   1      23.008554506130004      30.088110271601106      42.723066899179294
  2066   1      10.224103197991395      31.395033666721336      7.5962062907504464
  2067   1      34.268202456234057      8.2774751595245561      10.524227383170757
  2068   1      32.313889441685077      38.022349454256521      44.378885329003815
  2069   1      11.765159873857517      18.167094937222078      1.1071719870792134
  2070   1      12.293990032348368      23.384740622887989      30.259016189810435
  2071   1      26.840965263852663       46.78949829240063       5.606193461119533
  2072   1      19.005450539833301      6.8468035836643955      45.994589183283189
  2073   1      11.293503395243318      42.763719333870817      46.183441472025564
  2074   1      14.190917037351726      7.1928689159477326      23.707298169747624
  2075   1      45.561942684310317      39.679392183803685      8.0239020325873494
  2076   1      7.9245200826812265      39.390620869462886      35.777944105042259
  2077   1      23.859606443085035      40.502845796021987      25.304013958251655
  2078   1      13.479121362854951      4.5993804874712927      33.607461103934156
  2079   1    -0.50437178553341233      19.889764918863385      45.017557080682508
  2080   1      20.843818425282784      18.483053833658207        47.1233894069033
  2081   1      1.5652993691658528      18.827545615094539      6.6361570221636503
  2082   1      7.1131578920136356      18.617709012591039      37.860518158308842
  2083   1      11.276257635676828      40.815785787571279      11.074346112712998
  2084   1       31.40319414196448      47.537351950538373      45.289135181258011
  2085   1      17.201830212965799      32.946900652350308      13.210747916935665
  2086   1      6.0182863384659511      2.4248187052309622       3.535870788648023
  2087   1      5.4914853924097597      35.155554711329032      41.299437217556047
  2088   1      44.208296035962633     0.59104655870407308      38.433612225725064
  2089   1      5.4860202404312339      33.585032882429779      8.7541580835284396
  2090   1      16.964986788783456      15.909033387028961      9.5958082180232136
  2091   1      18.219717928180117      7.8272182438520437      6.1909665300574703
  2092   1      10.688234020990718      2.5483760476212169      2.5024231107363573
  2093   1        38.5031252196707      27.339567437055404      29.583377823602913
  2094   1      26.781735865825524      15.786692907521418      9.8259723964977663
  2095   1      26.817577339450899      10.927616705682041      14.171163445621579
  2096   1      35.539209455348328      33.212485316306442        33.0007078459045
  2097   1      17.598603065985092      26.291615210271001      27.951770313262696
  2098   1      34.032507877641052      29.893299160259733      9.2099595428456187
  2099   1      50.504068892525339      18.652628695300162      2.0359035623040618
  2100   1      11.788020065589155      1.7629255302853093        18.8839039971907
  2101   1      21.239444488923574       23.11900105146206         33.958235415333
  2102   1      7.4091606890377433      38.310856865836911      47.991819651420229
  2103   1      11.554062423634477      37.697685633625738       15.90195507677991
  2104   1      14.295626563498395       17.75265700074241      28.881776855221847
  2105   1      27.889153551663536      16.090207651201862      43.063612278569366
  2106   1      25.279890842730811      24.873926050438524      8.9754170864672869
  2107   1      30.908960537317817      31.718547364822051      35.297333717056688
  2108   1      14.297047007780746      15.412103770725695      36.250271139158428
  2109   1      20.668678902013724      43.223065980447053      10.095050918732234
  2110   1      37.783721576951031      24.272102766417362      10.922612087191039
  2111   1      36.863646565146666      45.137075693461867      27.896689815030843
  2112   1      5.7242994909573266      27.038567889645062      8.6676102534761554
  2113   1      49.133490807166453      12.573516154597115      28.168569019063202
  2114   1      34.513781803644747      2.1891751870372294      20.877621131699037
  2115   1      7.3110553631455231      6.7222892870300006      13.308773447816041
  2116   1      30.101036517110394      30.615935331079172      38.406549202716526
  2117   1      23.815465783843269      32.835678013018729      46.251682903341013
  2118   1      26.419954353502618        7.94253162571089      9.8635847822250913
  2119   1      36.170909527886835      35.246038388659102      12.571392099069353
  2120   1      32.813000535866529      29.970447099416244      14.834199596972915
  2121   1      38.194236631002688      40.912270303566324    -0.23062388774414075
  2122   1      40.945765351388538      2.6196620861838067      16.191149893272559
  2123   1      13.730562036926855      12.156739808735752      29.306609287212858
  2124   1      43.019999718139225      41.858115186588321      15.331272296866402
  2125   1      6.5846583158636527      10.437030978324193      43.967713192873383
  2126   1      29.263584864911209       11.38449135022282      29.194006452047802
  2127   1      41.789623287070576     0.86544915655649768      21.202638005868511
  2128   1      30.620468763518613      43.701691470087553      35.579309438369478
  2129   1      18.777650876512244      12.103492000174244      26.290185012398059
  2130   1       44.56183304750909      31.260266529794713      15.823417157205474
  2131   1      40.862104451245152       33.02561155364554      33.832156023182385
  2132   1      24.064037652068272       2.834452456028032      37.340669352053602
  2133   1      34.301699575436835      45.320267649104771      24.532914485049528
  2134   1      26.517663702928083      7.3942233639991199     -1.8555977517743489
  2135   1      1.3935110766921295      7.1208335766323252       4.122976359363884
  2136   1       22.59153891376625      24.106405568396372      26.869889772979207
  2137   1      34.055224208247438      9.5140646208513466      39.560496995729181
  2138   1      24.064392740115782      16.650722701131368      45.097252274949646
  2139   1      32.687947905407839      40.320789856876168      9.3372260075197175
  2140   1      31.090605676678713      24.657288150561847      41.375267705467564
  2141   1       18.44332914172297      44.864749306463899      6.9083818188464585
  2142   1      13.046458307497218      35.478655652891497      12.613277874208427
  2143   1      32.730946907989726      19.364487265411604      37.029666226640799
  2144   1      8.3187693071617215      27.023912078887165      2.4408586570657813
  2145   1      38.253804762478161      1.8178536324467547      45.109127911010702
  2146   1      39.999134561972433      41.300416422925373      30.087059991801961
  2147   1      10.302833913719894      13.919331710246517      31.982126272610415
  2148   1      44.365985040617446      18.009572800344838      28.413305602624845
  2149   1      18.644773558442168      6.9104752035249675      39.927151836068383
  2150   1      9.4812020489844198      20.620903735276936      22.820971979941245
  2151   1      10.101790339225985      41.585870278522258      39.416335751426999
  2152   1      4.9875452908129878      5.7026973072461651      4.6066974301172534
  2153   1      15.811492754035308      42.538521860229544      28.999865356056667
  2154   1      18.404450344038818      40.731852925154683      27.754554023066639
  2155   1      7.2954419373616828      17.263233765001058      7.2074818382177011
  2156   1      1.0117622058990361      17.622124332151259      10.283194844494087
  2157   1      31.302169053793065       23.45573171350474      32.800389672588445
  2158   1      1.5455926614523519      4.3744857805250144      24.385204391003157
  2159   1      20.202816063199691      16.848417533303301       9.835509362582151
  2160   1       16.54436886559964      24.745516375005078      16.167443653888856
  2161   1      37.585212183277072      16.803707343475583      45.861795512328158
  2162   1      42.536689666307936      14.713609481369042      7.5996603993635068
  2163   1      5.8596580483859624      19.590259654267296      44.717145574803659
  2164   1      13.549654719726325      8.3148032917713355       10.36522552401771
  2165   1      12.954795162405672      48.453212743026157      23.656358373350081
  2166   1      46.320987636912932      12.514714360285602      38.482101931064179
  2167   1      6.4465151095679492       40.17249724005363      23.945446544822634
  2168   1      9.4865681238523152      21.942406231656928       31.13385161822556
  2169   1      10.253148509130298       5.436372251031039      44.156102037863434
  2170   1      48.131570312218791      26.306683188177672      39.978130540861393
  2171   1      14.602641281030371      32.108945370225825      38.110719676879569
  2172   1       37.95923014837814      25.311604807212326      16.661422263286966
  2173   1      2.0820116195607685      14.891728738463064      26.356856485361153
  2174   1      47.660366147888887      48.468053009707795      2.1361391526321976
  2175   1      32.810016938892652      9.8287268977484921      46.914551372111994
  2176   1      34.298267152370762      41.160611581973015      42.315688245768925
  2177   1      9.8111281803998835      29.153619282394359       43.34382325176071
  2178   1      45.384192984019364      26.946574416830707      42.855820336394885
  2179   1      14.341159606794182      30.407733120332541      35.221382454918064
  2180   1      28.546376289377527       20.17106966401029       26.90620262635721
  2181   1      8.8133528724205163      14.244925566052022      36.459787868791835
  2182   1       28.09852525993043      40.665467681604603      44.234273805701676
  2183   1       10.03985410399469      35.838008196836064       47.82430313092199
  2184   1      46.820066577692934      32.235868451799959      49.592254154001708
  2185   1      37.635246441290498      12.458055713192016      9.0242463000620017
  2186   1      15.467856578901657       48.75535884173857      12.291059628038527
  2187   1      19.216023653198139       41.32987692379325      35.267860849588352
  2188   1      42.834151996712102      17.098713060469141      46.190520536390238
  2189   1      22.304518054661632      32.061978945253045      33.612429237674327
  2190   1      34.253044079122454      4.0238503269393604      1.8269530446613036
  2191   1      3.2804144197233041      39.462553401149968       44.06882425248628
  2192   1      8.3324378280275155      26.568916646676524      11.304682858207256
  2193   1       31.84905631113601       9.283315175328509      12.240272666553347
  2194   1      38.583515547771697      29.151068110244811      39.919464417088683
  2195   1      21.092264067379205       36.77102902519723      34.851353791436487
  2196   1      1.6736396924757309      25.530176514537597      34.547269075618203
  2197   1      27.488394704182529      38.512020169990478      4.2114077678949453
  2198   1      16.527678174334042       33.25877291631442      22.388357186711318
  2199   1      12.806034740196374      33.500511072924873      19.068310287639154
  2200   1      48.583138633053046     -1.4307075535972351      21.899852397561531
  2201   1      37.797386890365061      38.870292651034632      14.176480685564281
  2202   1       11.10374372776376      30.002961938340185      31.955397973697647
  2203   1      5.0558518346671972      40.765052940803407      20.637076404114698
  2204   1      5.0534205161693917      40.691513649561529      46.438339719642606
  2205   1       11.53948136125358      12.568593095057571      36.015500720452174
  2206   1      26.137453285608384      32.264843632912836      3.3927344029371951
  2207   1      19.544715764059987      23.145872786787301       26.86633772958934
  2208   1      34.743612228501497      11.226346770215679      11.944846192349409
  2209   1      9.7845244103785092      20.883943078780838       45.35395271397811
  2210   1      38.052209543250591       19.82061752571499      33.269956903727198
  2211   1      2.4551292729067775      23.460752355135384       23.54001841396849
  2212   1      8.6588512210375406      22.403280380857915      20.306947372316905
  2213   1      38.306739415103422      37.982401181173053      24.191601398320234
  2214   1      34.425147703790678      5.5375476799170595      26.896277656063159
  2215   1      40.738920593830713      26.670681412846239      25.552285660471089
  2216   1      4.2882290644534917     0.18004481708795211      32.743931239052301
  2217   1      23.943891902304152      31.371121235249532      11.442827634786305
  2218   1      42.127036394186732      19.092143392739636      25.922264971371831
  2219   1      31.245212720255896       7.203855292437332      27.949810987330235
  2220   1      37.541517928675063       41.96028954045228      34.122508514883023
  2221   1      52.199279958175048      32.509634294283259      23.383401263739316
  2222   1      16.423750858720613      1.0478522630602538      20.794132898922719
  2223   1      45.652304636664716      10.848522916719027       35.57204073278551
  2224   1      11.160179909103952      38.706582085981061      37.728600870490148
  2225   1      24.262287984118096      41.725950802649059     0.71247992436847596
  2226   1      15.834789288871036      29.759985312982273      26.842710167800302
  2227   1       40.27796076201605    -0.49326399391617887      2.4370489241106621
  2228   1        27.3134072232139      34.400104919595385      21.242639401153781
  2229   1      35.262834417271804      19.976938249109388      19.626230386018236
  2230   1      5.6725081492648926      48.096672321471793      4.7089293367931271
  2231   1      24.998028719858834       36.47885476366401      25.401848990695719
  2232   1      32.557200258200993      40.729723655031421      14.344795591337835
  2233   1      8.6748341017772468      37.988804930806346      41.080560368565308
  2234   1      31.040069004778008      23.814504281557962      5.0311246933132141
  2235   1      19.438047606948402      33.068340638027529      44.609101465422313
  2236   1      28.089094910374257      43.520946357442014       13.50112179006052
  2237   1      7.7519775269719231       11.79485091062654      18.119593559097368
  2238   1      46.202944952048071      17.976389214413032      23.392730829113827
  2239   1      10.308325895240294      6.3160542160269593      11.650784248050343
  2240   1      7.5343850051119468      20.530565639489211      28.477644143949636
  2241   1       12.28495584974357      9.9016096257741957      23.435939858916523
  2242   1      27.062740168717244       41.55468035014885      23.747778683392763
  2243   1      47.175128870494881      20.060518752195318      36.809373823608112
  2244   1      6.8487297166678616      19.226256195430381      11.252959378563757
  2245   1       27.61951168644962      25.438571145607462      3.8953217627433379
  2246   1      33.712642406197425      34.597386841896636      6.7055998147611673
  2247   1      35.101748742268036      28.975041744884528      6.2277744577882928
  2248   1      2.0502745379358016      16.050350930300922      17.441169144209876
  2249   1      6.8319372332915336      48.180773502650709       26.09720190322799
  2250   1      31.140427951056431      6.2598477608974115      14.015979438772558
  2251   1      38.427886650839547      32.292917241860977      8.3304849505745704
  2252   1      43.884369864332726      33.696022095895266      39.180566147297341
  2253   1     -1.5282172760471093       21.21716230949707      15.819810391664957
  2254   1      19.556721879472072      27.596856487411362        25.8128019210689
  2255   1      20.969113928603893       47.28371011367836      14.240531911639872
  2256   1      23.113669213344497      9.2039231508539547      3.1001442605233582
  2257   1      30.604446837255168      31.194985371196761      11.169569284702559
  2258   1      40.346202923852537      13.985620600882935      10.207233295226237
  2259   1      2.6904129951325459       22.29641685541235      39.777296181853281
  2260   1      15.125679686876504      45.483346336475222      6.4557198604958828
  2261   1      14.299701929829418      7.6009226001293184      27.146876923034434
  2262   1      36.043695947000813      16.165982970558218      29.371853436089033
  2263   1      46.279833628400596      25.656265936244001       16.53651202958541
  2264   1      12.001219023751208      31.715734732963487      16.116499287546549
  2265   1      19.954314538457865      15.501649843900012       35.94495352347068
  2266   1      35.975314207767987       29.18170012128542       26.44454447889434
  2267   1      48.543171517725895      29.855134704400413      1.8459576616986832
  2268   1      20.237683676284366      24.083959266789893      16.386258529913391
  2269   1      21.567180592182623      29.858473042984105      39.113493895590445
  2270   1      25.774450215375214      15.739174438664168      15.768516171230317
  2271   1      24.423100030733028      48.353085532790509      7.9472896786610567
  2272   1      9.3422707977857797      23.999137993564165      28.513776270850411
  2273   1      16.576922605884544      10.465853056328349      28.522553281212669
  2274   1      27.165321447075936      40.774490672114581      19.218597986572135
  2275   1      8.3828551795674997      34.715296857779606      11.634908498192104
  2276   1      23.798137773629772      33.677872390023609      6.9938463277601777
  2277   1      43.492883200091086      38.360338060731181      5.3036398840582866
  2278   1      7.2320273605477201      36.934601351021627      14.644736920365839
  2279   1      31.411640067638494      25.634805221324179      19.404656348797378
  2280   1      39.378673196419314      37.152233285174546      31.738297377375833
  2281   1      24.677471593981345      14.045714831437827      47.283531028044621
  2282   1      37.918248947462551      17.457559268897558       42.69992615176325
  2283   1      45.888215429510637      5.7147695058212289      47.459793227737563
  2284   1      5.2253230905610613       30.81958644283219      13.547147571054923
  2285   1      5.4770451540540952      35.183373551314247      4.6669600007910512
  2286   1      2.5011429385502169      38.232667889140799      3.6035039246071912
  2287   1      9.6850698701976103      3.0419584361200229      13.140842208054812
  2288   1      4.3303656261523003      42.749013428516989      43.002317169430412
  2289   1      42.872981108826025      40.283232424029556        9.51234179338587
  2290   1      33.648712347024016      41.219622095012802      25.456656031864231
  2291   1       39.69587475154956      7.2231804447928951      48.145374256843382
  2292   1      17.746628517870221      13.243007792795282        21.3369475849107
  2293   1      41.566280712627616      45.591643159912003      20.407752213283931
  2294   1      26.698375791670834      4.9966934861243386      14.874302829327537
  2295   1      27.263828189620423       25.77333418708697      17.840892872504099
  2296   1      9.5285445034707532       28.45865347200921      38.621825803686825
  2297   1      41.160405257968669      18.112816329881561      28.681849143953162
  2298   1      24.499774165690322      47.991501902516113      16.226403942185243
  2299   1      48.284033541799374      40.634993489962895      32.668294110627208
  2300   1      14.030657457364789      36.736944459982801      34.689168427975908
  2301   1      39.775566933608999      4.1417698137199297      6.9357931478717472
  2302   1        12.4836120777047      32.015946121062164        3.43252637035018
  2303   1      36.227580190604733      39.043228472578136      17.596359692696083
  2304   1      30.989243221017379      39.703117309960525      27.356364094412509
  2305   1      18.410329058284098      34.818217424736559      31.908682870610221
  2306   1      27.791017997479951      33.655381593137243      7.3518770683818859
  2307   1      5.5000010725763424      19.486634651996429      40.675041604266788
  2308   1      46.603949262865243      14.582727048137277      28.896195270191292
  2309   1      40.498872577814033      49.428320546542523      40.493187464002069
  2310   1      22.497268272611961      17.228968823583656      41.801597815447259
  2311   1      40.632591384183137      8.0297972763624674      6.0430998603964463
  2312   1      38.773773883345548      21.700344658899358      37.511854298823657
  2313   1      49.580995726046432      1.2172162149562258   -0.037552381526050754
  2314   1      24.681176363878166      27.616598745180653      6.9343564982130932
  2315   1       32.23369066834487    -0.85719938796075568       39.24715983647188
  2316   1      47.035524149035375      33.740481055409575       10.37805304938135
  2317   1      33.512916377053614      11.055309918173723      15.877952932991619
  2318   1      10.264052653704237      20.174556613989839      18.062855901764909
  2319   1       3.615986961244841      38.656986864798213       27.54685698185223
  2320   1       5.167279818505973      37.916116044322976      30.624489705701539
  2321   1      37.736540784525118      8.7523331365062162      44.609736000909784
  2322   1      17.449414656816128      3.9846597843666869      23.110646734638259
  2323   1      18.740303898774513      11.261520838151002      44.595176104849045
  2324   1      48.100951325034764      18.127139102016507   -0.049114789696621246
  2325   1      1.2279457925782331      33.373754930120256      40.233675530855507
  2326   1      12.482098518985769      10.738738993569486       26.54653100613033
  2327   1      31.085374865034115      40.192150281796501      23.459469087453876
  2328   1      40.627768842978249      38.323694517716291      26.652866990778904
  2329   1      4.2480286391105793      25.762261224091421      32.272190746630713
  2330   1      2.9311163447088715      2.6823157562197784      38.421839226975543
  2331   1      37.261232236811608      25.263443666178542       24.09716440825558
  2332   1      8.1131984785976954      12.166045963844264     -2.1211124060771982
  2333   1      21.492037871387211      1.8814709899246405      13.171088110296798
  2334   1      29.217263282030938      3.3426896250031501      23.020962252784777
  2335   1      31.412298127322615      9.5929265125227747      8.8730381055450334
  2336   1      42.065556769781168      47.504034528662814      43.669496258460384
  2337   1      44.787257225740163      30.681075083909935      37.950598400009426
  2338   1      45.079990583518963       34.23746598979006      47.042621514823786
  2339   1       13.55477081380673      27.326123327674608      33.826618855120216
  2340   1        34.7276759336319      13.922441381975426      31.347069827958592
  2341   1      46.475752898047553      4.3003492595803605      50.168494338073586
  2342   1      20.609246109798505      30.734506927973786      17.561701951500382
  2343   1      41.111324109636506      21.803725680919488      39.870294441252739
  2344   1      9.6186841541387693      31.386229506839925      23.387727555192953
  2345   1      6.2406925850117867      8.0424291611647867      47.436012831682767
  2346   1      44.701357016719768      38.150149847806922       23.11889243345329
  2347   1      29.379713664901082       29.38625915251453      14.926103192757422
  2348   1      20.292280162645614      38.474439001989985      8.8731223035711633
  2349   1      30.928456812676401      42.653982155917888      42.243270194288414
  2350   1       26.67741485928719      5.5882717937287678      2.5873542184576959
  2351   1      16.059566843287584      12.694674226551978      41.430640059206475
  2352   1      38.799193452594793      16.120529208635929      32.835736943078906
  2353   1       12.36403418647636       42.88849393595175      5.0039411960985838
  2354   1      19.309288570685293      21.821337943961215      47.947247465080991
  2355   1      4.9113133803234073      12.144609698023267      27.094153611468968
  2356   1      28.560379225722482      25.712606440769083      43.170305250142839
  2357   1      23.525340935171052      14.222589806346397      31.753211573070349
  2358   1      6.6811290848576634      36.439702326150183      34.136922200463196
  2359   1      17.744950673677657      41.298389781571231      2.4761758998104519
  2360   1      25.991645343238627      29.717524398117526      14.349291798457569
  2361   1      10.648403706941005      11.110904711452111      30.168296740948023
  2362   1      19.353001026221509       37.68542077444976      20.166536207717417
  2363   1      41.813826396697884       19.57436517847561      22.055029697083029
  2364   1      44.432080857886923      40.423582310044459      45.125615174156664
  2365   1      29.761565713532395      12.369065823140767      24.301554210385767
  2366   1      2.2290295765840025        40.6354942981162      22.620458567228152
  2367   1      2.7595630104080056      21.370854951559227      16.697942118123581
  2368   1      42.350514135494834       16.12112176239344      12.415597726694216
  2369   1      10.633633065984132      11.894714204900183      9.3506787808197043
  2370   1      18.639171946592469       13.04324155767344      37.568633184666076
  2371   1      24.446612119961767      22.620594145912087      20.301051375941935
  2372   1      37.147151439868949      5.8840876088832443      2.3409583462505594
  2373   1      20.108354208957746      34.502946054384864      2.3014382946889134
  2374   1      30.163908706629567      34.617140017838409      31.170217281920678
  2375   1      34.186276540411839      13.343669893092731      22.361678772833468
  2376   1      46.171507246091487      30.759841985892354      4.1829730575176489
  2377   1      19.747840617309034      17.452066692688224      14.506400819252837
  2378   1      14.823881683282103       28.04787082133339      15.509739454207999
  2379   1      41.146585874477225      16.630097264969812       3.896579164824578
  2380   1      45.035286345247435      43.203817812912618      12.254752447265185
  2381   1      3.2144843277929542      25.913837553886651      16.021513922591264
  2382   1      22.659449507829699      33.849764415185597       24.11624039175037
  2383   1      46.385191706134144      15.472167548271655      11.919913252072712
  2384   1      32.386217436641978      45.420292988185402      14.204038313255488
  2385   1      41.121657391806899      45.338662104098837      25.860116291035901
  2386   1      36.391465569619847      45.326763546265504       38.34471783700922
  2387   1      4.1813563767377477      46.998070872901302      24.528984284486647
  2388   1      9.3148269923417413      30.410473241101005      10.847278469350355
  2389   1      5.7667042181111254      22.631089853125768      23.847489365609576
  2390   1       35.99412172338576      36.440368723272819      19.596463567540216
  2391   1      19.967856886694896      32.678019838688527      11.652128461326489
  2392   1      31.770745744406206      20.474198701197245      5.9079687890411972
  2393   1       11.41768405167595      7.4550230399749076      25.515581779991329
  2394   1      34.325225467551391      14.058424890317941      41.542678499392679
  2395   1       43.28313786386672      44.371977222480645      8.1467072103913729
  2396   1      10.643252918665802      33.069009280639982      13.338142891526093
  2397   1      16.422824860504527      6.5926240452457741      19.398837271527039
  2398   1      23.403505490007223      44.864932242478069      29.055584690104865
  2399   1      41.661438947319375       31.97233226120348      37.414241685695394
  2400   1      24.393951209131846      47.424282792801129      23.042205474793363
  2401   1      38.834693201543011      43.206101176918459      26.370202811723715
  2402   1      41.753800002893044      36.637902022402471      38.265107212212463
  2403   1      35.847046138255536      7.8078326161597253       5.904314841234882
  2404   1      27.928272997172439      21.094007544633929      1.5685074294735815
  2405   1      35.265777609103424      6.9048755878463366      29.726648702841558
  2406   1       15.13734903476457      42.544533204004132      23.062671220233515
  2407   1      30.960989110975671      19.805620591853195      2.1379967035838772
  2408   1      31.004875713028607      33.071983273529263      7.2454413652827414
  2409   1      7.6910386761960661      13.170413102394994      21.167994323511671
  2410   1      43.078799249285233      29.275859726206757      30.546260682005645
  2411   1      22.483105776214686      23.978903174135709      10.603283628398168
  2412   1      43.422712897216051       29.21187822997091      27.305745084258525
  2413   1      14.825566102994527      26.837251622871559      25.421039274600513
  2414   1      42.401671077333951      28.301484272216634      12.539527097408566
  2415   1      1.9211899035232434      40.694817080503164      15.366946032185528
  2416   1      15.813747422852789      7.3852264453481862      37.635094090006575
  2417   1      38.865301629726687      31.246628210153798      30.242944928429228
  2418   1      30.422646048583804      47.089336353734964      2.2127419339231205
  2419   1      47.849308617058959      3.9048325299470279      39.552518951487855
  2420   1      38.478396394094254      21.784328384226278      2.4171827357841869
  2421   1      22.012882688960907      25.596096172051624      6.9925184031507559
  2422   1      20.167944602363079      10.506844220003629      3.5942424958658949
  2423   1      47.073332545695571      18.626695679143296      8.6396797597940509
  2424   1      6.5363911729572717      45.905496709489491       9.590727344731901
  2425   1      8.7891406249365538      37.015272348290402      23.360485923305031
  2426   1      38.339382755589106      19.395895850034819      23.791133265160003
  2427   1      13.312784226245714       14.93234159036064      30.980403946347909
  2428   1      38.831574850017383      5.6119975566872373      30.743195438176681
  2429   1      36.269388352043975      5.1941878362017659      12.606571317130852
  2430   1      47.236244133691045      25.081429714874805      6.1629084782313344
  2431   1      36.306375823606537      32.976109296793027       5.192621482555877
  2432   1      23.269111236150156      5.4351735323077985       8.274300702159616
  2433   1      39.599534160018571      14.028365540238687      28.533308100079672
  2434   1      2.6370318358842768      22.200689221072462      44.852206157012439
  2435   1      36.486138687911165      3.6849391045971087      18.719806045513032
  2436   1      16.566876532753131      32.542706059629758      33.969916640321891
  2437   1      23.169714388848075    -0.27589724999901838      40.813132580736273
  2438   1      1.7653454018044612      28.526633871140604      32.913984561193793
  2439   1      37.853693332110957      46.753935261279487      47.659508838363401
  2440   1      51.098023502145736      46.863618850026732      42.213749443733789
  2441   1      25.420988073705459      16.566085344421644      6.8775413128817053
  2442   1      43.285213015058957      39.223816943196098      29.867588213891988
  2443   1      36.560671500695939      30.628851067744534      42.172586827558057
  2444   1      32.851854750817751      28.515927520156392      52.089331286142098
  2445   1      12.299522457297183      39.514189832352429      46.427849283896613
  2446   1      23.429459837006441    -0.16823023800241702      51.924655351041899
  2447   1      17.739094326381721      25.885547343979862      46.162976534196765
  2448   1      3.9759369007145287      39.122566356106859      38.977246775481625
  2449   1      36.960002844009935    -0.69027600373453213      41.214590583147384
  2450   1      34.806525287924764      48.068525142481498      28.285994494029971
  2451   1      43.174399474911709      25.714637999649877      14.303867247420525
  2452   1       48.68865463700358      7.3268169194526109      22.331396577950258
  2453   1      25.139534353280698       16.17265379471819      23.017270170244974
  2454   1      2.8290636817879999      12.024511331560339      7.4714529514227879
  2455   1      25.332906278824332      49.071919772281539      34.800140304056022
  2456   1      12.947169127785052      4.3033878215589123      22.611655800656028
  2457   1       39.65295177199939      35.334158445919442      7.5294471558672269
  2458   1       7.629706746377158      14.103100969182439      15.074963682300254
  2459   1      30.168693010544199      31.831994901007143      21.769066510041103
  2460   1      6.8947068049117686      16.001421537112876      12.469503020398051
  2461   1     0.44589630155770943      12.424422036335731      13.591641001464874
  2462   1      24.527189562466344      11.571302186672487      19.816161619846564
  2463   1      42.959267475397169      29.643536554756444      2.9156569420331948
  2464   1      41.767585173817167      8.3542210581325769       26.65322302966262
  2465   1      11.176218450989019      33.975616022166342      10.190320395966822
  2466   1      37.771297989880203      2.9276294370244105      9.5124961352815838
  2467   1       43.69763621777922      40.998177902148626      32.506644583309878
  2468   1      41.039784269591458      48.494544954792943      11.776418821758787
  2469   1       26.22313721909353      7.8785129925796609      31.644379971110386
  2470   1       47.30534577189804      1.1590247051711895      45.358283720611389
  2471   1      28.300117636089823      4.8199903084613762      44.616525824183988
  2472   1      10.362864450378437      48.635143470290267     0.43027004170907612
  2473   1      20.475458985765108      15.413234266342426      22.712346623178011
  2474   1      43.581355771898231      1.0916577966488978      5.0742924912348215
  2475   1      49.146153495833147      10.149219518999775     -2.7073103719948217
  2476   1       28.29107542686279      7.2158548149074164      13.124701721853398
  2477   1      39.539172200505732      43.354179610783056      14.345570442028061
  2478   1       44.12579677547285      16.134703428447818      19.562435183940526
  2479   1      2.5015808826840962      11.949825098688992      32.625597607258072
  2480   1      19.516112672998812      7.8415059607004753      34.503431370877131
  2481   1      30.364265980377777      12.616349066023641      42.304303571618085
  2482   1      38.218465665299043      28.164008749250364       45.22031836866536
  2483   1      39.273635076712971      33.192239261623762      11.744733972634876
  2484   1     0.75973420495676391      20.304530518171688      12.325948311486416
  2485   1      25.458459445851179      20.316693714344858      6.6105579830790013
  2486   1       43.00004149861946      6.2589054666186348      24.340566560626332
  2487   1      32.673844770922628       28.87380991577102      32.734132812558542
  2488   1      11.839267372472483      12.126802955316093      46.789178570183061
  2489   1      41.240761245054138      48.609016363132135      17.806419022936346
  2490   1       46.50960904720246      31.854904850472831      41.111981080376346
  2491   1      48.336339125373115      23.895529188876271       32.02482183101192
  2492   1      32.766041591501086      31.423767460681482      41.357646330593454
  2493   1      6.0715631718855949      16.114300214359321      40.009486995057443
  2494   1       33.07220293773041      46.006168798250123      30.518539249172761
  2495   1      46.292237895043996      23.010161478837279      35.427406369355658
  2496   1      44.408306231244545      30.491420079867101      47.170654367479138
  2497   1      30.084160647144202      14.366109513972834      27.329785583850679
  2498   1      22.633968069434534      24.564357078361336      30.093792869641302
  2499   1      3.3254903188764326      4.8058694310963297      8.4557715728563814
  2500   1       8.189213551042851      45.485785652627079      34.910470352139448
  2501   1       29.28596769934223       22.12690565640537      47.208805247987996
  2502   1      45.023501900970857       35.04023278655459      43.791313569414719
  2503   1       15.61942378101379      3.4563065092194836      25.755699180781477
  2504   1      9.4611378705840607      46.761556047752578      22.903207060790912
  2505   1      45.219591845481631      5.8129180060117704      13.856496133584191
  2506   1      35.706894589041099      13.738164025195079      49.019289795055407
  2507   1      26.804989644689464      1.1465695152775039       43.46097135278761
  2508   1      5.6799247202092822      3.2257781871059299      44.676459165854666
  2509   1    -0.37814361860675771      12.113108127059633      34.310336901108201
  2510   1      25.584588865492389      6.3113152939376915      34.416372046351768
  2511   1      43.737859016093488      26.058022947110683      23.970047055426555
  2512   1      5.5129048822374802      33.231140460161249       44.41154795988168
  2513   1      29.469972933303325      8.5124585417999832      40.625609297942795
  2514   1       8.892999849434565       11.64357871476836      12.936035130196286
  2515   1       43.83375746087232      25.195651516166098      46.118571152413544
  2516   1      8.6673960727488009      31.545847416239635      26.942637885536513
  2517   1      44.174885675468701      33.881417746669712      18.975066651033725
  2518   1      28.668468913082599      29.195601390574456      46.278854121025404
  2519   1      6.1906662654811244      25.170190010402631      26.051270661750898
  2520   1      17.532617062569138      28.187174565810537       19.39637847470296
  2521   1      17.456404151098674      8.9866482842382993      21.926367447380109
  2522   1      26.335316570598508      31.912144414972314      33.990732255658742
  2523   1      37.860593458447894       9.484747010564659      22.600880467022005
  2524   1      52.140254513036275      9.0770496863340213      9.0594863294576946
  2525   1      14.701730767783703       13.25649470620619      20.102240010555349
  2526   1      36.552564090174769      36.103186681950326      44.719226764191561
  2527   1      25.259797966551346      27.561134369419616     0.57682336824366254
  2528   1      15.292124632094341      30.717173330854529      19.897686230915724
  2529   1      39.570886997568365      27.003840850437598      5.9757995290389747
  2530   1      31.683167108302857      32.496778119088461      26.146229767529178
  2531   1      8.4592029778450648      27.522617333662154      23.376899151872855
  2532   1      30.283378235388263      16.393642710922794      45.224279716030424
  2533   1      2.8786599989660924      28.106269367186226    0.072303196644867271
  2534   1      24.574553531698029      8.3922424412062622      28.809451096052438
  2535   1      24.837669363976783      31.486333070244765       23.94280846852315
  2536   1      1.4142160487074644      47.376810411032714      33.889608752034952
  2537   1      41.632995378214098      14.986948558635897      31.498125251503364
  2538   1      41.224274782981169       21.66530503565707      28.273994173383691
  2539   1      15.141659932836085       38.95429238921276      4.9674271060692563
  2540   1      12.267824186445948      34.798225366466326      43.720513597160547
  2541   1      18.978161875026998      29.672296536236942      28.124135758694525
  2542   1      11.563787555812473      21.036411199531656      33.852809276852554
  2543   1      27.816324122634821     -1.0644175611140263      8.7454279656470959
  2544   1       35.45575641229167      2.8494476622507059      46.673138829953871
  2545   1      30.775737466879871      23.092203394820775       49.92018854658977
  2546   1      26.571292982271526      24.530075211623114     0.88800654659610001
  2547   1      14.420818238366529      8.2892911837515069       13.59710775400962
  2548   1      3.9286939505243708      22.896289900199424      26.492079532204308
  2549   1      44.727557413809201     0.51319894690825318      17.982505510982804
  2550   1      40.522655533354076       18.60469422950586      11.019940151876577
  2551   1      32.317970863759072       42.34279901424695      5.2361921403104166
  2552   1      37.460918119042645       22.69286975966288      45.538418697365891
  2553   1      9.5036539611973971      33.043445438501124      31.118719882516359
  2554   1       37.44263102112383      33.131895534757369      18.763274451747186
  2555   1      34.209610900817964      22.416601658319827      17.399433129742878
  2556   1      12.623697379012123      5.6520605990429358      41.300608026372338
  2557   1       23.10457663159346      13.685500862394182      35.846405676922053
  2558   1      9.4157651908205899      40.607884753982319      44.965778722710873
  2559   1      30.630153045569678      37.891897670843697      17.721577966571424
  2560   1      4.8084799075902236      41.312762330331637      29.504102954903242
  2561   1      46.319625249538781      27.487786200458714      3.8493046463289269
  2562   1      29.098414127298646      21.233706744013961      12.402288333534424
  2563   1      14.003981387126611      15.331395256727342       26.37088886939998
  2564   1      25.862577294893747     0.53894251745330091       19.54269831189994
  2565   1      3.1576479653337346       32.53531912826157     0.37719164145162287
  2566   1      30.060159611112525      45.774140116526432      42.024934014709032
  2567   1      45.080491783756607      24.653957025947495      2.9843368648325903
  2568   1      21.734776427916824      19.016676638206224      26.493791601159565
  2569   1      27.270710389180735      34.024029218252302     0.79704785801476163
  2570   1      29.736167217115032    0.058090133793457691      14.147925696501122
  2571   1      31.707212451632319      35.957771096744807      25.970724450461219
  2572   1      14.056190934858785      13.662460820417111      44.029317828446544
  2573   1      22.267903143564503      21.627506726403134      46.439174478355064
  2574   1      37.191283871351025      22.769712195545356      34.267341388773808
  2575   1      6.0263673924062582      14.096745088241295      7.2462512870243661
  2576   1      39.092161400240954      40.123000961415364       21.43584287854204
  2577   1      24.262546798447307       22.73571437464345         4.7549330693703
  2578   1      19.864558079935399      2.6317249872862809      6.2833849177288315
  2579   1      47.049117375226089      10.739983405151984      22.715622795984512
  2580   1      15.100710237944913      26.162891174237313      30.754658571689685
  2581   1      17.451922228399152      42.676716288955994      31.759655501143907
  2582   1      28.390894563847635      46.824015724753799      36.986735051381352
  2583   1      25.951483048682448      10.919585017205463      30.879926157059842
  2584   1      10.501685481671103      37.969639568452628      26.045556205650417
  2585   1      10.517523316211955      18.214480798502453      20.619046943746074
  2586   1      12.650132086889734      16.909531400742996      38.539806996205328
  2587   1      47.279399257054827       34.03793143637337      3.2382585313230385
  2588   1      15.546464827431643       1.903986300992996      33.866466023150373
  2589   1      16.399923908394815      9.1013104105697504      17.211545689008201
  2590   1      37.090634465511734      30.812790401482772      37.469045033354178
  2591   1      9.0657663985117836      5.2115733855223896      36.467367813809886
  2592   1      33.909180345895912      5.4993413635954553       19.75673725459578
  2593   1      16.195691311648382      38.341877374786009      28.215237248592331
  2594   1      29.933786542667747      27.164924684594972      38.658962888704266
  2595   1      35.003422846047307      18.058235003680867      39.877285387969685
  2596   1      8.4215113086448969      28.320667563299203      28.794910268231703
  2597   1      24.465173350560629      25.798538030232056      3.3724040653528196
  2598   1      37.186660769534079       42.29993204894911      23.159343273442794
  2599   1      14.695279257944824      29.908217853502343      22.853792969628408
  2600   1      29.839243797187109      20.926886150348103      8.4763878124274523
  2601   1      9.8525098426874713      26.482330549973305      26.108192017528744
  2602   1       41.13352291012685      29.684674928979117      48.490656024492438
  2603   1      22.923930162027986      22.190656193322376      16.324177461992726
  2604   1      6.0691444097767056      27.615282085583413      13.966918569382798
  2605   1      15.825294875200266      15.606202653057673      40.094688241429559
  2606   1       10.83949082379017      19.512061398853358      28.643553778945947
  2607   1      25.703507352300118      13.687403550776988       25.17979932092841
  2608   1      13.313177644152523      16.966692244481624      14.119419955110658
  2609   1      12.322057096810324      21.422017445622547      38.504123731355868
  2610   1      37.016584664356508      4.6701809337327811      37.198294808221902
  2611   1      6.1788080326221673      46.815167382644695      20.359740707890772
  2612   1      25.565881871349799      16.213352795368337      49.597987206863799
  2613   1       31.03513223034987      50.952948557921012      37.926025129561403
  2614   1      11.303124256777712      2.0099235762288621      5.6166432807285203
  2615   1      6.9692028020869516      7.7109848069800027      24.326865731612312
  2616   1      48.190043219984823      3.5472059548460209      7.5489701223877281
  2617   1      28.746805157269247      2.9635475398603637      35.234634771190208
  2618   1       16.04027742004175       6.199499261940808      9.3996378632420186
  2619   1       39.19568593285166      45.175911903098452      18.092532322657519
  2620   1      39.911093785525054      3.5771974868236391      22.636683199907065
  2621   1      16.428745435439602      48.598464532184011      8.9906139809406795
  2622   1      20.729369120948228      42.299260202058747      1.6179996531945051
  2623   1      17.695389685555373      44.012802533987099      18.312362146775627
  2624   1      34.632117520172478      16.918623060063052      44.016641459655879
  2625   1      25.866203295867496      1.8793637569139137      4.1047640811588826
  2626   1      30.970636214804614       8.228632680989497       34.25601898666455
  2627   1      47.087105874939681      31.291925248547962      35.236402398050878
  2628   1      1.1550097343558527      29.726251365391587      28.778838199019866
  2629   1      25.166970944790432      27.135283365907107      19.940535145946082
  2630   1     -2.0796934185133362      8.1257833012841463      44.225478889221897
  2631   1      39.987359370526555      24.579601106803405      13.898417621631269
  2632   1      40.656814732315844      11.434123429419994      8.1201787067275948
  2633   1       42.95544622536935      32.160450499272123      4.9463561546334214
  2634   1      5.7931464442247806      8.7955370031335232      33.381179263323617
  2635   1      8.6555811439461792      14.087263222683905      10.502781257368419
  2636   1      19.626988815673343      27.527548367023069      30.691726307358913
  2637   1      2.7447340370354669      42.313070086056698       10.22419170530444
  2638   1      28.774797557999335      48.805210346977255      47.410694053314621
  2639   1      37.793426340161766      11.437516167854623      31.864744955959619
  2640   1      3.1332077482820653      35.636252753507947      38.842044729600538
  2641   1      41.763335733814259      33.363703161620577      9.3736798992960946
  2642   1      26.579984897482433      47.580910883879227      39.711066501627883
  2643   1      12.584381520523257      44.261810492100189      1.8293720326250578
  2644   1      43.785228166104005      17.422423848068568      49.342649412343967
  2645   1          5.151257463686      34.194332523139678      35.649918867599617
  2646   1       13.62029698951474      24.229192296534567      45.642456624502138
  2647   1      13.342783224563714     0.28756785824522763      35.849252813661693
  2648   1      42.214839274985536      29.079492620541536      23.165986856113307
  2649   1      2.6757967414400485      27.880430954648677      18.625043688583858
  2650   1      6.1255962388840715       47.29958520852152      36.850001223033942
  2651   1      32.717665525057988      34.088096712142686      23.408903715521753
  2652   1      35.035273780407799      33.864907711589311      9.6782820192383294
  2653   1      2.9722555495283056      9.7159896095970915      28.153746092352101
  2654   1      37.607673765584551      10.179672531945029      47.618218026247732
  2655   1      35.631528432179572      1.2264646668842443      7.5236350918528343
  2656   1      41.299743526960647      10.688626290657647      30.579881385282775
  2657   1      28.646209125863411      0.5414305355141249      17.011518748328132
  2658   1      19.891789829362008      3.0409459310475415     0.29688137886177279
  2659   1      35.997542527100194      7.5372085331576573      17.940139980738248
  2660   1       37.94830463552784      1.2695176166243836     0.90762322308647936
  2661   1       5.145245111388002      12.784912735353354      47.228008499368208
  2662   1      32.956984433657404        27.8515208263399      40.885842645185718
  2663   1      39.607809046312013      39.336389682222702      8.5082092762946804
  2664   1      40.545664448465196      29.003205438793383      8.4576202826701259
  2665   1       11.69488291539977      10.279309722046673      41.781781591915511
  2666   1      36.340512803134494     -0.7455203281822067      34.466670469561201
  2667   1      34.592173672213733      27.688172081597244     -1.1300368769432718
  2668   1       15.33531546345486      8.9517319000377729      7.0865840682721641
  2669   1      39.882409382533318      8.5143923943466309       32.65350146074357
  2670   1      23.364494881268048      2.4007465048156442      6.6022947366179601
  2671   1     0.72636013730437199      34.943218422158772     0.59611295854594648
  2672   1        49.2965054807309      40.570412927457156      2.4148802884025007
  2673   1    -0.17241038610390516      16.607766257711624      36.248049628917649
  2674   1      27.263799846961803      32.868949731517354      46.481281354311768
  2675   1      15.007110265884654      21.482813869206439      2.4646457883600221
  2676   1      2.1453275293292426      14.596754538330746      34.795578160812781
  2677   1      25.226625023019896      20.571064058210851      27.054853695848763
  2678   1       40.10300062178591      42.502122547641186       8.492271750815787
  2679   1      45.299962345467208      48.448759570336314      25.182526487066511
  2680   1      8.9923189539126938      36.403801415670515       31.17622830897291
  2681   1      14.434153932606195      9.0113393427916169      31.259686719516026
  2682   1      23.252206666675704      10.218559813839187      48.877097006580179
  2683   1      1.7928666420706065      3.5300293978002002      27.726030862961949
  2684   1      28.484873421316799      33.942439588010231      24.423384332291818
  2685   1      11.160614348533805      26.107141959487944      21.487977814366825
  2686   1       13.64574085999922      36.219989234159044      28.431955331728794
  2687   1      13.018779330082452      36.523882788538778      4.7532924886456387
  2688   1      13.374118099125702      34.485241522560727      32.662594554960997
  2689   1        17.5031034560437      3.3426523333203781      10.807397171618478
  2690   1      12.669787186842854      2.2311701370176031      43.691087600453926
  2691   1     0.54718955886819654      17.965375227874777      32.759719123049258
  2692   1      34.284153999763909      8.0831546223046882      14.790650425641848
  2693   1      20.136609807030386      46.400980606452393      45.430761067367492
  2694   1      43.786950732339854      47.167073781946684      12.028507038309376
  2695   1      26.548115870367646    -0.88199451208709578      2.1517812923201292
  2696   1      14.409686071323728      11.483655107122772      10.024343526766822
  2697   1      35.859931475443481      20.058641386807448      36.557438688975324
  2698   1      28.701868332520682      19.035672777468328      41.595327637385118
  2699   1      22.889362540062958      17.037831186834005      28.959457690660319
  2700   1      4.8251071039666842      10.249304682856501      13.211977501841611
  2701   1      2.5812036020765592      26.355655452014894      10.392047772067869
  2702   1      32.533245150056359      3.0440164337958375      23.097359224309425
  2703   1      17.579000931706073      29.527442268449104      14.351176965269735
  2704   1      11.227829493435417      45.584927255401411      11.549244710577453
  2705   1      44.413355872944443      36.982377932475323      2.6310620228267307
  2706   1      43.997705270192029       2.987626001227301      15.926085192941343
  2707   1      41.225931671967167      20.029597891427354      44.875498011473134
  2708   1      13.348828769667675      21.571695189033335      17.402876302872833
  2709   1      50.346161574035172      12.399090394253973      48.196116971879682
  2710   1       43.52703892817248      42.639178123252812      28.124970604459051
  2711   1       30.83488895040902      46.360704177835842      8.0009949601739976
  2712   1      36.034189505161237      32.393737472049509      45.882241692703111
  2713   1      12.144639600849839      6.0007567142481832      30.189812295731354
  2714   1      5.4310157589613572      29.884959259805715      45.063444514531049
  2715   1      16.496323647070366      39.035878842002511      42.564535153852447
  2716   1      16.514099663566441      44.518706626566058       9.510147593858175
  2717   1      34.093899709009065      26.183288662461486      10.244648532017125
  2718   1      34.554435723741669     -1.8990048273790716      7.9035290902152946
  2719   1      18.161082296968647      44.746768622604165      25.123033504277178
  2720   1      37.706145505692724      46.251539247655685      7.9761518122708823
  2721   1      4.1801584230091358      10.612656229433753      39.909963235936623
  2722   1      18.247694879861996       38.97342074390243       17.15215742637568
  2723   1      10.234681254126647      40.016773204765016      33.086192758566675
  2724   1      16.475521625313377      10.353854918704791      4.1627531662636992
  2725   1      38.341817614501757       6.559537030287423      21.235982177996505
  2726   1      25.667508439213663      28.622805552175183       41.26019540172274
  2727   1      34.497391286448867      45.786914192891011      42.266826299114598
  2728   1      22.848869112722884      10.213502574803899      11.681217312834494
  2729   1      11.462729056903932      2.5579189521468386       29.31744356230536
  2730   1      43.153047438443721       9.835469300399863      33.040843359365866
  2731   1      25.928872835721677      1.3044547480581683      14.017134000446783
  2732   1      38.120464870392894      22.127217297370489      26.029301121642437
  2733   1       31.57106407764056      10.286140493528068      22.156104511899141
  2734   1   -0.087127719311596796      6.9510704055201549      41.519343680661407
  2735   1      16.377087984340445      4.6810520235486166      42.756763058170328
  2736   1      48.261475643257107      4.7742808252512265      34.801285501822825
  2737   1      19.017226757297689      19.606425264439387      24.116498966652873
  2738   1      48.377371865380496      35.215914754004153      19.384724820941415
  2739   1       28.71037392972076      17.657717237210175      7.4629136175159569
  2740   1      21.691901677595634      33.878083688165731      17.756008596574457
  2741   1      31.758198243305394      8.0546140330101892      24.365059354046277
  2742   1      48.425858942137303     -1.7726513617293964    -0.94796319633672854
  2743   1       30.86560140207542      36.378291551312849      36.962571161189594
  2744   1      9.1802489809453931      41.213854123411757      27.731479887507795
  2745   1      41.906070773835999      25.851716428967173      8.0123804437198345
  2746   1      34.098406834600532      15.140825738773778      7.3263296863621461
  2747   1      9.4242218076302873       40.35257425678472      21.562383421546368
  2748   1      43.788394169782357      23.061260775759209      43.659893025175343
  2749   1      16.259506167266018      9.2638792133580168      34.869506842252328
  2750   1      47.907726204061014      24.341037736791574      25.396667798323826
  2751   1      46.971245131019273      42.860199795489848      1.6541065300921092
  2752   1      47.362896298832865      42.222862109889938      9.7440559416727677
  2753   1      12.941239966237855      22.475892248183563      24.670473884938506
  2754   1      26.293307190675552      47.263854747115879      11.975792199635267
  2755   1      26.784932443186445      43.391104779428041      31.377581102061075
  2756   1      42.714161545727016      32.788085353177877       24.45372200369512
  2757   1      14.659614738758227      32.536688949519942      26.181937022282128
  2758   1      24.864998070151458      31.204803789944268      38.028644465244611
  2759   1       15.83764321656572      39.681790988867071      14.796929105509905
  2760   1      35.506190144390402      20.411405226387405      1.9136842498295294
  2761   1      35.045059258247257      44.887062496413854      11.690582908781996
  2762   1      1.1342645641991258      39.549285894432074       37.17403943662972
  2763   1      36.535521390860225      41.720203047112662      2.3150924924379104
  2764   1      37.388281823917616      42.569753564551043      45.161872644645882
  2765   1      45.788307841120066       1.145095741635513      33.322703673939955
  2766   1       35.07704146196761      8.0306926503767695      21.772906993266901
  2767   1      20.600952268959926      17.977819573329253      4.3100244420280251
  2768   1      0.5269769307471498      13.581392936682001       10.36415502232747
  2769   1      35.829304365150584      8.2329740176269901       24.89384415284805
  2770   1      12.851380373732336      38.580711664874322      7.5540824349039442
  2771   1      36.067256330256704      29.449602224112649      16.115518139305362
  2772   1      16.110364565132311      28.925892628728715      32.600919905124513
  2773   1      28.775327053310129      30.078723915166059       32.56561326741862
  2774   1      15.749858188069563      5.8438472127459669        5.61256913965709
  2775   1      33.801498761524762      34.619141515321751      28.025196205236814
  2776   1       45.83286250905357      3.4603337386945245      36.454719335052893
  2777   1      19.624834751421151       34.56979466994337      6.2529784195098639
  2778   1      39.110634619626843      47.810384040307845      27.659311971271919
  2779   1      20.282998901124262       26.77085748397301      14.376509295816209
  2780   1      33.717725105732946      11.524639165597584      34.991443683445617
  2781   1      3.8861395816087851       13.42331799614977      14.061174423570474
  2782   1      1.3968742795509352      43.281505418386644       28.67379084826721
  2783   1      14.166988405525068      35.455220850168381         7.9522605017418
  2784   1      44.457231051342262      16.325296310785561      5.7797536525981359
  2785   1      9.0891710326407811      18.599130418124489      48.005635739942669
  2786   1      46.126000576578868      17.141561167010625      32.985912981088241
  2787   1      32.316415098660087      18.955372874084798      18.385540694224112
  2788   1      11.162992350527809      12.556785758683837      17.957939883810305
  2789   1      21.672282528372957       8.856535889407489      6.1376288070835798
  2790   1      29.092720676936732      37.234061718366796      20.305358010245079
  2791   1      42.805078131506448      12.572830312258427      43.623671804686325
  2792   1     0.64064063657294879     -3.0091172522637515      50.909621065244259
  2793   1      38.983049488134583      41.588531177993168      42.068633440736107
  2794   1       39.24697931659675      27.058806982152287      48.145671627202539
  2795   1      29.700052442277489       16.69003852576877      2.2057696325545013
  2796   1      28.205504207320878      45.161412131973961      28.321808517718353
  2797   1      12.995573862060308      20.200535500145453      44.229457016033976
  2798   1      29.845876622422061      2.0127913495021028      29.755217329112924
  2799   1      32.062793671226466      20.558216579302929      48.056424347909811
  2800   1      4.6918468251586498      2.1044534662121204       6.325602167589742
  2801   1      22.868725884913182         7.3283554049566      31.300177833269498
  2802   1      25.258865533691701      43.315262109075171      10.254534074301924
  2803   1       32.70466566556474      4.2590620646132153      29.871781345486454
  2804   1      2.7827073741577943       25.40463919119091      42.878444318645748
  2805   1       27.32164256061343      31.699516212759235      40.118005774669896
  2806   1      40.821897971557917      34.131493197102955      20.049345321368765
  2807   1    0.025095581853827154      3.9489209612564911      11.361014564212205
  2808   1      12.960979964200353      11.980088570634338      32.615592535999248
  2809   1       39.61114360523532      21.887632435038029      43.196451054535366
  2810   1      42.387840456291421      19.019870939664894       38.96249441692278
  2811   1      40.853298953422609      49.615738102332244      24.292853197522344
  2812   1      35.540182905631298       27.69706971844214      36.911498405720451
  2813   1      11.111392269811354      11.503084770354921      4.6491445169806225
  2814   1      29.890774994575562      14.664366887840984      9.6143708918058071
  2815   1       3.954114722842244      48.293343222986913       8.420439925847278
  2816   1      24.592445934896066      4.8466362531030853       29.15756714312932
  2817   1      25.050749233573306      11.015138248133185      22.944151079622621
  2818   1      4.2733396155048844       2.415738950743143       41.71725809878977
  2819   1      12.053530676431079      28.128922361995013         40.857487497186
  2820   1      40.509432338680575      5.7906612665897317      17.829658731880389
  2821   1      43.752012268294401      9.5889499238198219      10.662618811923453
  2822   1      4.9211379943586282      1.2255549468732023      21.246692201046336
  2823   1      25.506959755926228      13.954026191874446      12.859517321390589
  2824   1     0.46477285995287798      23.275872870589172       42.39340080718771
  2825   1      46.230316994524749      43.355449183345335      37.676638195853258
  2826   1      48.256200832314498      49.537746668022834      24.409517196914504
  2827   1      39.812249449351427      43.375004106914645      36.444427740490561
  2828   1      7.4121834438201368      27.030497878993241       36.54683498878849
  2829   1      43.554255491295997      43.330229943061049     -1.6392550749837662
  2830   1      2.1982424781267755      48.710165031337439      2.7091936656091433
  2831   1       27.47314084786408      43.322176530918057      21.063552648869926
  2832   1      47.844164850277899      10.259031598117799      30.211345586961734
  2833   1      8.6566023839321762      11.487063782540785      24.086726951143699
  2834   1      19.393019136267835      22.052429688650534      8.8046412066616568
  2835   1      4.1750069065039588       29.22827803072796      30.656298412285878
  2836   1      5.5024387740299225      23.093211660551333     -1.0589947765970167
  2837   1       35.27339617750922      50.077776814991147       3.486517739964003
  2838   1      14.182088259201233      21.851866151636216      35.796115430639986
  2839   1      44.667987603950607      25.956867495444364       27.59253841802331
  2840   1      19.681097493631665      26.935995353474546      43.235768623738466
  2841   1      17.870151634463994      41.787569153948624      7.7463263604382089
  2842   1      39.464974955840091      12.823181562125811      18.315960132778759
  2843   1      29.057100175627134      6.7408709316492903       6.477771863615831
  2844   1      14.124033488502748      14.548158894577321       4.069521732487539
  2845   1       23.37423929207355      27.393530141441609      14.653017381960352
  2846   1      22.381787496493764      46.181654665097902      11.388590161225562
  2847   1      27.073362955759396      15.932401543712572      46.561164590308422
  2848   1       2.614759024685422      3.6462308067969618      21.174493198128427
  2849   1      7.2174601719707274      40.721453123383341      11.108915167442461
  2850   1      14.718324809817444      34.674242294564728      47.129259784479558
  2851   1      16.947211096985807      18.013530619666088      46.524546122754487
  2852   1      17.218280507345046      27.640432229634111      22.757623143981547
  2853   1       48.36984640365467      37.118001459931229      16.715354803381583
  2854   1      21.584559270347675      35.075542806764567      28.285390140311147
  2855   1       48.55761269335634      4.9899594560211122      20.134113864809262
  2856   1       41.54121025255737       13.69513037363715       21.04974438170067
  2857   1      6.0772842002280374      28.978079376082253       38.80894461479042
  2858   1      9.9877883133217829      12.260116361671633      38.983022745060232
  2859   1      10.390590073176263      14.181127920441821      6.7100721539132921
  2860   1       48.53437161057834      40.559919304149936      6.7038337367032028
  2861   1      14.056403476830077      47.220401712749528       38.36593946194585
  2862   1      14.607845396372459      27.456151433135624      20.727416066280245
  2863   1      5.4431938014355765      21.320403045127261      18.101498961704586
  2864   1      20.838344560799001      34.560152066819377      14.599976979626952
  2865   1      40.076476726033576      32.235882982744229      42.043520251879144
  2866   1      14.632591603738614      22.598734381112536      14.282504585162018
  2867   1      34.324135827301816         48.311526719564      15.038657133982875
  2868   1      45.732295848840749     0.86081265412180319      42.306559955436228
  2869   1       17.02800937091309      17.561022446560269      5.5562160532019629
  2870   1      14.441644517881143      26.095893021730671      42.086349152161993
  2871   1      37.021494867174724      48.510930374307776       13.03525882241094
  2872   1      10.798303625947982      14.099879293012807      21.070037416006105
  2873   1      26.593020789255416      4.6073904443234186      10.962648079523657
  2874   1      30.640373176497082      2.3442741074986571      44.613098336842896
  2875   1     0.91771609169928314      21.602549599091947      19.511804718974041
  2876   1      14.960948247874608      30.906699317990931     0.44668446592837524
  2877   1      16.546943721899172       42.89160784851132      5.0125892634361708
  2878   1      2.3621826943263229      47.696599646128966      37.451697067517387
  2879   1      30.575215942554554      21.552060460689702      30.267194540107184
  2880   1      33.843329632913296      1.3636190219258817      17.674291481006321
  2881   1       20.21232588512725      16.112079432582625      26.390978373563467
  2882   1      27.654958747430644      16.553764281856541      25.863518420179389
  2883   1      9.8677334330831012      1.1868306885693027      26.428387027374182
  2884   1      14.961971318663727      13.688724224997321      23.690899573343501
  2885   1      23.207015393400805      40.299487994859646      9.2369320972445053
  2886   1      19.906181990757119      30.086065226687587      33.530536302169509
  2887   1      26.399498175216195       42.22455676895671      46.532732352368576
  2888   1      33.103265244588506      25.668782454721516      1.4048740424925101
  2889   1      4.0760759999434422      16.920481747633705      7.4151446406918851
  2890   1       2.775180666208954      31.787774289562098      45.309795911936689
  2891   1      13.457010591697097      28.257621098562669      2.2418429663755552
  2892   1      37.620984293028606      49.035778152747447      37.365293720587651
  2893   1      15.692332112371801      47.040171390172546       34.43788547165952
  2894   1      27.114236757744397      39.069801013023778      9.0889268463986781
  2895   1      29.880964565171425       8.369333449454734      30.691143426429548
  2896   1      36.929716209474485      16.116100460611968      37.037198818716519
  2897   1      15.466177070430195      16.938525514492998       22.25423351138231
  2898   1       8.654996065423294      48.260100459457767      17.651431812688966
  2899   1      27.549430542646451      13.695953648183195       32.88809917704171
  2900   1      28.739722634875076      23.001804115030804      16.801342980559632
  2901   1      14.304587558286418      8.5685907538054575      41.476192551052669
  2902   1      27.766325105347761      18.939622070712687      35.331933757435664
  2903   1      13.086996207544974      12.363063587770995      7.0339975907844856
  2904   1      9.0581394497241536      34.049361405035796      42.957680847293958
  2905   1       36.38013686552943      39.396579906288068      45.250056303654389
  2906   1      16.703712761159316      40.860170118283534      20.864518305346266
  2907   1       7.921038538359384      8.6231350176446853      10.654749881616963
  2908   1      37.952488389215276      28.492751003670566      24.029364203876924
  2909   1      24.487543038251758     0.20001359217876458      48.742203123575841
  2910   1      31.832969473561953      28.752005919167555    0.059154775542687867
  2911   1      20.302622888187546      6.0209671719084019      16.469729181490436
  2912   1      46.420067741458801      5.8175653364509214       5.097069748329905
  2913   1      35.592072151788187      8.7013112146343694      1.6639672808222377
  2914   1      44.354483862113064      26.372948199359961       30.90820525011414
  2915   1      42.229716300011496     0.10660457144882785      7.8899549252647549
  2916   1      40.081753351789139      44.687880936171204      28.856774228163005
  2917   1      37.659216054214731      20.971106284251817      11.697678582773394
  2918   1       22.45928505735441      8.3271179085444675      36.983345636737482
  2919   1      38.611492640239817       14.24778104955459      2.9891444366881386
  2920   1      9.8831336820398743      4.4715627825446775      32.037050845868386
  2921   1      34.963111361429235      27.529615807193125      20.793347240824417
  2922   1      38.192472412989666      42.926515886208826      5.7647818215594384
  2923   1      41.055297704271382      41.800545786440452      1.6980554514289115
  2924   1      38.674796120284775      3.0039393061272954      26.721951723437517
  2925   1      1.3012032589325191      27.706728560982373      14.145712244988305
  2926   1       30.92088566803519       28.59119780239342      35.930122051980618
  2927   1      29.763250540257086      5.5055853796547716      9.9788732461483178
  2928   1      14.150404434353499      35.874594245427723      20.700004402844733
  2929   1      43.997286135514607      45.904190281860501      38.430502441230388
  2930   1      43.507384818955458      20.662790172732098      11.064681131324448
  2931   1      36.164794991219082       18.53677450482315      13.685415028136545
  2932   1      44.203630073048274      11.684965165051372      6.7749036846521546
  2933   1      18.303503147722903      31.023112668186073      41.812474847513379
  2934   1      12.074460749341458      8.2168658047724019      39.125171059097077
  2935   1       42.73169228356366       14.53501303658093      38.181704197011655
  2936   1      17.209315170795062      1.3797104973024126    -0.57127816850947766
  2937   1      16.553736961583347      21.204115499800306      16.418364608083529
  2938   1      29.710612066136793       14.56279080430626      16.985709461648465
  2939   1      42.065778576156013      1.8605981184381184      35.146739308284964
  2940   1      34.924019508667818      23.057931922825983      31.521128661495538
  2941   1      15.318721193028194      18.426105838094649      36.879026384855464
  2942   1        46.4181697016556       34.39510620533747      26.981145973256758
  2943   1      20.504470806730097       17.32992090810853      19.293249619796669
  2944   1      2.7374507081797246      6.6870270242135286      35.958642248464585
  2945   1      31.184382437439549      16.732723020659279      42.003088114861946
  2946   1      38.062553402522681      30.200171725858059      48.008114218008252
  2947   1      27.327786268652876      29.209019733677859      18.472134424426091
  2948   1      33.383988312310834      41.859133895830503      35.433658057671906
  2949   1      32.970890352647068      12.128832031966491      1.0388847627889253
  2950   1      45.253282475333151      46.652196160405758      22.334926448349147
  2951   1      10.936892050946579      35.942651442620843      19.505855470264425
  2952   1       48.38691972731359      1.7560856873106316      36.784415245150541
  2953   1      35.395519999298791      44.497079748075279      47.162033399486106
  2954   1      41.894500617699144      24.563426727171283      1.6169879422947806
  2955   1      20.877893978409087       46.49560090249404       25.44904837179374
  2956   1      28.442045336272972      18.902979383633923      30.719634538525462
  2957   1      22.484801424859207      14.147922187962575       7.629272736267847
  2958   1      27.588070509541726      12.511303661169613      38.019994737928371
  2959   1       48.50962289923001        4.88965109184167      30.822726997874092
  2960   1      32.773808254468165         8.3797393251473      5.0887206390634985
  2961   1      34.443653197279701      45.354975859244341      3.9941965622776681
  2962   1      15.714500910107533      23.565627026890805      26.129631898805002
  2963   1      4.4490868159291752      10.079547630252232      16.907708657240281
  2964   1      3.0619648972587656      1.5248140003498833      25.319840209019635
  2965   1      6.1345446436252198      33.574173895463623      25.873457189821185
  2966   1       2.852677042818756      13.267902586082505      37.757970264829638
  2967   1      17.229395990841869      14.042912571087493      2.8895841391295729
  2968   1      25.282143316994869      18.764306940659882      47.267424263422221
  2969   1      23.174199879090462      47.734001121088916       45.69843683688007
  2970   1       40.72613390537056      41.333336712865325      39.155266917952623
  2971   1      37.307736607027472      30.864261592696458      13.346995479010724
  2972   1      10.583664039994323      3.4754585554443902      40.144148779390918
  2973   1      18.008769620422012      41.372530458456609      11.366173505501616
  2974   1      3.8933048230860483      16.872246021703873      24.308550329336267
  2975   1      37.727334329699971      35.404471831824821       39.51740828702205
  2976   1      11.358633579684875      33.038822860268887      35.006268156448925
  2977   1      45.505801692560006      3.4044396333314717      11.420406286662141
  2978   1      33.060540799602251      4.7484777362045829      10.958036487544421
  2979   1      35.196188830605884      5.2823330711810126      44.340887527282042
  2980   1      5.4075257368070382       11.48545962486922      10.034943114766957
  2981   1      29.130820581718961      20.010653512575271      38.424306321432432
  2982   1      19.919436671750216      15.921611654877681      32.365031518437625
  2983   1       22.07768589103933      31.090990979391258      25.679150593584893
  2984   1      16.711437821434384      35.077565040591907      39.889606710958574
  2985   1      40.023502934576676      15.500747983573298      39.810118725412025
  2986   1      19.638645681603752      37.279245745511034      29.743821505522533
  2987   1      14.301467810923446      3.3877590374871764       36.60600091610462
  2988   1      39.477641430351987      30.826476320929139       20.48331747322257
  2989   1      14.890859677546228      45.589023095588139      27.329744127480868
  2990   1      26.724007656576347      42.050716750490103       35.27375528591115
  2991   1      30.295637372583226       17.03895226997502      13.911697768589399
  2992   1      15.958581579761264      12.767974850628956      16.913895408160823
  2993   1       24.56789931373855      34.944472990458955      37.984314770291178
  2994   1      31.354786631506663      35.020986733707225      14.429774641359728
  2995   1      16.155307766593854      12.698691453571115      34.090788995656318
  2996   1      41.629176874841612      26.853842902222578      29.045591565268118
  2997   1      22.001754767061868      13.608156701515627      43.951185174920305
  2998   1       17.49494133459163       7.665196008536725      43.140840980862833
  2999   1      7.3313138905735711      26.644162845209173      44.314332513639052
  3000   1      18.385657826696203      48.679641208227402      34.929234824057367
  3001   1      29.948450357370511      28.840929166690938      43.263804118316308
  3002   1      49.241223706781859      45.694982815956827      18.766093352461287
  3003   1      35.641817221127383       6.335577960641106      48.164214973573614
  3004   1      45.138253829488868      40.476251128406332      18.230916640156313
  3005   1      26.087186120887559      41.719850485880407      7.4325538444652031
  3006   1      25.687444537392899      12.954770747575891      8.2864517999362217
  3007   1      18.496931070145443      33.227257342406865      16.949352338558164
  3008   1      37.479526387579895      22.975309245780007      40.702746754978051
  3009   1      18.629733874297855      21.190762046935692      37.292685126309841
  3010   1      41.851706567204502       25.14773192585389      11.298798836554017
  3011   1     0.26207653439258582      33.887104558194018      16.527797204928529
  3012   1      15.332358802968718       10.11095381145816      25.012005773655581
  3013   1      1.1681666935851316      45.083317174998989      6.3136036083616256
  3014   1      16.403007841078857      44.238091689393954      1.5334831300190126
  3015   1      46.158617046476955      46.698118570994644      15.290545992573648
  3016   1      46.683969636887944      46.451604636280848      36.622084540434443
  3017   1      45.273652202761141      40.543642624511193    -0.28323258739653345
  3018   1      32.463880968321163      52.843161809709507       40.36055041680946
  3019   1      2.9700648121252309      17.924058309569396      14.167729862665157
  3020   1      29.808247400261923       45.61668190153933      5.0817269620553729
  3021   1      35.740399473182933    -0.39043532684800342       44.29596135451591
  3022   1      28.302558759414516      2.7190826009680746      8.6457701959161142
  3023   1      12.650824833753409      8.3919808576939641      34.819652432351702
  3024   1      8.5573079633238773      17.257898492254011      27.915076492111329
  3025   1      11.083423896508751         43.297233231259       13.78716918630368
  3026   1       34.26228261188929      50.472325861496515      38.849389271410814
  3027   1      26.298068868085132      45.838794384963705      42.529788420513412
  3028   1      34.788698602310475       25.89596826176378      16.939219775636353
  3029   1      25.705572969549827      21.004310011921312      12.845229546543369
  3030   1      28.712584888738402      13.641411403376832      20.213405390647257
  3031   1      17.770458751361264      24.199986339731566      6.7893752525652316
  3032   1      34.970712913046654       18.73182154217934       24.70553082905446
  3033   1      20.524381866547142      13.163604552081887      28.778347145872271
  3034   1       30.42482932595205      42.928140362810211      18.096659628841355
  3035   1      47.431577783644485      29.972757873915469      31.149825192513855
  3036   1      8.1962826817739778      23.407583269748972      13.255314963506683
  3037   1      28.815472526525703      18.086753317705785       11.53227748115304
  3038   1      11.388583572036278      46.211882129380868      46.970918481941411
  3039   1      32.539562604531739      28.272931527954487        17.8894613946328
  3040   1       33.41199119520877      43.327522099154919      16.690623440400032
  3041   1      35.691207218710829       12.22984154441054      28.668959393114893
  3042   1        12.2806872120478      43.229274303534545      25.704481010357011
  3043   1      8.9778447339945053      12.420519393911952      1.1765427280243554
  3044   1      37.115368222077784      37.876947543600878      10.867015599340741
  3045   1      4.0846808893061848       4.851743331366551      31.812566057053321
  3046   1      27.810225576695355      37.510337342536985      35.889681204744676
  3047   1      17.105690399519698      33.689438693206071      37.011026796789558
  3048   1      43.798730950442838      4.0077562687582331      22.080051510401102
  3049   1      6.5667637838497557      37.195383130574498      20.096095591397738
  3050   1      39.353649782389247      17.566993781133203      14.968779499524146
  3051   1      43.635393201456623      35.045438557347431      5.4924839776149446
  3052   1      38.150746106171617      45.695790149464578      35.739862789361482
  3053   1      40.950736328193983      8.9505044039281128       16.25154739488238
  3054   1      27.789359865171061      11.211765310263564      43.185673047168954
  3055   1       26.81415791003203      45.289893778438845      34.235064067230908
  3056   1      37.078043925010874      10.181795608739996      15.799793238960527
  3057   1      43.941846092461319       12.83317451427156      11.540581571064449
  3058   1      21.577639936176528       1.433621875196269      22.879093775646822
  3059   1      46.932478852524753      30.841948864815155      27.661121316786002
  3060   1      23.990087971718417      43.673869185703445      24.370908821305687
  3061   1      11.122724636359012      31.452973133330154     0.58451695472874099
  3062   1      29.976995324732037        16.4895876156973      37.766623210689069
  3063   1      10.166800393896862      6.8658844750355579      47.249354530118644
  3064   1      34.468062580971186      34.446446735101979       41.58882396116708
  3065   1      8.2379356687447753      1.8127752398021908      29.362768183782325
  3066   1      34.184689463581591      37.755076976717625      15.330604587224034
  3067   1      21.862467034276783      35.500403735337862      31.558122935353897
  3068   1      1.0823029593082105      1.7176980689805799      32.617681637865104
  3069   1      35.904409326843037      5.1550329193835642      23.161561060414751
  3070   1      11.333846542632561      27.411835464132743      11.960247235312254
  3071   1      45.832312261362368     0.13364271339853545      30.242030313509595
  3072   1      19.885300295992174      43.861276904998974      37.396559706030224
  3073   1      18.444471061026832      11.990969027673692      6.6510682673121311
  3074   1        37.7129063560049      39.369354019005222      27.621787700870588
  3075   1      42.653056244547507      26.724624290854496       4.833046095156126
  3076   1      15.427111923501766       4.561894308559749       15.21495297787739
  3077   1      25.501596459629955      36.594250926849043      7.4145144122633937
  3078   1      36.605362853848568      1.6324556098357139      15.860953623368806
  3079   1      7.1918050628451837      15.141415865037095      4.6072535556617016
  3080   1       23.87414705643365      38.006358428252518       29.18462656444224
  3081   1   -0.048347424433303608      10.023391217365655      42.355089469127243
  3082   1      13.535092003397276      1.6424638407626098      15.320904350307915
  3083   1      2.3983361823163443      27.736673932868445      39.923869344380975
  3084   1      21.138307331910951       11.39438949209681      41.674655660708076
  3085   1      30.622112126794782      12.515246663505851      32.158083133874328
  3086   1      19.116946259329783      12.354408588881464      18.297750809449376
  3087   1      36.543342376120421      5.0719369256845361      33.242672146653142
  3088   1      43.644913084037285      26.582449739978617      40.293668845628218
  3089   1      9.1570835755667659      43.218960613910717      10.980340414879072
  3090   1      9.6756938725666828      34.706427368513339       28.28371290700915
  3091   1      20.102209554847196      29.984530701938013      45.180366394451312
  3092   1      18.535993511032153      11.601967374537301      30.999237363154478
  3093   1      43.921076220771937      13.559484456222625      16.791682396957082
  3094   1      24.275452198001719      2.6298304743168774      45.973196104610444
  3095   1        8.34876886259344      5.8087286725491509      8.7209833115108335
  3096   1      21.115702261636077      34.452875401375856      40.269640720051285
  3097   1      21.730118097702228      42.448841632508902      26.996571649563542
  3098   1      35.518543354918918      19.199732247695174        46.5120117136875
  3099   1      37.794396490764164      39.491714799109232      5.7643112224408783
  3100   1      40.272288193259769      3.1154532017714902   -0.034839134946375187
  3101   1      44.174180933066431      47.364106051429772      48.031139349854442
  3102   1      3.6041233924145022      3.9471457695639436      48.507864483375378
  3103   1      44.826487064156659      26.989381937460955      48.755496290989583
  3104   1      31.631336074883855      20.710752844455605       25.79542258198385
  3105   1      28.693621754435245      5.0309266378072062      27.634432329732391
  3106   1      8.2307100824296171      6.5628260951418342      3.9821959676663781
  3107   1      32.498627530994128      35.495827288673915      3.9417992531053878
  3108   1      43.537997369096537      17.661748340600177      9.6044264779933837
  3109   1      26.232835579092356      27.024451462937417      12.388818723568695
  3110   1      38.993657090595477       17.92777160564918      6.0480493716816088
  3111   1      36.219847049729488      47.806988083888335      31.277429815843821
  3112   1      42.808830415867803       2.590399020110643      26.978051535948932
  3113   1      22.542449963101365      5.4715273130092488      14.092592077914343
  3114   1      4.0691711552770826      32.167008431773475      27.804402930728269
  3115   1      23.797410747670472      10.749940305684369      43.287628819772628
  3116   1      10.480121723927775       30.40910824303635      20.423501490777756
  3117   1      30.770561334280579      31.888849102756264      17.055270386636831
  3118   1      27.001540454170048      12.729069795057855      17.627608095248814
  3119   1      17.361882131772195      19.764607864048472      20.045501569934434
  3120   1      2.2329591657717622      7.7201656115419999      16.253039791002159
  3121   1      37.557011680464583      6.2153344808633886      8.7439307021399646
  3122   1      12.346659496984293     0.89399574194910969      11.265276209240168
  3123   1      8.7254874613974618      49.087716902424418      4.5632059036941941
  3124   1      49.103108116479937      34.536404062010277      24.285653326465798
  3125   1      16.766747552720631      7.1508524415467782      3.0710455703616417
  3126   1      46.038260744901585       46.15551302680273      18.681199115488674
  3127   1      39.502349643330092      47.552560673822526      33.375168128557945
  3128   1      32.855643920684606      21.838997318057775      41.186683614088246
  3129   1       46.69168987773508      6.4583240499370733      10.726562351271399
  3130   1      43.248581142114517       43.17807266325886      36.550819151863102
  3131   1      25.399590281047043      46.944563362041535      30.407631238484832
  3132   1      41.734820281625403      12.365467438390084      14.186269857298045
  3133   1      2.4725201407119943      35.605532181331938      42.372126997694615
  3134   1      20.071266319319772      3.2163074561722875      20.399948136015368
  3135   1       29.67864198544672      37.270545734428147      41.593183689706542
  3136   1      35.357734278499819      38.047726753517253      41.372492147416366
  3137   1      32.527001843834192      27.137425392837613      7.4191832406967295
  3138   1      7.6819038907392754      49.919770628988651       33.76884135547968
  3139   1      40.508556401042938      26.606793734941238      19.710464597163671
  3140   1      26.672496867451727      6.5569044642979391      21.159935364928113
  3141   1      2.7062259908388384      36.141494029794906      15.923622570898416
  3142   1      3.9148426868912605      19.787369938987496      8.9968943891940274
  3143   1       33.03638443366588      31.734214513401316      19.657859659837872
  3144   1       42.14550897090421      44.097498021411404      11.696230916687696
  3145   1      31.704034116354499      42.714517974660076       27.34001555088323
  3146   1      16.564283920858458      21.719492348932402      10.836235013997435
  3147   1      27.538177334039432      15.163782418717377      39.645158551216227
  3148   1      12.232409546688919       9.554541796744612        17.1103330067888
  3149   1      47.352967180457732      24.976728884807599     0.36467455853037462
  3150   1      6.4328225164932595      43.486579605930523      3.8145090453621973
  3151   1     -1.4345250670602212      12.614322045628063      44.486729574590896
  3152   1      32.085669175967311     0.15912032681985414      11.230777393235707
  3153   1      13.348360402136404     0.75706449244687912      7.9850934516740448
  3154   1      40.981319340434233      5.3236579639051689      13.997825865905916
  3155   1      4.9923430944465652      4.0200179505532647      24.275705295111699
  3156   1     -1.8922354767492398      16.698220256099788      39.589448062494164
  3157   1      12.532437596851617      21.103430627842819      47.778881728750072
  3158   1      12.458110464620534      15.878454307509539      23.337150717525212
  3159   1      48.493794624704591      40.616504385355412      18.380871691982247
  3160   1      19.927045054991467      23.693034082976084      13.120927559650385
  3161   1      29.493557701822027       8.923752474559473      44.739288913995757
  3162   1      19.088906180065592      4.5048940957076393      13.900386898393435
  3163   1      36.411863276374291      23.957269495122848      19.416033212127996
  3164   1      40.636352641208944      14.920173217340547      43.684948686150676
  3165   1      8.2788482324065136      2.5604263530813238      42.317696766058575
  3166   1      1.0998838637808976      18.346005927971905       40.29856188604483
  3167   1      35.794698199894981      36.125418051852542      4.4433695768807491
  3168   1      23.541641751187708      4.7750759250455159      39.951458236209902
  3169   1      2.6697639259799457       41.37532124883959      34.995562248331034
  3170   1      6.9018938749183585      45.461738432350202       13.75849162239809
  3171   1      16.012493779588429      32.084011280923328       4.085426636425411
  3172   1       16.95347438604589      15.309788701233757      18.858685338455551
  3173   1      1.3920273304541193      38.031962715069739      31.378308041075133
  3174   1     0.78683905281104582      28.662967807043419      21.984260175498811
  3175   1      33.876411015030897      27.375283046672159       29.91497204120121
  3176   1      26.978965418672182      15.394796628191278       36.36962187971325
  3177   1      17.491832298192016       2.241647337103867      51.744259658272462
  3178   1      20.866311617281422     0.53571311105954034      38.486288841954284
  3179   1      9.6889790422082438      20.641811711216224      36.627238450127315
  3180   1      8.5198434044899702      11.427152528479263       6.618769960148299
  3181   1      14.994469265371347       45.66942189998592      44.987448007354956
  3182   1      42.177248392153373      29.486858866260128      40.840018182675472
  3183   1      17.470030426665019      46.215953479679207      48.120712207240189
  3184   1       22.30241229964205      19.343590214940882      7.6142632991015899
  3185   1      34.831200816110659      2.0616674816495739      11.057877797975923
  3186   1      34.500028135626607      30.301695615804785      49.886385920346015
  3187   1       39.36952522367293      14.602915663647057      5.9839345614624326
  3188   1      16.164410422543007      26.582130397141949      1.9553171108149863
  3189   1       29.84586086885453      28.313175195468187      9.5216059968495799
  3190   1      22.920821376289513      32.605419795856001      2.7278915620636939
  3191   1      41.512133242021676      44.533798003920886      41.943375081338395
  3192   1      1.6763737925870632      31.566704898301129      20.515739287952989
  3193   1      14.643476996131662      2.4313570278713126      4.9223305600948084
  3194   1      44.780803629808553      42.890037521418911      23.535097160764064
  3195   1      38.726165132140025      1.1365507986340526         20.039970207423
  3196   1      3.5922004673581043       41.68092595314463      25.790314324693895
  3197   1     -0.1773379196141846      42.885919860113567      23.687279720847755
  3198   1      14.285908557234444       4.576917291600938      11.648190158659711
  3199   1      7.8969515881161199      10.684987839355005      27.247669590775267
  3200   1       5.516044986943017       25.13017991591795      2.3028525561445758
  3201   1      31.371131111181356      24.105793525410316      37.562363681800981
  3202   1      5.1458169865572536      27.811700105530669       27.78077102763487
  3203   1      4.0641814469250983      37.778151176409267       13.16684292231008
  3204   1       26.55185330540267      2.7170236865863533      39.358791433245145
  3205   1      17.605500153690524      34.071643164594306      9.6081166597133478
  3206   1      30.502200343320247      30.001281175230748      6.0450258685136662
  3207   1      38.565441676209929       7.651648513952086       13.03927574736897
  3208   1      7.7728802937637642      16.482052889767438      34.066251599142554
  3209   1      14.790293405030528      38.898055663546167      17.616034442507626
  3210   1      3.3308483853465241      36.744703338843735       23.33612752493951
  3211   1      36.481359676284079      7.7295241383556546      35.144723479543849
  3212   1      19.836671951660666      14.936010210084813      5.7177605935194222
  3213   1      5.3455079059630091      22.070460715491237      37.790299924151796
  3214   1       12.29883012822428      35.127784335816479       37.23754768702441
  3215   1      13.830940227705412       19.01892419031153      10.140990397840865
  3216   1       12.23899369844721       16.23812068992742      47.163553778055132
  3217   1      35.009801310078458      36.424903014734106      31.683310709915485
  3218   1      18.425013822088399      40.667555090802132      23.519071824779118
  3219   1      23.783197017343664      44.112329663795293      34.740030945654325
  3220   1      42.971990678922843    0.043233164578379703       31.87032201141837
  3221   1    -0.48708162701445168      14.687258370563471      46.654242217200697
  3222   1      16.256583335350818      21.445407662594477      40.352368515717032
  3223   1      5.1115413011005257      17.983791452888031      4.6879290383728911
  3224   1      33.146458913406903      12.948508464398119      45.233916981964128
  3225   1      20.330119892412263      29.435686662386367      12.599327816856615
  3226   1      11.184354135175992      2.9317737104978416      35.385629060921289
  3227   1      21.844727449521883      11.851923666885773      25.258899086590432
  3228   1      12.952023852125032      45.043298588328334      23.004521546755804
  3229   1      49.420058916352964      40.164507351907965       25.60174844226816
  3230   1      9.8514446411080563      21.511612531467822      26.217524541910468
  3231   1      33.442563313861612      29.768381196055454      44.844065285139784
  3232   1      45.403930245282375      12.407238301354806      31.076001561498515
  3233   1      14.074642902352855      18.268994442747413      25.100593927284219
  3234   1      47.360091225115305      43.478356491104329      43.000996876029426
  3235   1      8.0654070982636217      29.774646106593995      15.482814422361871
  3236   1      36.027645823093195      26.166176786254653      33.145296768185908
  3237   1      6.4279778859583301      44.582196436931163      31.696911205869636
  3238   1      21.923896044903593      28.104434742815073      28.284201167114304
  3239   1      5.7007202826756593      13.403893118754731       24.06966842117393
  3240   1     0.66178974579342276      26.690420997159926       4.207754427442099
  3241   1       38.42711750015318      12.144242472940029      12.306968303462678
  3242   1      20.099861011564766      41.602671756661529      30.393407995790135
  3243   1      14.039863842427248      31.815753728030455      7.0485581514471205
  3244   1      46.265105826232016      44.778672347819949       6.409544566556769
  3245   1      41.568857657969183      27.707252980614552      36.609038210304348
  3246   1      12.128534791792635      41.653875795691704      30.892717639483514
  3247   1      26.482963976138826      9.1235167083809259      49.510680238216523
  3248   1      17.769863297159429      25.643203460866935      32.524603236335807
  3249   1      17.562684812290879      35.911676244924521      42.923057094734411
  3250   1      31.252248144102214      4.7961504620407167      25.434420171661003
  3251   1      42.553728147624476      34.508522298406469      30.346343008762645
  3252   1      14.112968675839308      3.9877466426738932      19.248793438793573
  3253   1      9.3698605911816664      13.863773938510265      43.092046361710061
  3254   1      35.679404824638809       4.721324388878811      5.5313754826261468
  3255   1      24.057682763285705      32.853921923079859      30.078091821050435
  3256   1       34.65714580768455      34.586733986409833       38.21993299100653
  3257   1      42.183399663182577      10.195986407960099      19.250810536735159
  3258   1      20.846149888417969      27.008442811388186      17.456380184150738
  3259   1      33.209644803630304      22.216770925049225      35.374337256226362
  3260   1      29.421103790014151      41.736609393957742      39.450596397629646
  3261   1      40.297759477878358      12.324819779401285      41.553124714803758
  3262   1       11.64347727868833      47.955223183230245      29.634956183405976
  3263   1      28.482657584506498      5.3647853612071543      32.770235171898463
  3264   1      37.186262660520512      42.055484899674212      19.644554177991502
  3265   1      27.139800570847409      17.813444380207699      4.2845290527310951
  3266   1      13.560470416208011      6.6239964933945279      16.830021985547969
  3267   1      24.983245385262926      13.890451775599084      42.382021840377355
  3268   1      6.0640749636560871       2.148621014133663      10.549298536594916
  3269   1      45.553655568688029      5.3914451461234485       19.39350626989437
  3270   1      2.1305669087307653      12.850382866517975      44.936442446117553
  3271   1      5.1780046956440069      19.395679570875686      31.334302190203083
  3272   1      24.422231033055649      24.139736924044648      23.343813531741858
  3273   1      17.959583816684006      12.854912487440329      11.170421246730323
  3274   1      27.647539834134854       18.74791783684822      14.597672401895052
  3275   1      21.735974185148308      5.1947724509205493      5.2366039081764981
  3276   1      31.019042325993603      25.616740782443252      26.692475237503889
  3277   1      32.860317807957479      7.0689614008306734      1.1183679180765493
  3278   1       18.27986147549192      46.388980104973676      16.277930237283996
  3279   1      2.8196519141858385      47.960757911944732      20.345542137646156
  3280   1      36.517576636686414       47.68590823240573      17.692987779191728
  3281   1      13.405468667345767      49.067374598082267      41.137939490162843
  3282   1      12.371876485596291      31.846003353221594       46.36345376936346
  3283   1      38.879343858135208      27.145500047510652      34.778390363628553
  3284   1      8.1915311931220867      31.383176494483777        37.9380392737039
  3285   1      26.516989507109859      22.280764134851552      42.806391972470337
  3286   1      24.179339567263042      47.380959477653931      27.124062437126327
  3287   1       33.99220831285087      22.614290564354203      21.233499259100054
  3288   1      46.345581618059384      28.846513481118809      15.766500912194454
  3289   1      5.7962027853667646      30.290463208503944      25.671703772801859
  3290   1      42.483486065361099       34.49034232335061      12.992744085824826
  3291   1      5.2112936600479625      32.094657506227676      32.635230788563021
  3292   1      34.220029473193449      38.865115519523087      28.002465407434137
  3293   1      12.153923645394627      18.657032830751952      41.079427921580219
  3294   1     0.10390758217460938      38.062067847053321       23.28453196069157
  3295   1      32.274145059987809      17.680163161198386      29.848376851607139
  3296   1      32.304637403769611      4.7767687209294181      4.9888385990204789
  3297   1      11.440735137270019      9.5604326749157522      7.3281861393337264
  3298   1      34.756298666376757      41.262452847953284      48.372982505335592
  3299   1      3.3777846681186827     0.89533799811298043      44.598601817279018
  3300   1      23.805624305079149      20.444776869419481      1.8007430896329697
  3301   1      31.177714939807323      42.986447915846405      11.991854944258611
  3302   1      22.026116201128247      39.663814134033899      3.4889852746994685
  3303   1      29.085502793066166      24.077210487330134      7.7392085783314535
  3304   1      41.277150518374924      38.168145712661115      42.786225696392385
  3305   1      3.8723516190643976      24.807918364928067      37.853552572320474
  3306   1      47.632024004745368      46.273442218342865       24.91405674648378
  3307   1      24.538760535693665      23.900449080032232      40.841459516729721
  3308   1      47.752742010539556      46.530950086565198      44.152287844407809
  3309   1      38.181621798598755      14.642042834061552        15.9771276143017
  3310   1      45.895080592744485      40.186333334577071      3.0569435838856371
  3311   1      16.248903313629029      5.4566681779783659      31.038460819458784
  3312   1      15.301628828024985      46.625593050647225      15.039157850468248
  3313   1      6.8932014048816397      27.497641817132564      5.6423244557889261
  3314   1       20.67977393537036      11.224297114214169      47.030531070797338
  3315   1      34.170840198183392      31.304990192485576      12.280225355435537
  3316   1      4.3711922397629808      32.583751851039885      39.183537863006805
  3317   1      20.047767995807732       46.07303610786812      34.489695355180061
  3318   1      42.873900625757265      36.853398763516296      47.665228512046632
  3319   1      4.8715764201250211      26.277295622294336      46.899631967421492
  3320   1       26.42213859898402      27.801372056057314      31.382220039045141
  3321   1      30.810080137590425      34.893892661070751       11.09388712266156
  3322   1      33.187823304995106      46.096845582720256      20.112929037709133
  3323   1      43.822919854205331      5.6424190248824431      34.834498434477844
  3324   1       28.18669826172367      6.2985703673639817      24.710071964136006
  3325   1      45.393969915889912      20.283276098937321      46.477021053181112
  3326   1      48.384065329781727      13.822138677913358       41.10155626559024
  3327   1      20.473378992287426      22.875171006629813      40.403801786799072
  3328   1      45.595185057593042      10.467137402537901      42.441795526238003
  3329   1      44.007599586947016      40.140430908531371        25.6553953424601
  3330   1      47.145079240971093      29.003839010038146      12.370789422392699
  3331   1      20.775480127168436      37.076631105851448       11.69784789726547
  3332   1      23.872594736371489      17.588249885765723      3.7481592028426882
  3333   1      41.649588761762324      45.730082286692188      5.5816000037117863
  3334   1      46.698868981718874      42.787103020408409      20.155541151590111
  3335   1      22.569690124367987       46.65790592277088      38.051284184282565
  3336   1      25.505487309509512      21.398127952469235       35.75399682734156
  3337   1      35.259901488973597      23.471261229531368      38.212939098993857
  3338   1      48.332291902538998       16.79621100209468      14.143039591621399
  3339   1      24.557529057288079      34.980995569397678      10.186428113625587
  3340   1      17.180557059593198      44.158355487967846      34.497036542474532
  3341   1      43.531970923135034      9.0361236774805569      45.277379426820545
  3342   1      12.335402021366502      37.566681426729247      31.022501651330433
  3343   1      20.038500926680985      27.526204131322647      50.722736036642885
  3344   1       47.67133280302135      8.3984420038781078      33.424083154739407
  3345   1      26.189706516776603       8.842622442727043      39.603829030267676
  3346   1      32.684960478701775      31.774413225844679      31.227581174293814
  3347   1      13.591010482452823      19.400399812939867      31.335514995193105
  3348   1      26.644413877504682      2.1255234891610684      28.966257619996888
  3349   1      42.204198393518965      7.0697652364296975      20.436558945660902
  3350   1      47.078519857230198        35.8150606679433      40.968983350328756
  3351   1      13.808010616031229      46.850178470842238       10.06957893189008
  3352   1      40.431751185984872       43.40802333718171      32.675788645614084
  3353   1      16.519079192551992      27.814794101093973      8.0863440492558283
  3354   1       45.89656306149552      34.696747871455727      22.977091055282372
  3355   1      44.112260369863421      29.888171513138488      43.467432304446099
  3356   1      13.903067939571317      8.2401769514878733      4.2767236673953954
  3357   1      42.542847805470636      45.205872317442513      17.240609349903597
  3358   1      3.8920413518326122      38.743627304576975    0.020232511189894477
  3359   1      26.713969831951839      8.2025835656523451      4.6469711231413724
  3360   1      7.7522169331526287      17.746375776956604      42.425953525873453
  3361   1      29.643641678017161      7.1226543206105877      3.0827802084147127
  3362   1      8.6208282833188932       45.69157647817385      29.112766262283941
  3363   1      17.051273938281621      30.337470970485544      36.753704642883903
  3364   1      2.4058262356157685      8.6113589556427765      32.532016183365037
  3365   1      6.1898785343025144       27.97554506057697      17.399379300875857
  3366   1      23.676921346451099      18.535005702319438      19.097503005977988
  3367   1      34.874192763179245      18.631020999544273      10.472431554646835
  3368   1      29.962833102047835       45.93510558843758      11.808932498339015
  3369   1      27.539070711185584       33.44978831794694      37.210184316641509
  3370   1      16.315704649247888       3.145015801177939       7.695859091387284
  3371   1      18.080566216266892      3.8310735206713833      45.426009667706666
  3372   1      21.991797790085414      5.0233293491544941      46.763638047827051
  3373   1       47.35750860352848      38.183648041369253       43.25005790521007
  3374   1      1.6145104916278006      31.019846929285045      11.283941555268724
  3375   1      37.049959569901581      40.367116707899214      31.110560481557091
  3376   1      10.474857414269131       27.62823649966014      8.6864573648858361
  3377   1      17.854149805787102      24.716490775231819      10.141982241791849
  3378   1      4.0840229335639204      21.830868491972108      13.078234688794943
  3379   1     0.80873220628529918      33.728540815100231      13.012943245461592
  3380   1      10.998199658391316       39.50965832611503      4.2666008379125495
  3381   1      6.9285232587092374      4.8331519302956929      39.404470773986468
  3382   1      47.524284499086875      21.454284815882691      22.211381171653496
  3383   1      3.0663587085234956      11.391057340934477      4.1844782284693318
  3384   1       14.04521412395289      41.407728392449606      44.321482551589277
  3385   1      29.478897805304779       19.32698258331158      23.646672897165033
  3386   1      41.409560009043055      35.773851934111747      23.451719670546122
  3387   1      21.572262305397679      26.701410396383313    -0.87967536822851955
  3388   1      7.7323625760889794      36.207355696503576      37.822127266510151
  3389   1      43.924835065777991      20.585752103157947      16.471623772524122
  3390   1      18.159655751115796      39.732087606721173      46.230749310975845
  3391   1      39.389446356486317      27.262516036002335      11.952676900305152
  3392   1      21.256096215014441      25.919340854036449      21.282353581391288
  3393   1       39.80918724644313      29.017671186969697      3.0576299433378331
  3394   1      11.959790435907097      21.310557520182549      20.674245388110748
  3395   1      41.441145255663244      37.944306547949203      2.3607067748212711
  3396   1      1.2637945176347072      30.290307747603748      16.344262597187537
  3397   1      2.1613531759037508        43.6013345763551      31.777587516035254
  3398   1      7.1963369196472149      25.105860318828448      19.441614044313585
  3399   1      8.9619745376260251      38.665677068591478      16.996171511812559
  3400   1      32.061786638524687       37.42832673307101      31.279833322630452
  3401   1     0.81171540872831305      18.919848610734327      22.813675637869022
  3402   1      35.659735011940747      22.445697289575644      9.3887410373823279
  3403   1      4.6820399885820052      17.266849652413768      33.737696240451939
  3404   1      24.060015681789984      41.692731737157125      31.018521466104684
  3405   1      22.975058793634251      36.037393074250602      2.5797908026527319
  3406   1      28.224688814287639      8.6585095771937866      27.746487158838729
  3407   1      27.648963236719666      25.482525531468713      21.386207766441178
  3408   1      28.559128650920172      37.014360131903729      14.551136453367539
  3409   1      8.4693696917760946      32.466787946811245      18.804683715855745
  3410   1      34.906723255797601      17.705202043805425      34.629050592530724
  3411   1      4.2333695347269202      45.817360275932835      34.747708546416824
  3412   1      33.678540464700433      45.155247891769299       36.30434709014483
  3413   1      39.768345259975639       24.58054516897344      28.101828121180507
  3414   1       24.56726183842088      45.388951252616778      13.980924064603672
  3415   1      36.544062020258188      41.992907525247809      13.933598159245861
  3416   1      22.659389386469858      21.325309805780201      24.468667171522632
  3417   1      37.218157608647786      13.238844222856315      46.210624512211744
  3418   1      16.766592244742647      20.101965715617041      27.737279585913974
  3419   1      16.333813439109214      17.480045635434351      15.695773639509214
  3420   1      20.986099550910904      33.179190698832592      36.507278962725955
  3421   1      40.148431212218625      33.818502404180798      48.483182895742985
  3422   1      27.322223318070002      45.204573957406502      25.219876570039695
  3423   1      27.834819770264215      35.305247705530498       17.91214479400735
  3424   1      30.224198499703373      35.966624411359092      46.042225396749423
  3425   1       13.45859344640999      36.613663848519842      24.917749792528063
  3426   1      3.1764921649872111        3.17276101745649      35.239587847865302
  3427   1      2.1619823216029106      15.367971294957895      21.145173742095459
  3428   1      22.553449678035619      24.026781989379515     0.94179213757360802
  3429   1      23.991468325781454      38.647616439351822      36.554548148955917
  3430   1       32.03502247925276       16.60755271195243      26.632414915553404
  3431   1     0.48702112044003848      7.9252681588265341      8.2895193810428243
  3432   1       6.042378820748282      40.629411820547602      41.093098304500216
  3433   1      34.511377941514311      38.997190569428398       50.87724606497148
  3434   1       9.233605636423265      24.082044068737915      23.806867073119122
  3435   1      24.313683439455914      5.2566433019679026      44.193213263094684
  3436   1      50.810055296635497      37.607713971859958        19.0247573601395
  3437   1      34.907189628188348      38.703284186057189      38.255461564352814
  3438   1      28.952574860285036      35.024407288868048      28.293776509095451
  3439   1      39.922998574956573      37.850946976113441      18.805611190289003
  3440   1      21.365878491333326      37.865393654953095      25.978241390935519
  3441   1      15.839007459313345      21.791878452670101      30.591380728661544
  3442   1      25.899561185458708      25.058590175187508       34.16007608815486
  3443   1       21.74046360023118      28.421935849311467      5.4311509394474484
  3444   1      22.952728178801124      30.272343203215598      7.9687528225360964
  3445   1      43.645838014516698      42.511959599861079      40.937304956291158
  3446   1      13.155064352485347      32.997748698409822      22.565865041630925
  3447   1      15.767255852037994     0.55751859876007215      17.290998595049782
  3448   1      2.4106017749337481       42.68671632708817      19.736595415787924
  3449   1      34.803884651125898      36.812989831499827      35.024257596731772
  3450   1      7.3487580872879734      33.543317376086677      21.933341217422843
  3451   1      5.0919543032466628       21.86239823695929      50.592083160617229
  3452   1      18.781091559079886      31.206350116649645      6.0687228455414761
  3453   1      34.641449812029371      42.197163149063861      39.104301217644441
  3454   1      34.408934002684894      9.0068838219693319      32.780087094397018
  3455   1      43.653964833184062      46.454313752496134       35.11077760273897
  3456   1      4.4819002546387416      14.135783356470434       18.59333482308449
  3457   1      46.688126386536076      33.234897645714554      6.5635657249644925
  3458   1      10.237625689795564      20.781326165208064       13.92509918555751
  3459   1      35.173866722436834      32.533567237684679      15.215060931912095
  3460   1      41.893856879026536      22.858063347006158      5.7154796265993122
  3461   1        30.6096150677085      22.843362912298691      23.408746350798715
  3462   1      5.7421530014745006      6.5852368787837277      1.6663512190485188
  3463   1      38.492330783338261      23.436668149852256      7.6923570621277664
  3464   1      16.504565750758672      23.267489681342063      48.020107209256032
  3465   1      16.446663690932425      15.765583152034056      31.583709031843807
  3466   1      41.610042273747432     0.11859058650189706       46.69927027311337
  3467   1    -0.23182216445971404       16.53119554347953      42.867122162766179
  3468   1      27.112376347245181      49.598202245453642      32.265297546287343
  3469   1       48.83962270512157      29.781465716028521      40.760450597560286
  3470   1      10.276174494286108      2.0798018633388637      46.681962979377836
  3471   1      20.809524762360372      2.2355587405733504      45.437403454973612
  3472   1     0.83727195213579209    -0.58397596626755632      12.531557680412774
  3473   1      11.003360441422984       5.633612347339656      15.193565633623489
  3474   1      27.835983070959109      43.461170262601598       2.755920399730182
  3475   1      15.643070258858053      23.436931752583018      18.976494649461142
  3476   1      9.4210615074181909      39.027737785925467      13.574618853841432
  3477   1      20.758015255376666      40.559712937607927      20.725893134662812
  3478   1      2.4186736796246509      1.4483992007472035      15.153598016310404
  3479   1      40.616676467273408      16.351878766605683      48.563894132160733
  3480   1      42.381960162996585      10.737707553734122      2.8877366094075541
  3481   1      3.6738871522391481      38.353192613136109       35.51827554442859
  3482   1      23.204540628641769      20.947860418625179      40.366780481438532
  3483   1      11.309669507400354      7.7645452955951901      21.069497409748745
  3484   1      18.406513401405217      11.210380244031084      49.278713972533069
  3485   1      22.346769655492931      45.317222519852884      48.111999560578894
  3486   1      25.787330084620322      33.092727550327751      27.358943538338281
  3487   1      43.769122220916913      37.697840510038283      16.109328681595368
  3488   1      5.2502885629731217    0.034641516751915249      16.624419994279478
  3489   1      42.398642273807447       1.665796074638674      50.684267717431133
  3490   1      8.6842900181495359      8.5552740397093707     0.74608292423963629
  3491   1      5.4647043606228225      6.2925493622100488      10.658872595691248
  3492   1      13.779370974569334      43.731541833008031      37.322813610781068
  3493   1      13.584205684719018      17.682556605737787      34.043900245939106
  3494   1      24.830782850993948      44.748062060662932      1.6961259787834047
  3495   1      22.694889129538346      14.454441179307608      16.767297682627568
  3496   1      26.740118618112533      6.6373963640748874      42.159539696926203
  3497   1      38.105174154358856      37.907964373801896      34.827766834373719
  3498   1      22.646691109751785       10.64810662660928      30.587910950721529
  3499   1      3.6134965977304212      21.393194641324754      5.9859973721650297
  3500   1      4.2531474869728338      43.986130212528998      15.671566235380194
  3501   1      9.5107087070162262      23.091304951941289       42.10946299131372
  3502   1      22.577822509056006      29.321937960314152      35.592378736804605
  3503   1      8.2632712893249316      23.362548537575407      2.9663628654605816
  3504   1      34.065265622572412     -1.3214784840720446      47.903365326207037
  3505   1      18.743998237437967      37.811162997977625      40.430700567423031
  3506   1      19.092304292514584      43.924752938813114      12.982015520485994
  3507   1      22.009859383583141      36.007099661395429    -0.57095959715676148
  3508   1       13.91325316500367      49.106841642385753      27.921092437969715
  3509   1      29.577535922021926      3.4902021660084581      15.747591339558618
  3510   1      31.568236252958975      38.746106492097596      47.393569078730437
  3511   1      27.704479506094735      8.9849990298152704      35.291030070948565
  3512   1      6.1275849060723324      24.614527246897673      41.849555840875475
  3513   1      4.3258588223245527       25.20415921137198      6.1295048276562811
  3514   1      18.314695768459195      38.128023093061778      36.323967325956623
  3515   1      6.5490606025256559      32.869915819774725      47.733773202509475
  3516   1      24.148560622924794      11.893455241869127      40.019970451439931
  3517   1       3.504424192191768      5.4468320501004293      42.897216166612083
  3518   1      31.777470843019817      3.2358950691804527      19.047708782486879
  3519   1      18.397759103627163      14.637745599993472       15.19053134516227
  3520   1       45.84220373264575      28.695235373183706      24.109125022856155
  3521   1      47.120372509277111      20.229273938452806      41.250212417621754
  3522   1      25.124024563397459      20.876541541692909      31.243374760132063
  3523   1      7.1996041809844415      23.223366961726388       44.53969812272841
  3524   1      8.8916336284587558      11.719606946707996      34.403801739422327
  3525   1      42.574159946892685      3.4813042459036718      40.906450876935651
  3526   1       14.88044790491951      11.430455587471382      38.068682285573615
  3527   1      40.308393383802894      36.269453724222721      10.551497514157932
  3528   1      10.714665041889837      17.562810016809738      12.204388275235582
  3529   1      33.905845711501769      30.418543131575092      28.451631630224934
  3530   1      6.2111560120823261      29.977394920598641      35.493511341882261
  3531   1      41.835060568017752      13.700352603456301     -1.9937241992857808
  3532   1       21.21839968888321      48.561524853979492      7.6583706168680461
  3533   1       46.76892909805882      9.2400140920992708      39.625386367106969
  3534   1      29.751191063970126      13.642888293554275      35.681969850003796
  3535   1       37.71395476542326      44.795456722756683      41.907561399016998
  3536   1      2.8648333295770545     -1.4653886268920886   -0.060160745468376534
  3537   1      14.060127561141057      3.0994693844653129      1.8070104714576434
  3538   1      25.966480746854788      5.1868854672334876      5.7625787815911744
  3539   1      47.973818559487839      19.848351339025928      25.561159265321699
  3540   1      15.312151407451147      24.304269761066195      4.0926835419886354
  3541   1      18.471001568333392      3.3083988522122314      29.481464189010598
  3542   1      33.212086446929241      15.182583348134454      36.438412442942557
  3543   1      5.9516281780540536      4.5501638004977991        20.3114078006911
  3544   1      22.421034111781324      46.908314691091597      31.327865888248997
  3545   1      28.849617403703796      30.876515564197582      2.2681812562991559
  3546   1      43.828718798117038      8.6533916210189208      29.933851976517335
  3547   1      2.6282486235577958       18.38317049685147      44.671969666532306
  3548   1      11.937005304068105       39.24791957458288      43.097716483745444
  3549   1      48.999244170445451      48.837447157435413      9.4863850628488926
  3550   1      25.627518700831573      7.0217064283286694      18.154787610473868
  3551   1       15.31887888115169      28.583367872238149      39.884467390390789
  3552   1      28.364067881366331      41.573080335372865      29.040851845249485
  3553   1       11.38421249181795        35.1284504648279       40.47447316684832
  3554   1       5.147810055135805      46.218529730859231      45.781502918871176
  3555   1      29.495727157511947       12.82337756886832      13.115860806117709
  3556   1      27.966416316261299       44.68920612137817      7.6769261614068629
  3557   1      43.501978647304199      25.820060061214111      34.606494537844846
  3558   1      19.096244200575828      43.879772323364769      21.848100105734353
  3559   1      2.4004949703824572      46.345025420294014      27.866478700347301
  3560   1      6.3998608554972689      49.389835644876456      46.894388536818937
  3561   1      11.594021215486077      28.603515757462581      14.924707368740943
  3562   1      7.2641599924076541      47.815961231201015      -4.892252600368038
  3563   1      32.526509732794921      17.817354575086782        8.63950809166586
  3564   1      35.647231589821935      23.870657519006237      14.660987528869718
  3565   1       10.70143788449592      17.971776156699992      8.1446936768206335
  3566   1      31.523313457531142      23.099045762550141      13.708255059924021
  3567   1      4.8618133424084577      3.3820563502354486      27.629271167059883
  3568   1      43.150198697627737      4.8673282689226474      4.7041527615838241
  3569   1      8.3391390346704597      8.1480828660196725      19.606042078874491
  3570   1      21.080901592521474      19.874356471636297      11.703907435437358
  3571   1      44.422799051421542      22.674343344880775      30.932339584471745
  3572   1       7.656760986074274       19.40920203336108      20.197127155450648
  3573   1      42.642839765842808      21.620749258805759      49.112685264818211
  3574   1      10.048762451194259       9.800312713992323      36.885427978034926
  3575   1      25.848655993884119      24.254286388602324      15.112459627455735
  3576   1      9.2705703252445275       21.87773989106244      10.323096432776603
  3577   1      47.553507037110322      3.3709695297280304      14.200132454880965
  3578   1      21.652116551704111      44.435158416380091      17.166830316432218
  3579   1     0.99423048333840625      23.505092232344886      37.311365882564132
  3580   1      8.3226840737624244      3.6384081141370554      16.229723123175667
  3581   1       24.70885998247531        29.9017538670834      28.499691968196359
  3582   1      21.560729127136199      22.637159810714863      37.133986434394949
  3583   1       27.94241079673256      37.614101628933923      1.0034233961234031
  3584   1      44.860287864821871       32.63273019352134      31.737177645647566
  3585   1      25.979944802315941      31.515256715104119      20.228499645343852
  3586   1      46.590704979560499      44.404451713793364      46.179895967765638
  3587   1       7.355776775710356      29.771328012237881       31.70222439325871
  3588   1      39.059508650773573      19.098834119947369      39.320152740458632
  3589   1      12.587412519816558      21.953070901671126      11.621571282562767
  3590   1      21.694207606836045      14.763964619568094      49.732951491050187
  3591   1       37.31171387579824       43.56393668229255      31.092586727660287
  3592   1      44.168364176219349      21.269572714363406      27.382842689518426
  3593   1      47.153909592560247      11.845127752907285      47.769997621095314
  3594   1       40.80490358145812      6.5870966187446234      9.1732455843165077
  3595   1      24.490453802810283      10.949910167793263      5.7064651939013924
  3596   1      19.644608682465499      19.300576737776037      31.237642564984007
  3597   1      15.298377565031597      25.560836119493061      38.485829761562009
  3598   1      1.1046868930582436      44.093900413932111      37.362061079143203
  3599   1      30.130233697402442      44.405376935331503      45.809065336633211
  3600   1      26.328864733538428      21.870796062745107      9.6829404681470734
  3601   1       35.12209769240966      10.723707154147435      18.635664725356492
  3602   1      8.1865288387852964      24.745004207473876    -0.22305284991363347
  3603   1      20.322674630644787   -0.099320454302865235     -0.1807391609691355
  3604   1      48.388687639421832       6.614374498734799      13.446440204622316
  3605   1      13.145374323331078     0.41959329022918312      47.418530178553212
  3606   1      30.613875671374196      37.888488517355221      12.387207421511841
  3607   1      40.350013923058185      19.054100722604442      36.117658249920432
  3608   1      37.423935993993616       12.76740653260061      21.532318655501992
  3609   1      19.688425790534698      15.716530285078191      40.254800014267516
  3610   1      45.251721519273595      5.7971818138053335      31.784557451037685
  3611   1      15.173578488782894      39.749615272204068      24.970586037892232
  3612   1      34.192365103276217      39.345364438850609      33.237749843649794
  3613   1      41.894812337554427      31.406531737033148      18.267877578347182
  3614   1      36.735253887346623      45.944090939576469       14.93882128327335
  3615   1      48.216493199894614      48.078564645676281      28.188329491299431
  3616   1      19.170108715790644      4.8809006238980555      32.185733588729143
  3617   1       31.16944036243676      22.118441493061564      19.149391329641418
  3618   1      32.333838610787495       3.969858988937522      46.955799153431357
  3619   1      33.189041521060609      32.156063411090322      4.5237542557167361
  3620   1      21.483463389034853      10.443011669874602      20.621301087115079
  3621   1       26.60078172691404      29.214093605077814      9.5214878680798201
  3622   1      42.252413639516575      6.1217680021064611      42.878103441959396
  3623   1      32.535685696885622      2.7224811397113822      13.383300240750684
  3624   1      18.445476324538841      34.512891521184983      28.288914250190839
  3625   1       27.99010946837501      30.187847391581478      25.319579458949029
  3626   1      8.0240734466588126      3.1830377654477564      6.1765140547101982
  3627   1      9.4575121099493131      16.931849643383163      39.433140674807454
  3628   1      11.056578850597656      47.117966713682129      15.838701943060332
  3629   1      9.4194622686293705      18.970704325383178      3.9721386482475483
  3630   1      7.6738703727340827      40.969442950976237      1.2811183570473867
  3631   1      21.669960977487069      26.126861594485355      40.539592360630053
  3632   1      16.524309024875791      26.800885966342609      35.339243972419077
  3633   1      34.697159105108419      16.627968015492389      20.882330482301555
  3634   1      30.103124702907778      9.9265773215056203      37.364486572622987
  3635   1      11.771060906117588      24.500292496684395      4.2076070799173788
  3636   1      20.556816044478239      5.8744378546239826      29.078371986726978
  3637   1      5.8591070613067426      45.455923312713715      41.500183442700909
  3638   1      28.780834983730909      40.731858211906022    0.081945503399354608
  3639   1      6.4472749052339804      23.998094265387707      9.7121114032646805
  3640   1      38.387898594925936      13.061900316688686      25.487555071181816
  3641   1      44.448395429299197      19.301097913892079      3.7912126253673017
  3642   1      15.691041833611601      36.579756778808317      30.925972991430061
  3643   1      28.274697178032994      27.551969244478958      50.198743245302381
  3644   1      21.379788501755044       34.83927568182672      8.8481768267546617
  3645   1      35.561584622059208      20.026743704662561      43.102643568494003
  3646   1      31.642247301469684      44.051914725970541      39.401929576640001
  3647   1      32.208083096122095       37.56067583176916      21.207709703071874
  3648   1      29.436918157144913      46.079469025707581      22.000836150419197
  3649   1      6.7163154731111003      2.6091877878078402       37.06594015622521
  3650   1      29.341928109991692    0.068130875599794347      5.9904385463807452
  3651   1      33.974812241089779      30.680600286724051      35.762158330679299
  3652   1      36.863083176917669      26.120249710212157      41.759055275186654
  3653   1      34.432676340184855      2.1204177071094383      34.474450549479599
  3654   1      18.540659737479761      24.314281692709095      20.184509980616646
  3655   1      14.991132516868584      23.891209317405725      8.5298932318797522
  3656   1     0.27730400436797503      16.298043578433205      4.2668932054043305
  3657   1      46.997205333080615      46.490154783647434      32.476232863992287
  3658   1      31.618906450735235      42.781528627352692      32.443960214109438
  3659   1      37.942779370820936      25.469137876246958      38.559897220751836
  3660   1      43.806269538938395      43.081075962526249      4.8268795933350264
  3661   1      10.160049896919947      7.6249494368093664      32.256901463844052
  3662   1      36.702479643466013      35.530199430230873       22.94767607316594
  3663   1      34.028681845026938       15.36934272004366      10.646273422358101
  3664   1      1.1233098600211027      22.634918476388798      3.1932190578945434
  3665   1       29.71002980481521      10.850127223942922      3.7707782020254115
  3666   1        18.1870143931272      31.622244036612546      24.983811573378013
  3667   1       46.15608494363353      14.118238522259148      35.386613046926534
  3668   1      24.309405238740545      42.618710300294225      37.454408890648295
  3669   1      47.819972005839205      37.290055667800004      13.226441061762083
  3670   1      3.4238631214402577      15.974651465663896      46.840363377971819
  3671   1      32.964086787914916       39.30224601306432       6.306441402722827
  3672   1      26.019045203726737      19.241084851472561      38.255278345525994
  3673   1      32.168368523938426      19.368098317979065      33.591523359590525
  3674   1      30.120717202909201      40.249338032747069      51.678297523252262
  3675   1      6.8870501541260269      16.944489772895633      1.3068801317860195
  3676   1      18.909770985900867      16.556531348139618      29.516477619212957
  3677   1       32.09235917354841      24.602014821957866      29.748718632529553
  3678   1      12.100572529214578      11.006043628299301      1.4839844329613914
  3679   1      12.639608552312021      32.580014200171746      28.807947173916869
  3680   1      42.450592406311074      17.182728190448643      42.195379258621188
  3681   1      39.847833178358961      11.223313055285724       45.13136251789139
  3682   1      40.406865895766721       27.53107357170321      15.207826169935206
  3683   1      21.070320971616415      39.597404033440867      43.049788698965656
  3684   1      45.052819526832202      15.819537199825001      14.771986697902365
  3685   1      21.830036424943653      36.320102003958311      44.406150020939357
  3686   1      3.5339548697102536      19.450041072550267      26.590167405912627
  3687   1      39.256682470993603      20.115037030962487      47.533222488917829
  3688   1      47.025607668947025      6.5829846008976407      37.313100106235069
  3689   1      1.7172737294111917      43.145149270186337      45.179825735580117
  3690   1    -0.31264638536352507      42.786657566001146      13.170572259596328
  3691   1       43.12977605835767      27.776530039822745      18.173778635957841
  3692   1      44.015313920393837      8.0414759254984283     0.13487350491276118
  3693   1      12.379603920516779      44.765971913491711      29.001049520525335
  3694   1       24.46818503065526      29.309300974721708      45.524868675138123
  3695   1      40.319124884868785      8.2968399607243182      41.063498652238714
  3696   1      32.909388262261352      25.478426180842366      22.630814422544912
  3697   1      13.630934519468331      30.555201584775535      13.456521600094568
  3698   1      2.2341101067489308      20.390088569737937      37.175362370018668
  3699   1       40.40539649531361      43.168104780596089      22.956984618274291
  3700   1      40.258390296989788      31.090469185670262      45.635423838358726
  3701   1      23.435542367440473      40.186368776227361        15.9401742676475
  3702   1      46.995473663102295      21.415952147468598      10.329570722789136
  3703   1      33.454800169072406      22.691546471647058      44.223482538349195
  3704   1      27.184437385006518      30.460602403906471      6.2398031714988544
  3705   1      25.372134382523086      37.605039318265561      32.118604911036087
  3706   1      23.646798419058047      8.7605190435786842     -2.9338987480619561
  3707   1      2.8728680184418383      4.2150703174376609      16.611991744421569
  3708   1      5.7531110384461037      47.345348509848534      29.972760790748673
  3709   1      5.4624606136479352      2.6863038451349603      14.578096510294882
  3710   1      34.941615979243707      32.571515352878883      25.293828499989971
  3711   1      34.011171559511538      37.014254129482232      11.005765209792239
  3712   1      17.023455165174457      13.598338840852179      28.642211148384856
  3713   1      1.3619722929557949      23.988234284193023      29.389441944546636
  3714   1      14.937897149968112      26.186010048997929      12.433437433738998
  3715   1      26.809306596779905       14.82138971747546      28.582142556518786
  3716   1      13.244825051306583      4.4886683519255364      8.5045627170444078
  3717   1       45.27465499571904      12.860089697377767      19.981840699683115
  3718   1      38.025131934402573      31.131078528142805      33.428290114554088
  3719   1      14.835946353473393      36.452900126039005      15.143210634501076
  3720   1      42.151203810249974      34.824161504107437      45.407141022311386
  3721   1        26.5664170856077      23.791881342882991      27.788766691046114
  3722   1      13.325091264633896      24.549447266035166      16.576266705663343
  3723   1      10.491722543893744       9.429857709024045      45.370190377110603
  3724   1       5.599193423609254      8.1792119015350568      41.562637680061457
  3725   1      12.850121075245054      29.037284895302861      17.955284934154374
  3726   1      43.494116620546315      7.7015677291645064      17.400150814616719
  3727   1      34.629205746286303      12.493141058351155      38.588131565595624
  3728   1     0.42971732660644435      36.812547507163401      35.318054163458569
  3729   1      35.793809043572026      14.390435412232891      19.008682188661133
  3730   1      7.9844755614154721      2.1181703196224526      19.195499120235503
  3731   1       2.978412361369065      44.613860694843297      22.307770070286875
  3732   1      13.598405405305673      41.112575543034318      39.517688319898227
  3733   1      42.091051750371015      19.397824815511076      13.798023158411342
  3734   1      20.578767806621837       6.793030239832631      11.907917916675379
  3735   1      9.3468362822542819      35.092990913654099      16.520033450143774
  3736   1      16.960305668195932       4.252206742353934      38.973120528134018
  3737   1      16.226374736722768      37.957120497916797      22.285630238994834
  3738   1    -0.16354774182501183       21.47102503606127      47.946937607368504
  3739   1      13.476303548636503      21.888288989020491      5.5112114766331732
  3740   1      10.129079831511575      27.495379288126955      5.1299294281146697
  3741   1      22.788753709131598      7.9762741650035442      40.454872728677252
  3742   1      26.526224388425213      28.602313360711324      34.756615221765109
  3743   1      33.947459110682864      30.078547899415259      22.632917253806099
  3744   1      26.030027911606147        28.6841167920666      3.6588991319551574
  3745   1      41.411673345812204      9.0617451093717989      13.135900424021992
  3746   1        32.4200936765017      40.795277939421702      30.105737632982937
  3747   1      4.2417911248079943      7.2988340531284139       22.48022061873419
  3748   1      13.932186641901374      4.1982952909280522      47.308531648922049
  3749   1      3.9408261095259771      9.3459776294203873     0.56215385024792852
  3750   1      6.2990600890291573      36.926387564353753      26.019970915071102
  3751   1      12.008512701686987      13.907063062182223      15.042573140329075
  3752   1      9.8396227478162341      22.655091247292148      6.5712173564590763
  3753   1      38.158282287664363      45.946399893879729      24.822506199501507
  3754   1      35.029084773746582      1.1398520071183933      25.441566326903512
  3755   1      40.618712504138891      24.497075874071864      35.573441073292024
  3756   1      37.558187124550003      1.3521245141548957      23.310010380217122
  3757   1      35.243519066143108      15.462380584567988      15.230719975289206
  3758   1      15.221977464023171      38.056200180835759      -1.185730164176968
  3759   1      6.8144562951666758      19.779391828619282      33.992227280413552
  3760   1      35.026095899654429      25.904923389238107      26.641519381925079
  3761   1      40.548838890092725      37.228708744504658      15.473792424262992
  3762   1       47.43730828752458      29.515373971353561        18.7416772508451
  3763   1      43.151859210249768      38.091525311790505      19.322744404423364
  3764   1      5.3225160722073905      37.055726450924418      9.9622403969443454
  3765   1      28.322194194210439        33.9078805797676      13.702414158533088
  3766   1       32.40816330166308      26.324262247650651      13.179893375922067
  3767   1      19.150859430560438       2.824673821926758      25.557428428671216
  3768   1      42.629689786764793      13.777737511233862      34.263527431200309
  3769   1      3.0138745369742859      17.016548350593848      37.066889766954375
  3770   1      19.075742122618596      24.341131869606301      36.156322672575413
  3771   1      44.129585089337169      31.495512845746795      12.713920722700626
  3772   1      11.301417139685372       23.67207432211622      36.251626918154997
  3773   1      20.010439060073082      9.9903368634938889      28.491123126214852
  3774   1      13.499026586664982      32.483812607799337      41.669932080466268
  3775   1      35.100717355721955      13.716914968812276      3.3811334703815765
  3776   1      37.420477461427382      21.967772512674514      16.747493127778217
  3777   1      27.874017584516409      35.185908142132234      4.0718694535572384
  3778   1      15.734520075668142      17.303031332438394      2.0945044709809939
  3779   1      36.050311282059269      19.887579108591645      30.552390817212878
  3780   1      16.056391206521869      47.172911043620481      22.927982639871399
  3781   1       22.93553463334591      44.984764328774737       6.741955090030876
  3782   1      6.9790617999313627      48.997110638064036      7.5156843579409998
  3783   1      28.811918246827126      3.9129997853069622      4.8570324428161884
  3784   1       38.69091424444629       6.651490470833652      24.533957656968862
  3785   1      36.888441253297614      16.157315403250951      9.2569534015831003
  3786   1      45.831923791257609      20.402091340741418      19.195040927507595
  3787   1      43.442617733658423      38.542440091161986      12.121210543132429
  3788   1      9.2153497900932759      41.815291229688782      7.1511371866053679
  3789   1      20.211627324070214      20.997185252701406      15.174703167629596
  3790   1      17.361012762995923      6.0580247336290896      27.872869618192372
  3791   1      32.873903178612586      48.145616724906944      5.0787396652758847
  3792   1      19.843030915704507      5.4742915113317636        8.28726311176443
  3793   1      46.116329149580423      1.1209902017747742      22.026588123884899
  3794   1      8.7900178501134754      14.927212495084877      18.462924713338996
  3795   1      30.406013533826592      13.735000334023542      39.270911759545569
  3796   1      7.5564026229981316      26.601142476859462      33.439630463821423
  3797   1      8.2726682788295705      37.488956254432026      8.0421566902290493
  3798   1      23.779706014085786      2.9604454935259841      1.6852886080345926
  3799   1      3.5537856882719678      10.127976804361071      43.187671607909131
  3800   1      31.059786381080652      47.052724275833206      17.232973745800397
  3801   1      46.626843624474994      6.8048719075698845      28.707073857187826
  3802   1      1.8968123042360976      6.9042264929678439      45.801600514981679
  3803   1      44.457105334587446      10.443227074820665      13.851533493516428
  3804   1      13.086334586566297      24.941807024317107      27.359223031396205
  3805   1      21.010964056405619      14.220900986820213       11.48000890202572
  3806   1      41.526770922210261      28.663274302869944      33.564283881965792
  3807   1      40.843152998218258      17.416129923707079      19.771566547880862
  3808   1      11.221088566028627      46.937953464039666       19.26483223130824
  3809   1      33.448318444596005       6.184726584624614      7.7240387488134408
  3810   1      9.2676890717679203      31.347034685475485      45.867102530030621
  3811   1      2.2930221760323923      6.5735261126867988      29.056128227821443
  3812   1      11.878800581752056      42.673918541918759      21.070772376224408
  3813   1      31.235174889536474      19.275802571752774      43.927169192099321
  3814   1      18.193670108086607      30.460690537685696      21.698229734528255
  3815   1      28.140267690907976      19.046846712616141      44.882937963215618
  3816   1      19.725132116936791        48.6317538975959      11.386876408598351
  3817   1      2.8159344873145034      35.519622514955586      11.076403569005038
  3818   1      6.0398964400806125      5.9401620609774977        17.3087109705044
  3819   1       17.44071263621634      20.693522788243019      4.9404232295932902
  3820   1      8.0578465621801509       13.97219607732257      26.151649157710406
  3821   1      39.409916546620501      33.185114108284637      24.348327584861998
  3822   1      8.3017202598488442      38.091503779229662       3.290081119464157
  3823   1      45.161286160095941      22.983659543577396      40.496733099215263
  3824   1      41.538841773741694      10.162411983528004      36.548011487800458
  3825   1       40.17526860720416      15.562320502594334      35.649325374886111
  3826   1      14.667787654036182      27.987678446489507      47.724859358026691
  3827   1      40.828708617184944      32.920212100684481      27.283174986840184
  3828   1      45.397573008762386      3.7188558520542041      25.058744972269526
  3829   1      29.049152052090093       3.418359627076061      47.401019982478104
  3830   1      21.452069624821558      11.460490755222713      37.767548148272247
  3831   1      23.619887457254929      38.693043465040859        12.2246235144013
  3832   1      37.647633579339022       44.65719539136456       21.21672032932533
  3833   1      31.437659388057728      12.132665238827837      19.029939526793161
  3834   1      19.153349922304816      38.639129761486657      4.1449945943062385
  3835   1    -0.40678980860944469      10.660508413598352      6.7505806097719061
  3836   1      45.639424641714456       42.80696973931655      30.518747575146698
  3837   1      26.216874235597519      40.558451330259608       11.86196109159998
  3838   1      4.1059551680028372      29.665182303741382      22.012017461071249
  3839   1      40.639141375622273      40.896470442688475      5.4426827392965391
  3840   1      19.081781048147459      16.893251812430719      49.244470839193212
  3841   1      31.458154049691625      2.8329091087715601      32.491901041805683
  3842   1      3.6750777368215499      22.528528419493142      35.117104183555384
  3843   1      18.848393772525682      15.888803427748988      44.443724744535686
  3844   1      1.0294875452779961      9.6214068889710216      2.4900659746653191
  3845   1      24.194226121858556      9.6243317420062677      33.435252724100089
  3846   1      21.288485371186312      45.431147719096472      3.5296321565983857
  3847   1        35.3372240230361      47.176828919752609      22.194140813329565
  3848   1       6.719251952809759      19.529396797253245      15.227778584676971
  3849   1      46.180329449897506      40.550515848078966      14.148573227210951
  3850   1      16.821589913058528      18.221857445373026      12.396565663908639
  3851   1      37.022355891647607      28.001490585749711      9.0830763433317081
  3852   1      47.132448606998558      7.7993834574349643      49.796716805838876
  3853   1      16.869665681539765      16.372989522811224       24.88099518241297
  3854   1      24.902116071673678      34.206584419889978      19.098550942949611
  3855   1      39.618238044438122      16.064118003448115       25.74494273826198
  3856   1      11.255843488357325      45.879322438083989      4.5491344209364577
  3857   1      8.9993783169636483      16.147947485419323      23.561403229391463
  3858   1      3.9849802392325202      21.217509241721899      21.070103955785459
  3859   1      32.347567453078575      39.584426949515773      40.075989661663449
  3860   1      41.488668562202974      5.9434489275167266      37.347928921115283
  3861   1      16.215621974381111      35.924794714532872      5.4151491259564928
  3862   1      11.341566867060816      28.595058673427566      46.361499606327484
  3863   1      28.689190875028959       21.72016271309808      5.3454504327455199
  3864   1      8.1771501624741756     -3.6955070297842609      45.935394762189667
  3865   1      10.838173390674664      15.307559291531609      2.9532142503281364
  3866   1      24.359152482492448      37.672479264220037      41.595220369502179
  3867   1      35.422463103071543      28.278766512728133      13.168332139631652
  3868   1      9.6221348858786904      27.037183175538534      18.324062845441802
  3869   1      19.236151467117644      3.3387906893148616      36.895066230433265
  3870   1      22.834783440118414      2.4301358948413432      42.868407749462669
  3871   1      33.427718236888332      34.963425746554243      45.217580326841741
  3872   1       11.52030647113938      17.427695867928776      44.063575840096739
  3873   1      3.7294471163909533      10.428382764294689      35.427239849652956
  3874   1      26.818862740393818      38.409914824916989      27.677060979860983
  3875   1      27.939825574115204      23.220216281567254      31.559645591524088
  3876   1      8.5337038185837457      18.630501704350852      31.559395003063806
  3877   1      23.186523838838863      14.680929918366315      20.714421303709305
  3878   1      45.076556113194215      14.795986839076079     -1.2829835897599586
  3879   1      28.025656529297802      26.871398818656456      28.179642213120008
  3880   1      44.061101869330535      11.871900929165566      23.935594309456143
  3881   1      11.442164596156605      45.621240493934053      35.218898911713914
  3882   1      9.8552622227214499      7.7335630591384694      28.458637826116462
  3883   1      45.531289912828854    -0.30004628730975091      9.0714770180449182
  3884   1      29.713667869525406      40.388766998425176      16.076132435887125
  3885   1      4.1978380647544631      14.201666324817991      10.676445890626939
  3886   1      3.0054652149795049     0.83786251131833356      29.899025500782916
  3887   1      34.031240601880661       4.337190561188244      16.707454974538035
  3888   1      29.484428676880075      39.213887507688057      33.306850985182905
  3889   1      8.8012631037087043      20.006640720994817      40.432818864616884
  3890   1      21.759968356258987      39.869466359466578      33.634140777729769
  3891   1      5.6851625149365947      23.711308910970956      30.003949029645145
  3892   1      7.9207428602784713      42.571664241288055      19.551859054353795
  3893   1      17.968549059879269      36.801043299372452       14.77844964699664
  3894   1      13.618470138229647      36.257149245962843      1.0247811894952821
  3895   1      51.146742878714598       21.74731699094195      31.613544162987754
  3896   1      37.951749467620289      40.135649397836794      37.569793602182955
  3897   1      34.774398297931988      33.676400903135715      2.2766083253589109
  3898   1      8.4819212212539092      45.159738467243166      25.946925095999379
  3899   1      7.9580976123537512      4.2207343581284755      26.732625114384231
  3900   1      16.413738033578692      42.244059494184775      46.874216352204485
  3901   1      37.317768627333578      14.211498687504276      42.086323902041144
  3902   1       10.86480278489166       37.12277396833391       10.76112618132897
  3903   1      21.000789614190058      5.1253309365878774       43.49942559203572
  3904   1      37.485849098947781      15.629904360295292      12.970635683016521
  3905   1      42.989981495350584      22.783783486448542        23.5867473236713
  3906   1      28.014212957959895      45.833212486193908      48.092626531210271
  3907   1      37.982737630194265      5.4640107643485525      15.425889355688904
  3908   1      17.046077498152286      49.401858197098939      26.224240959581319
  3909   1       41.31947182656004      10.855987539657017      22.807570150268145
  3910   1       46.72585306839192      43.491790507029528      27.636305335938815
  3911   1      42.646798508063142      40.521137580998342      22.498316334641462
  3912   1      19.013123228013068      34.707022562573371      23.985260205832549
  3913   1      45.660447164957972      44.225141883148574      34.495878685467964
  3914   1      15.357625700678479       30.99780984832584       16.49501885335971
  3915   1      37.827623001092235      18.712383844379328      27.005960295684162
  3916   1      48.290042847727996      40.121179322645602      29.368320058941428
  3917   1      47.252066770968966      29.088368743185249      47.125905904615422
  3918   1      6.5354236828147299      7.4111227700569726       37.42690140172283
  3919   1      6.1743383168318529      41.080996594149639      33.396410068621655
  3920   1      16.325546110897001      38.205491621561869      7.8010412463322689
  3921   1      35.300145954937726      14.718640142272626      26.754525288174204
  3922   1      46.644920205371669      8.7085928561705366      16.984008835304216
  3923   1       5.409469596496197      16.325257366558727      20.738402649145186
  3924   1    -0.93894036320690266      41.052045133795545      45.509315351764833
  3925   1       26.82933569773936       2.471490670673961     0.89065911488302962
  3926   1      28.854993533511024      9.3790457534395273      23.726088997585208
  3927   1      40.285033305058256      22.261107658920523      9.9480233596520584
  3928   1      46.699818924168596      15.114258069708297      17.575935014831433
  3929   1      23.825986765271971      6.8612974176624935      48.984190359689329
  3930   1       29.71734226420968      10.457605823012486      0.4613060696947906
  3931   1      24.635085603181562      7.5200566959765895      12.374360231858986
  3932   1      1.1071880836109962      20.682124983194164       28.84726569327055
  3933   1      2.2760466979099183      45.306225912251577       11.79720141639104
  3934   1      42.748067394512695       18.67344141165966      32.642425534538674
  3935   1       47.09986376860946      16.714777739106722       26.34679898992054
  3936   1      6.4939001108328407      8.3874222705118431      6.1085862035880094
  3937   1      18.382193815058461       25.82045001555618      40.497088497664606
  3938   1      14.396541946476683      44.356286658808521       40.68184621772906
  3939   1      7.1771387681708987      11.145526023644686      37.112983371897684
  3940   1      45.729165129053044      23.334624896173217      13.388623943574059
  3941   1      37.435821007415377      6.4434536214037319      40.804084427846149
  3942   1       4.704196561662676       42.29912221406731      12.805409025026878
  3943   1      28.049763023467463      30.964319345495309      28.518393794587745
  3944   1      46.664612256620863      38.176255630400135      19.953837312039425
  3945   1      3.8646699172370167      14.969777230617431      4.6522524054808665
  3946   1      13.497601020609292      40.378766501877536      33.890134192551301
  3947   1      36.860842195032497      41.460794226564587      8.5395924724084722
  3948   1      32.849218180105197      11.215874921131302      25.244364780339446
  3949   1      9.5632468572322971       29.63634232691026      35.476617216108863
  3950   1      48.529839047978179      33.311812672317188       44.94759975002404
  3951   1      1.1142409199898302      7.4590124295001736        26.2145993659115
  3952   1      47.289072232724237      43.789250914130562      16.764073366049097
  3953   1     -1.2840802841921903      18.932359131774028      3.0589327293664237
  3954   1      33.793051820227127      35.005747182338702      17.622987949787287
  3955   1      1.4708616498145135       9.153315624269041      12.245559670993718
  3956   1      13.732515417730642      29.233953448356822      29.472069857567526
  3957   1      7.2997242800030104      30.412121297022178      20.990869498901297
  3958   1    -0.48325120435310925      48.470720609713055      17.227584419004927
  3959   1      38.182770499921347      22.482800431863865      31.191084592211919
  3960   1      22.011270554884323      3.1138716012311947      30.116288215880765
  3961   1      32.802691455264849      44.924969847263384     0.88417352781500202
  3962   1      14.371036752554581      29.693369096365188      10.016770390080973
  3963   1      46.641716267186929      40.594094127865617      40.868242642717135
  3964   1      27.945994385964745      48.896165235303748      23.142082222518269
  3965   1         3.0250589849337      10.248893161751148      23.745157601351746
  3966   1      32.517959219028327      2.6446724593304181      8.4053217424970139
  3967   1      24.270342307912792      11.961964363891436       27.44610656479642
  3968   1       30.85996333156228     0.12458624399506882      21.096657024684855
  3969   1      23.241508338879992      12.406400385670699      14.324466612777528
  3970   1      30.224204280711987      37.253034106718893       7.568204804235088
  3971   1      10.731846302134189      35.999539639791742      34.546428931961529
  3972   1      13.810872064199931      43.161725475990472      12.012832879455164
  3973   1      14.330278888294959       36.55333512855713      41.729594587195322
  3974   1       47.12102437195513      32.176961654090185      21.324158850769049
  3975   1      46.850435287335799      38.214964376418351      38.543509661269177
  3976   1      19.986174866092593       41.91399554651943      4.8155952725896292
  3977   1      45.793634298919848      37.529115335224603      27.574871149460485
  3978   1      38.809314933623163      8.7699192209730832       28.20790023500378
  3979   1      31.344363746701887      15.611126774560647      22.889742998596436
  3980   1      25.586281825229936      17.154201549647283      30.933210747049454
  3981   1      29.165758557718288      19.116208583633099    -0.85950608624670588
  3982   1      26.943740707980897      36.002504559230466       44.02238359765564
  3983   1       35.00203823650665      42.224934300959049      28.318096216209533
  3984   1      39.643700312606484      10.797630104649015      4.5990329090128652
  3985   1      11.785002630194544      21.545211687001629      2.7925628439017092
  3986   1      47.709650895870418      38.258212164282952      49.461091480842072
  3987   1      17.583719506194438       28.90547747108959     0.15861389219651439
  3988   1      25.594940616101777      35.590736928273657      47.284686402238769
  3989   1      43.116635094306737      33.306808896593125     0.95274511327574074
  3990   1      16.415140828506569      20.972472615354995      23.027112591300018
  3991   1      28.038918913452456      25.176186392738074       25.07246984295158
  3992   1      11.825479257211915      43.352431696635698      9.1271478029524094
  3993   1     0.50210248472778884    -0.18667066442050986      40.008273441825345
  3994   1      35.952077195546032      32.768623394072151      29.630908240489941
  3995   1      27.055485131158715      32.270260742840122      16.977607673619154
  3996   1      20.391807846361864     0.71762470626254382      51.775907488770507
  3997   1      21.856126872965458      40.126107839367755      46.552718799309652
  3998   1      30.171405063779197       1.307236102539244      41.130424165035691
  3999   1      31.818689897996116      19.669117055298667      12.490965781113617
  4000   1      20.953536968492507      8.3190423419148125      25.079338083988045
  4001   1      25.417705250475418      2.5607449487533387      22.056873222566459
  4002   1       33.22126383437665     0.74432128740363168      41.826177671222545
  4003   1      10.684526272232619      26.409909020599969      30.458445583053809
  4004   1      51.343039152767233      15.797756321549933      41.418007943172086
