(written by ASE)

4004 atoms
4 atom types

0.0      48.780000000000001  xlo xhi
0.0      48.780000000000001  ylo yhi
0.0      48.780000000000001  zlo zhi

Atoms # atomic

     1   2      16.582442178808943       46.53574952358791      21.638505865788101
     2   2      26.780674348358687      36.389080738796451      3.2558715074585591
     3   2      48.260694697341016       42.70490688942315      1.5117524972301668
     4   2      34.960585098789636      41.057559739749998      43.832546142926937
     5   2       8.997743443721637      19.536899106461441      44.516718703885104
     6   2       3.765598291347132      41.938439450890066      13.129308709223002
     7   2      32.021256570133552      6.6530932833069487       10.49754144059397
     8   2      8.0531369119100908      3.3231259231276682      44.227150218512101
     9   2      40.358600419480574      34.508462674931593      7.8367463922039953
    10   2      3.7492583199259304      31.531817623380508      1.0235394936567412
    11   2      34.868653216899617      26.218701211301962      39.047339732953411
    12   2      37.664128695268552      39.799075299621897      5.6363613805319392
    13   2      48.289395356028194      48.280425328826603      41.856669627642418
    14   2      21.859178255155101      7.9283426911956214      35.520393619486008
    15   2      41.472489481674501      48.181405533247037      23.171634685235944
    16   2      51.820050633258347      14.688272733195237      5.1812286495085624
    17   2      27.468361436558077      36.080913310578595      10.697113648193385
    18   2      34.351404971471005      44.948420373788267      31.162131428458434
    19   2      51.013223880012568      18.468427442626439      15.002144668032509
    20   2       42.63559750091094      40.487990351982901      19.241796112113299
    21   2      43.046099169083327      5.9001849509922968      24.121560614201293
    22   2      1.0352982514981124      46.837676365739128      23.009764330325659
    23   2      19.175302320598018      11.305712584052102       4.532083668513514
    24   2       1.618729174601613      16.606449127433976      43.408707084624844
    25   2      44.031812874115886      37.947576282776126     -3.6601852072856929
    26   2      14.096056180104988      30.649254766170067      8.3738523515955894
    27   2      2.2796994025924593     0.79721533222537999      45.932857189136818
    28   2      9.6242812028448057      18.226618434997146      33.133546466699912
    29   2     0.58370735554500963      37.898813461624599      29.906569345929775
    30   2      42.992659925610972      42.768260429188601      28.982443554087951
    31   2       27.33927206265146      32.585885576175308      14.527685811679131
    32   2      34.547443353063727      31.541479116846876       41.46908900220491
    33   2      34.923388249794797      16.544980243572567      20.580613822734836
    34   2      4.8379440618375611      47.725496075001885      24.870162482341559
    35   2      7.9914286490971467      3.9747914715291368      34.369517757279333
    36   2      8.9899550217266651      29.073826184609715      49.042944287560829
    37   2     -1.3667028806992441      29.862312641003708      39.229367538057403
    38   2      20.806645703013853      21.629147827116512      9.8248171034630651
    39   2      46.913101743234584     -2.5090521341408549      38.291068266009255
    40   2      8.0832343507021438      29.114266386639525      41.660337265221614
    41   2      9.3340066023966131      5.3464448166594245      5.0966679058795421
    42   2      40.227573222572701      39.527059813972159      37.109663905270054
    43   2      10.739911770762799      15.609846800370908      4.8282763625152079
    44   2       47.66416235615425      22.926825594981949      11.295537681429755
    45   2      34.415359989640947      46.411919811629772      22.908770431349105
    46   2      15.277722087646138      30.505890388710345      27.768419377080853
    47   2      29.555716565246673      31.819201091431772       31.11020847784301
    48   2      37.130506824795887      16.308796234173954      6.9071192667093904
    49   2      35.650428598752477      16.616249505984079       34.99613261332405
    50   2      27.011747991248811      3.7929275915251219      26.340680759208123
    51   2      25.491997770722232      26.328846396884103      43.972106977219809
    52   2      17.771296880268295      11.082345460749837     0.39682878331413468
    53   2      44.677736636423703      23.967696461416985      14.339987049900268
    54   2      32.758241224515167      43.601367561640444      44.252182591831811
    55   2      46.060584742235605        30.5170545036354        23.4811389707967
    56   2      42.164752545338899      4.7468040139015626      38.596702405498931
    57   2      5.8352169410806072      21.637934146075452      15.542937513492401
    58   2      21.605622890563325      11.675648002996024      47.286423316224344
    59   2      16.797974074366639      39.537907002091288      36.816533219040657
    60   2      35.750637626739405      9.0530937482116407      22.903002838434546
    61   2       48.49398070579614      37.595856039799408      33.484623172352386
    62   2      42.080437200370611      19.566429367296106      4.1974925812788797
    63   2      21.466003007982405     0.71724255598471043      22.902842610406463
    64   2      59.930887198146472       38.02122500980186      42.051729526775766
    65   2      44.621160701827485      46.928325318767421      16.649672803634832
    66   2       31.75308809453529      14.283163216045613      1.8271368115834892
    67   2       25.47596052299496      44.732811932958306       44.93789907677607
    68   2       3.897586659236048      10.913437260629536      12.357389104700685
    69   2      47.536661841321454      6.4079629808493523      46.173176223284607
    70   2      39.507218506337395       17.30619762705475      40.338973045641268
    71   2      40.651023090183799      16.318224747852923      29.949985539377852
    72   2      7.1365428239061472      47.749221001772973      9.0713001907991018
    73   2      17.139239509749647      23.955000599332912      37.605281741071906
    74   2      8.1618498175121346      29.329112815212678       14.42554072109222
    75   2      29.108011847081574      3.1807554573576731      33.918118713201025
    76   2        33.8415160611099      17.370860000129699      2.2196515738703102
    77   2      2.9235839372111618      30.282948698402421      10.081934195663299
    78   2     0.79681735056582403      43.363059462215141      9.2477652105995567
    79   2      6.5749811921104211      10.715304384855548      48.933104442190725
    80   2      22.546913951365333      24.512661952797007      2.6013896704004584
    81   2      46.477930363877043      5.6412560102731764      21.156759416701703
    82   2       27.32238029518998      41.221840916353841      44.151683519727456
    83   2      7.2869444265835259      15.868900546043088      31.038005765587524
    84   2      41.590657808898676      45.154280181622092      45.549921974680828
    85   2      41.714350255886615      36.468813501773013      27.040720918125025
    86   2      45.209771921943556      29.505805802877607      31.918301179258584
    87   2      22.940241335924373      42.593215389849576      30.979805641092518
    88   2      48.163871552693408       49.41623425629048      37.099952324480974
    89   2      23.347251276075283      31.972413948951257      35.739926533177787
    90   2      27.127395950102915      30.126504092243469      17.829513996588833
    91   2      2.8241069362104625      9.0428671340251778      30.935090050278486
    92   2        38.8949568503986      28.320016073906526       3.660444291479553
    93   2      26.446007481962262      57.175698497101919      11.729979623637384
    94   2      44.006069705836104      2.4711825787285253      7.9894119153277119
    95   2      48.591215355981483      40.080910996502872      20.855410449949066
    96   2      5.3760909567097173      36.919173893180108     -4.1148820753056397
    97   2      19.494429435686879      7.5043402594190507      1.6934634047550396
    98   2      14.642123809101092      16.745932008687866      7.0523485402819173
    99   2      53.750204880289544      9.3733178252944072      39.218459200226818
   100   2      35.842273177406142      47.372299126881863      44.046108893923403
   101   2      29.590269856007509      34.970854256261156      34.460206629818288
   102   2      23.527163619776111      38.661992054442173      10.168449620430488
   103   2      9.7061122211337665      3.3705632050060159      9.5718059856930484
   104   2      8.7883548489516876      37.440289649684509      6.3389593213486046
   105   2       22.24935607768148      13.252019776098956      15.159888091041303
   106   2      27.756969367697167      23.071121826995903      16.374344643530424
   107   2      31.438553739716276      24.072698048068638      46.631333001119295
   108   2      15.500299858604286      45.314998771124614      39.561445501151972
   109   2      47.669216796828806      29.081316509628188      27.789651101877439
   110   2      8.9431947128930815       48.19635962615812      32.867496976614518
   111   2      27.940801577073241      43.071043533286364      11.809575618478521
   112   2      38.924526328204877      7.4277238409361264      20.879303775693195
   113   2      8.4803092549384083      28.468168696072063      33.561079095369848
   114   2      24.321383374038337      19.073574141156584      28.380912929926634
   115   2       29.96938549142822    -0.86320951939988166       13.45127639636932
   116   2      38.420783970036368      15.025004933417041      3.0391910533869471
   117   2      37.205997883004208      20.647059251964087      28.384286675308651
   118   2      4.7111252427315717      3.1076342660799341      9.4826541542970642
   119   2      34.037309430814155      36.605560493287889      4.7762096129138563
   120   2      12.855687944000664      1.9688511197524656      44.931403210698598
   121   2      25.167524823905712      3.8460028069138943      32.802795216104087
   122   2      26.835371097963197      22.111237254205843      29.561458564294838
   123   2      32.870894920962442      28.276000913636562      8.0146203545819379
   124   2      27.637205492361147      13.612020175958428      35.928805278548509
   125   2      44.774607383147881      27.965025204321911      18.525545909607626
   126   2       16.34425863915876      23.179343790618177      41.336022885310499
   127   2      14.811444931541585      5.8057343155151013      9.2520659003192396
   128   2      19.582625959814397      7.0707317764511082      8.2743453745563311
   129   2      3.7394051709668559      31.078455829457305      41.931919047935239
   130   2      7.2651659450777704      13.303406270623809      19.180015546604864
   131   2      44.239874945239123      35.390183791604052      11.506512703285134
   132   2      15.431598235058091      6.9157760270971762      33.780216428535198
   133   2      28.775004697979952      8.1089324884501295      3.0495487374327075
   134   2      39.917578268914262      28.318580934966601      32.024150580049003
   135   2      29.043796872584789      53.531833864160284      11.991227807968668
   136   2      23.960010134937285       26.20301494867925      7.0684205292652775
   137   2      11.733038537558716      26.005460504505926      24.039970820614101
   138   2      13.253555921098373      19.710628179198476      24.562773754442713
   139   2      15.188216133297351      13.981946041272858      18.346485519258827
   140   2      43.395812628160506      14.126637990617391      5.0887813359953302
   141   2      3.2241898240189273      44.900644769950055      21.461833406777437
   142   2      26.971756059592252      43.730097552017781      30.764638216479277
   143   2      44.239040273630017      12.797278842028646      24.957063640573935
   144   2       8.948778161490301      32.852882283527016      7.2743541695789151
   145   2       8.460648678946642      24.400486563676729      26.576453540465334
   146   2      11.210144635423493       48.23123599186124       27.72701564994841
   147   2   -0.064345769741520537      3.9244246789224988      3.7716549178100833
   148   2      25.838684193092817      43.601356816539287      27.743117379143502
   149   2      28.671628542915688      38.212942789139944      37.610923572064486
   150   2      7.9241174784746571     0.76359575480413067      12.327072064734567
   151   2      14.631057806136846      24.961753395010948       26.54118623399243
   152   2      25.932746256609086      19.039316026902473      32.718302805995933
   153   2      20.026208808776687      7.1372698768514713       17.46791524371195
   154   2      43.276360138713834      22.332605330291969      7.2577336901512668
   155   2      49.530025660158046      11.924227645430708       56.23523800716243
   156   2      36.894769835725484       10.67059461100764      18.992073173493729
   157   2      16.150363073315674      35.540074857564001      41.335400736609429
   158   2      29.912209167779416      18.705179551584987      6.7750798695431893
   159   2      38.297224880483718      23.865234123164253      36.373798628688057
   160   2      11.824803466861921      36.913343293446694      9.8409345629386014
   161   2     -7.9335123655083253      9.5195492057444611       17.29539321185473
   162   2      32.476792136236668     -5.6700874804304435      11.120031216029757
   163   2      37.105641019752717      21.612567481988485      2.7429669679341004
   164   2      18.426082736603487      39.115878126133502      29.724186052513396
   165   2      6.6124447994438524      33.867222911400781      21.463506256417631
   166   2      34.420158350987386     0.19688158864201941      27.722713363301644
   167   2      11.815296390736398      11.147756881328924      16.400191539053424
   168   2      39.795403772146749      6.5349282378741975      49.405677062158354
   169   2      31.365345653788967      26.244494242813609       12.17401003019342
   170   2      7.4154197684638721      27.262172489107922      58.531654004173497
   171   2       7.044931267177545      44.831822267346553      44.157576907071594
   172   2      33.531718325846327      9.6392656723597554      26.176036063962776
   173   2     0.92057209418805541      24.918031724226921      44.493300628425672
   174   2      5.1161350474353817      4.5753067230532976      4.5569389591929355
   175   2      7.9264972820044965      9.7700500451391612      16.356611565085174
   176   2      38.108966645611154      28.803841736282287      26.137392536732413
   177   2       31.31667151619617      25.475573131120651      36.994291374706414
   178   2      13.483586184609095      42.291604449702191       38.25465842579915
   179   2      3.4776963152001068      41.844901492365658      31.286451585153998
   180   2      34.586566835684238      20.568554270026475      43.703532908237634
   181   2      31.929758350395705      7.0894591249920493      44.518153673462258
   182   2      39.790182277117424      7.5299516547001746      44.896515891597666
   183   2      25.429560634055207      49.789182004427417      14.387679182337097
   184   2      20.179591732392918      1.1718840158458679       31.04738724237745
   185   2      27.522819362887166      15.804829681295915      21.911976513929787
   186   2      25.943187465328624      40.118600122980652      47.609468378044582
   187   2      7.2201775831020658      33.257224488563566      11.981924132037257
   188   2      23.387402189172086       36.86130425931114      48.599340516944693
   189   2      11.020714746447094      16.092834989277954      35.900562416742709
   190   2      47.358543893418449      15.546942727881083      22.367043349446732
   191   2      43.682940167850468      35.132155324148329      20.948402826454441
   192   2      26.682969434039055      3.7941065394064504      39.490856040170058
   193   2      26.082017521439198      2.1208415682088977      23.012183365894266
   194   2      23.279297241407452       10.73358748197036      18.205815357056125
   195   2      16.290076194426966      37.990072186581422      2.0754740741791937
   196   2      39.903055959795516      29.476134324552579      9.8524268748446602
   197   2      19.522798940268213      30.632956382562988      8.1358088963965383
   198   2      39.654456149434331       32.74097031488057      28.624040518529682
   199   2      34.812604935067185      13.820716501720371      14.991731992730955
   200   2      40.194669213817235      23.602037356392337      4.4880363822208915
   201   2      22.241180370468761       40.14076109227765      6.7228256501278132
   202   2      45.116857396597119      43.651916702631894      23.493264635667956
   203   2      34.674055805852966     0.82541413340146441      39.569019723595723
   204   2      40.981610759920542      24.997754920698785      11.364747329481396
   205   2      11.629792910494363      24.497407297268069     -5.3702327907848613
   206   2      31.362765784966602      47.640399324486303      36.085910058118507
   207   2      21.488682152727151      9.3481579424157903      22.639524303789617
   208   2       36.26324570995299      27.508555991899456      47.945503477511927
   209   2      37.490721297835051      16.805647804117172      14.294480898043128
   210   2      37.443319723813019      20.745193917226292      11.132931409336328
   211   2      29.922896899463954      30.709287596244355      42.703471626542324
   212   2      7.5814893142778859      2.0415563855949568      6.7248573375595866
   213   2      45.473622569825018      41.855744350836083      34.780752854829842
   214   2      34.481387773290116      22.372574847715693      37.863847859632244
   215   2      35.553914642012806      41.206700442093364      9.1791059510953037
   216   2      8.4386347310543552      35.609743128337513      24.555168007269828
   217   2      26.476539013205535      12.352091039299228      14.623190750386904
   218   2      46.239562877737377      14.814620034978381      14.868656120136123
   219   2      8.5177048546128056      32.860808197743154      39.350790235517877
   220   2      38.183266876358033      1.3029483197632503      8.2279928350471252
   221   2      30.632306595533727      4.1308230462774809       2.293176396603267
   222   2      47.782616175391965      14.244208658593324      37.113395359643917
   223   2      33.810173684729008      34.374577262910066      20.376825623413332
   224   2      40.386127898959316      3.6258589085186848      34.847312936752992
   225   2      13.265485975197159      31.375554764506298      20.191783042308366
   226   2      18.750555611576548      39.575794477354947      47.017112603840744
   227   2      11.905562056298374      5.2932634925804489      22.514562981021207
   228   2      17.297632253432052      46.822157086388799      33.536574811350178
   229   2      19.953731731262305      31.476745505810644      40.508986313805281
   230   2       35.78328023348498      41.622482385396779       15.63315459019468
   231   2      43.042928994646104      41.184135772206758      10.211341576637333
   232   2      8.9208778646635558      17.475364444820318      41.310801115378098
   233   2      13.722926945075246      25.382454361878203       13.51730719659235
   234   2      46.037231859026271      3.1972221968528132       44.69684856577414
   235   2      22.941425714806819      14.016744578570915      24.034507088959462
   236   2      25.839938547364017      16.458258539104609      9.5702422804729679
   237   2      31.014107378240475      38.330006712334274      41.113143321948826
   238   2       32.81195729396773      17.410243595684062      46.888772697193389
   239   2      9.5777529843581419      39.532399684232907      38.245690691712745
   240   2      33.320407208350595      41.177646243833003      28.316456749662706
   241   2     0.81428755735596203      28.947191964016888      1.7968155736469036
   242   2      30.879246036393358      43.844652667466498      28.720550873626717
   243   2      11.491890982332135      17.324141180595415      12.404802520605118
   244   2      9.1704705488612195      49.919012839102429      23.803043636532134
   245   2     -1.4162289323391548      16.112996318625314      4.7992742123895953
   246   2      11.988702672907831     0.74622693762191405      39.374691479307408
   247   2      20.123021381356736      3.7028996772278711      43.862844554235714
   248   2      39.608894994766132      23.954369580234761      22.265568891242964
   249   2      30.940496445429805      39.496969100798104      46.161871704880632
   250   2      16.650156775274372      9.3843433655784878      29.036827232346532
   251   2      8.6946526837199833      30.660170249189644      23.836919920794273
   252   2      2.5658426897081803      21.420210749514261      32.229012772872125
   253   2      30.606128428169534     0.95760173735373855      29.439377627714357
   254   2      32.012386595029625      33.938086249252443      40.489653284710379
   255   2       38.10299731075127      38.041401336916714      10.489424006599577
   256   2      34.343684386206448      45.692936033595927      38.470143128858787
   257   2      43.987205233134844      19.207045134230228      48.443687031164067
   258   2      20.531140407232435      45.352496667341718       21.38879052726012
   259   2      22.274744696739777      40.454965317831011      35.912119592322419
   260   2      40.937687136117006      35.664055370345899      34.482554469254744
   261   2       18.15016345573428      46.504449450297258      5.2367085492566172
   262   2      30.160976799270209      39.004317192660814      11.082917241888872
   263   2      33.526616427156014      4.2445094958712826       31.70926224885843
   264   2     0.82009649126521467      11.856798769811338      15.961672475323835
   265   2       20.57230744783325      45.327795453467516      44.900741406460263
   266   2      31.440937160717951      1.6396572288345013       10.54356460047023
   267   2      14.217734079488947      1.6969957217895042      21.733005934368386
   268   2      19.569600734160773      42.154687750252215       33.45240116917428
   269   2      3.8588092309241455      44.500852203423818      16.069894810365074
   270   2      39.428027486653669      34.141640755912476      12.541886443477907
   271   2      12.573572580064409      21.704062848330416      28.913886963914052
   272   2      27.015248724757569      44.814770599027426      15.035454328705013
   273   2      18.571582952656875      47.628090199049048      42.309379424352514
   274   2      30.738111053100699      38.708214021804906      26.320933848574736
   275   2       12.51168720529528      6.3680086141453991      36.803027501964458
   276   2      6.8082311768889223      2.0172458011350862      26.833377056249304
   277   2      40.266697322979823      37.251733853076814      41.604301232119575
   278   2      18.243417736264863      13.800885775230082      -3.114030623481042
   279   2        15.3840550562208      2.9310605689557208      33.828331962866045
   280   2      14.345950463914903      41.408142775873628      27.826541249510587
   281   2      9.6417250197333217      34.810739656176565      16.952714504651667
   282   2       23.03796157309398      22.718549378521132      19.385378899574608
   283   2      48.488043129674317      34.754357351606245      9.4863488706341137
   284   2      23.162787639091881      22.975060667080438      40.650435747358102
   285   2      36.065545507621088      35.076835291994506      8.5394868074181005
   286   2      42.663399334043149      48.711690163374449      13.847573137928942
   287   2      23.667034115696026      45.236115978718395      38.224676686818604
   288   2      11.689695583457022      38.521003357722876      51.206785382624538
   289   2      47.635035857206667       39.44184049731016      11.123664257287746
   290   2      31.313747795336582      23.013534061759106      40.365512290827184
   291   2      21.053303010947431      16.452628296628184      26.261506214445717
   292   2      6.5724880054502712      24.568436971247944      32.050254391501021
   293   2      18.601300385743002      11.180345195277434      17.540293592617683
   294   2      26.997446057218788      7.7416647849729756      36.813475741908285
   295   2       12.05706134224709      26.323847045364918      3.7407961004885175
   296   2      44.107261434333246      30.192435914023495      5.8078214965338253
   297   2      6.3203775543863259     0.19854839241655353      21.247466862550684
   298   2      23.876313950685375      5.1913262146475958      24.424417551875411
   299   2      14.038079921985927      41.765757746685274      13.085808206540486
   300   2     -7.8663542339780426      20.537146249218537      27.155965482256317
   301   2      7.6009252668661169      42.024958889669897      14.826061151891386
   302   2      36.496334181636875      3.2361498110192111      28.583117116737693
   303   2      48.500708302464432      4.2438188509409898      12.329564161166156
   304   2      15.470212260603144       43.84838923884201      31.922514527187644
   305   2      2.6582774063400549      47.440409255650813      37.389688122381187
   306   2      17.407155736802196      3.4575251538213134      7.5974708927748207
   307   2      9.3528457421404347       36.16494790068397      30.569745003851736
   308   2      22.426577517081387      7.6896168599894672    -0.98672880814054575
   309   2      49.471975588297077      13.976591644340283      33.369096791171792
   310   2      2.5602176932408995      2.8285569806027464      33.963683193384028
   311   2      5.9797330573222656      36.139709119082987      9.4712918044213588
   312   2      47.476678023957255      21.447206067524316      25.395967149403464
   313   2      1.6954569383450726      34.508728251802331      43.272031486456605
   314   2      16.970664611284928      24.893277683230522      29.754908492348701
   315   2     -4.6756775576377638      23.901090213127816      28.648321898331059
   316   2      43.276352137955108      1.9769743862421436       26.73209005948452
   317   2       30.18509929901948      20.128332802236475      36.485200525739387
   318   2      29.408340632049196      16.530457662531965       34.06089089743849
   319   2      48.243680027351893      9.9878492427126488      41.844972111006015
   320   2      35.513866168758369     -0.2331473676506389      17.510035556259165
   321   2      33.941514158651479      35.486020518607042      27.233122048803715
   322   2      18.804654993256786      15.084595193999439      22.767326550344446
   323   2      21.079725103201582      34.774399937454177      42.178430963547711
   324   2      16.294449790096724      34.334077939556742      19.561590851741105
   325   2      19.910905614672622      20.281814527395657      27.988777827173475
   326   2      10.128582564889328       5.638399017094466      48.030226457485583
   327   2      45.901002828972267      12.767588663561707      50.140459426049553
   328   2      4.2614998565866626       42.96039113983278       37.07177608337912
   329   2       17.26517379680875       21.51473335521386      32.631133709860215
   330   2      35.260002857884189      30.530240176942112      34.509454947692497
   331   2      43.830824417857301      5.1484914945807878       28.33245145921763
   332   2      45.818386350158505      4.8182705945009667      36.143364562920915
   333   2    -0.82296349019850057      22.908456622823309      34.550466619244851
   334   2      29.007411699190872      36.951304564720431      16.160565026203287
   335   2      4.2812673434567072      43.452079930160167      7.6474386844405862
   336   2      27.950645446730096      16.904498620200574      48.383936403708404
   337   2       24.10627242435762       32.57348823094415      7.2003195869940928
   338   2      17.565057313162679      42.254461058658201      14.340297299355843
   339   2      20.935429168440486       41.70628135359923      11.225800555837909
   340   2      7.5456708927619998      26.147538304329146      22.977464690103169
   341   2      30.959592556525873      31.135777697452255      10.105998518026414
   342   2      10.653684534591372      22.284194544078002      23.175872732190726
   343   2      1.5368995066963298      8.0363629192126584      53.885787885115086
   344   2      25.699312818716752      18.935357375346655      5.1297017804220761
   345   2      45.936672120533984      2.4078559403276119      40.150895034135168
   346   2      7.2479343142690622      12.878176191182758      34.037340084282647
   347   2      34.426769361699876      34.010948859627234      37.148414253882684
   348   2      32.567718438621917       5.771596532326928      6.1080457668664083
   349   2      13.889185185472579      20.409080270271133      8.4957359740501026
   350   2      23.554050275893097       40.33690963608074      44.913840063833234
   351   2      13.460329632292192      45.772548151946857      1.5843478972287262
   352   2      32.521625183817527      44.369648138182043      18.141287579265324
   353   2      7.0871627994560891      12.573165254124373      28.615692332690276
   354   2      11.959958595384579      7.7118276155242622      28.428551977018881
   355   2      28.966772612467985      44.044890325345719      38.435591649887762
   356   2     -3.3966232216281105      50.199398599535577      22.139860362790728
   357   2     -2.8607757031672598      8.5802674975921054      26.329485647844496
   358   2       33.10396608112368      12.685063384039415      40.700177079903753
   359   2      13.862980375689121      36.296185815683572      21.801491167971491
   360   2      43.765235053536358      47.975365383972083      39.140610274657199
   361   2      4.9519308299411655      32.544884547430449       35.19455764555159
   362   2      10.512520403239696      6.8649419744162818     -8.0710366597738918
   363   2      2.9683747628617971      12.645362796818539      37.018629633668027
   364   2      49.435499331403783      15.064555760552119      12.559226698620497
   365   2      1.9480856136460634      12.911480772985117      20.157035907935089
   366   2      4.2473419812344178      12.400962068893728      31.393400412868669
   367   2     0.72000526479587346      20.975746687292936      18.331666893767018
   368   2      43.450313151383206      26.582089623860497       35.64988794901079
   369   2      47.774557786302289      29.680105111485609      6.6764460117249955
   370   2      35.127955091144131      2.9846199928161989      3.1258058237397872
   371   2      40.341115995766806      26.184714174611404      14.796421085225575
   372   2      12.985736641662742      19.679185844965925      39.571546522338323
   373   2      32.445946121235515      13.596518299844679      36.922338624586608
   374   2      34.995994578003256      44.700443186296276      26.897141731441124
   375   2      19.169436528002514       30.38175387798324      35.842622289422543
   376   2      3.0956246667497558      38.352526474613128       40.83737219313911
   377   2      30.624642277591107      24.614233183371965      32.107561450641498
   378   2      26.122646736721425       14.07784227419755      45.505557034573243
   379   2      22.667475232556676      8.2597957178080161      42.730164206499538
   380   2      46.544596243606598      2.9495871451994797     0.10191502856904094
   381   2      18.740469736032946      1.8878038225139746      26.348646187102361
   382   2      19.339979426689094      29.216051279754328   -0.078433835962791243
   383   2      -8.302841542959662      16.847444542804833      34.972192261492189
   384   2      21.079825625754385      43.244917043471474      24.297464432028441
   385   2      5.8313179416173142      21.057923168697194      1.8302675984863812
   386   2      15.671465540414689      39.923811657550786      42.212972562228344
   387   2        44.5308100451239      38.356734208258686       36.38686271018986
   388   2      26.391106381580432       33.89845537183696      27.002948757897794
   389   2      3.6203238748088946      35.328057665224932      30.467404934152157
   390   2      39.559502298830267      4.0971957589010533      26.685112936857148
   391   2      51.070614832919105      24.087763886658898      15.313589731263123
   392   2      32.248557706738247       1.194960388746672    -0.59657464846647046
   393   2    -0.90242731348646121      17.877991943827052      35.758978342426104
   394   2      23.984890212254768       10.54528293231694      25.994528726808888
   395   2      38.068012343349849      28.736358188301704      22.408530812867831
   396   2      1.1035318295159933      44.637497218193069      35.281583705149764
   397   2      11.929787807646193      3.2513587361036103      26.407126923358369
   398   2      39.939736191808571      43.367870404829581      11.964191412937671
   399   2      13.991653082227655      44.256490209596073      24.703338791421974
   400   2      1.4463380303754758       27.19222248268731      38.151171458271691
   401   2      13.996976614719278      35.965169488532567      34.596535271095263
   402   2      36.208962570300699      42.066655518231293      34.842371565754405
   403   2      20.491947008476394      12.067549083299539      25.852706643375598
   404   2      1.7497548933601457      38.099129628834902        13.3550020952633
   405   2      20.611892691810553      19.264448508673635      47.634068129000525
   406   2      38.828713951236722      12.201656109309486      13.404410323703932
   407   2      8.0910233515689889      1.3716989710770282      1.9267897335795783
   408   2      6.2733447822164266      35.118480689940036      4.9828582656380904
   409   2      38.187153873059664      24.158762637131591      25.801673148418285
   410   2      39.299222956416585      24.988971800796335      46.537701250988583
   411   2      38.817855930782855      32.720997605599585      23.834673039484425
   412   2       43.01443632475538      5.7600113843521878     -1.9081746572765292
   413   2      42.969251163393409      18.344789294209153      8.8219142744901298
   414   2      34.799812198995348      26.858241723479896      31.533101120615949
   415   2      30.811295346855651      29.371497703465955       -2.10755982265727
   416   2      29.020513682329845      9.2967750889734759      27.135324599571494
   417   2      6.4777186033998282      24.750643155527616      47.264599419649358
   418   2       19.33680670791221      36.505301656508394      13.051288837925101
   419   2      35.820460996699481      37.006748109237769      23.955638190423432
   420   2      5.1940184046838338      3.0137764992730172      15.702526885417313
   421   2     -2.0009114197824065      1.3231668595174797      29.938414854557195
   422   2      10.459189269391805      32.626665879168044      34.820293323164854
   423   2       22.01517932984417      21.885677971842476      35.695018652403128
   424   2      15.241282518440654      46.466102301393128       45.85383583898242
   425   2      8.9431692640022735       46.66588364870146      1.1525321100315897
   426   2      37.431134585129492      17.305277886393839      48.794197487472893
   427   2      24.674601585964361      31.083456986334863      23.283622192691901
   428   2      42.591954227579272      20.322487423948935       42.84510997375498
   429   2      25.623481841292381      12.873850962929122      9.2228734608117247
   430   2      36.226743909152397      34.667533897862498      41.271631265596724
   431   2      38.861971485906743      31.552647778435951      42.478541444817893
   432   2      11.143530673386055      48.120505858293832       11.18811308932208
   433   2      36.298499297050419      39.521895161620286       39.50991731983418
   434   2      1.6193349265679704      30.534401694865409      35.197257037403126
   435   2      26.731210287645304      37.456117055276813       45.84523446189732
   436   2      21.921025342494207      46.533468155364851      31.427687501250478
   437   2      11.288700827269068      16.392891846120616      16.773677199617417
   438   2      23.455242925318366      3.6010470140778472      36.683606204453405
   439   2      28.385635840469092      27.204320114955525      29.503984233975292
   440   2        44.8896281332973      41.358266916185841       4.792750094042872
   441   2      33.717347934374203      27.357804381287071      15.715942496600661
   442   2        40.9644719557038      28.378906222255786      44.118850318659078
   443   2      20.363518917314693      4.0950423559266289   -0.079276872152266531
   444   2      20.775895416444818      30.121745724596472      44.183216062605702
   445   2       13.86036080517205      17.711215229863427      31.612422710253817
   446   2      19.627235713042992      25.664637537570716       25.80189169897373
   447   2      35.824954627307768      11.721530114291594       7.593131049619803
   448   2       24.59578949240521      32.432308821062179      42.652511191258732
   449   2      31.663048917341392      24.380524993194712      19.184842793675038
   450   2      3.2648834943204239      48.743377203212056       19.41254274610576
   451   2      6.7316035091905153      17.009497676865006      2.9484266379219677
   452   2      1.2897993717943552      33.090663921472611      4.8378955706087448
   453   2      15.165571217463043      13.940015832421766      51.373708518557386
   454   2      35.658688848094222      13.940982790070928       47.74617890853763
   455   2      34.612017728097605      30.004164215793359      13.023030150455247
   456   2      38.189238837871123      49.802293201864089      11.849166881886696
   457   2      37.914046782393427      12.824395891773712      39.921570593060245
   458   2       41.42241968162665      26.886581652496059       6.591594033509443
   459   2      12.590505325695823      2.7126999928519848      6.8062299513290991
   460   2      1.4132373632879618      7.7115620306017565      36.336232925747609
   461   2      33.530552784573125      18.472989696996905      24.882873459426705
   462   2       27.07409402063476      7.3027182428481678      23.598642476764226
   463   2      10.395728813671427      20.599703337793883      19.867550263619048
   464   2      41.662080507317718      13.377265375447733      18.687278004094029
   465   2      21.058431686318755      16.444194862810644      10.293193129191621
   466   2      35.874300686256653      9.7816415174768423      45.136643106086019
   467   2      3.9450538809948679      8.3631792099692053      44.289920096953892
   468   2      36.006378690551792      32.703118935474194      45.739547419584611
   469   2      4.2759017430229909      12.963162273521029      42.639965444583019
   470   2      37.823104151995125      14.096179640291425      17.857909835226618
   471   2      36.358410758599959      14.309874463109692      43.468399744611098
   472   2      1.5577543335877193      42.113423796187284      39.949039423899528
   473   2      27.920991619944736      31.975881753724028      46.251544900570991
   474   2      41.194598624178262      21.688282390241881      15.210618328545905
   475   2       11.99061139671341      40.541112118979918      20.867322009492131
   476   2       14.79272713493803      10.113730465486352      37.448369244279931
   477   2      30.990331352273884      39.874081476791815        18.5280628796509
   478   2      27.661061598451887        27.6689100788102      22.249301228991765
   479   2      21.101471382917062      11.669300173454159      30.520573826819724
   480   2     0.86269623151745434      48.284045355238312      27.638518259187606
   481   2      31.760827728530103      33.739636639852336      45.207277051861368
   482   2      38.761454159324643     0.74827755741298529      33.023743700447859
   483   2      16.919889454858399      6.3341370871436018      4.9581243395648267
   484   2      42.193123151429461      2.8945461102231418      30.796801300020018
   485   2      15.143920274028364      -6.625629997538832      5.6623469009367557
   486   2      47.292218662786482      27.940818592224186      35.210813817879377
   487   2      27.619457078567805      1.9768193969093075  -0.0079581549177157162
   488   2      46.892797679293231      10.734483910597568      12.249671854252563
   489   2      31.440617725124717      34.754160111472352      9.2177128319907595
   490   2      1.5928729461778772      28.529359180739032      24.005938811254502
   491   2      37.046987416151786      20.131251761512981      24.190718536356282
   492   2      11.592487008647321      12.533548961571755      30.683400993390944
   493   2      3.6155198814235132      27.415715369962648      44.423593328155867
   494   2      17.326830815370073      29.103700740631982      14.134426627185588
   495   2      38.089295370675401      22.521008061728452      41.187425123546141
   496   2      38.887824812917671      12.445686380588292      21.551470924164587
   497   2      6.9815320987544878      45.712559347185397      13.164407044573778
   498   2      17.624676559125209      33.191408419437629      44.355692346160239
   499   2      42.243950810897132      6.9023605374725312      35.032058733528935
   500   2      19.233947369425273      32.244716255645727      4.2901695851895258
   501   2      44.008268943393688      44.411565058820074      48.998681731093541
   502   2      41.974064657207123      35.597522183059276      38.559047650866795
   503   2       42.32045453600167      46.678652515801858       29.75406135638319
   504   2       45.55622995985437      19.856820086097681      3.9312928482258069
   505   2      37.159469272652352      25.403789704004886      7.8565409955809766
   506   2      32.074925411247492      47.535967202502569      41.263756625251716
   507   2      16.925964590588372      31.752026206316724      31.458951699206359
   508   2       37.37301047210947      43.927582087908689      45.666959831255852
   509   2      42.142549541233628      20.086765017906085      20.013033241838194
   510   2      48.826207375969076      42.735770875985011      23.534596723807269
   511   2      47.998447603670584      5.1902611571038229      29.425157398542122
   512   2      47.296785571076221      19.457454869015113      8.2157708152253477
   513   2      3.0123093552095539      49.117329864987319      1.8997762564152159
   514   2      21.340523551160903       43.99397316387963      16.443525285207826
   515   2      34.136301278738848       2.241029942151342      43.731270170633429
   516   2      18.751645013049973      38.387948011278048       8.966233233191085
   517   2      28.643271161919774      24.333435850260916      6.0718265000622367
   518   2       32.46318863938496      3.2696196433203033      14.196696508859555
   519   2      21.638290378428696      15.576116578728294      44.939723867340327
   520   2      39.542328513635191      44.482268133233902      23.592837307674134
   521   2      44.002549320734268      50.561023745249962      34.821786135787853
   522   2      6.1179639984352745      16.220468407336735      44.992334845182697
   523   2      41.394325818297844      10.690085488490871      38.280567948264391
   524   2      23.025863104730156     0.88539326533073148       47.74264361334842
   525   2      24.172036250295623      5.9674661809915746      2.2061267979497656
   526   2      25.130899135051351      45.285479662812378      23.593229087399404
   527   2       43.60326447289426      30.375676720116704      36.509709431065254
   528   2      39.404329942622674      37.156282666649886      21.330316760047367
   529   2      5.4962733498416769      20.704186853022431      35.693926441845875
   530   2      10.845683342445257      25.339085059569825      48.555441051672105
   531   2       41.95670448021724      29.631153609982622      25.032875056201032
   532   2      5.6418673100569681      32.675688330397122      25.658473697269226
   533   2      28.283432512247469      40.168831839226833      21.494736577452191
   534   2      28.361134970794591      33.736338282554556      21.328037440889595
   535   2      12.038233476112779      4.9626489637127937       33.35171348010212
   536   2      17.453466883928041      -5.625333349832947      44.224393633267795
   537   2      32.120574399488127       38.86661575113915      14.341772326083577
   538   2      35.839314317809361      41.254963547457592      21.450425937727388
   539   2      9.1298161899684676      3.5880017247020302      19.485855708050359
   540   2      20.461585411551788       48.07952438689739      8.9418302612064835
   541   2      15.555170266687496      39.611427411944398      24.055720571625937
   542   2       35.25767346951713      25.333367165621969      13.172050907280973
   543   2        34.2096045376015      46.264733149306323     -1.2045153453375386
   544   2       16.41464848692328      28.320393891420029      19.743702856544552
   545   2      37.453243342109019      6.5902819296868484      54.396009211020832
   546   2     0.27154838764000683      40.705839960955259      35.892309140806034
   547   2      6.8336683326757077      21.287423413281921      21.937493254017781
   548   2      26.680739055266642      48.287681625323927      35.586499942591338
   549   2     -2.9567017782806868      16.170264695043397      40.041566434644359
   550   2      29.642681393851646      21.332782810161071      2.7622282167821868
   551   2      30.548597364191981      10.591324233440449       12.28283698326061
   552   2      5.6862615404158374      19.660411418282681      41.547509609494405
   553   2      17.087698659857306      16.273055903739909      48.628196578184628
   554   2      8.5774981222813231      41.323236797697383      32.741261016268901
   555   2      46.824188281732766      36.904524996971666      39.972402724513799
   556   2      7.7104690636681328      18.021014030117595       22.91406470694897
   557   2      13.183611560466616      13.712441879423588      26.316738333656506
   558   2      26.834664000523635      9.4137462598585895      40.123755928469883
   559   2       48.53100050596278      44.633835315207463      18.858173737335221
   560   2      45.542792801001092      45.409389776793212      8.3475260182655511
   561   2      16.385487252606048      24.184165279093015      10.197943885182923
   562   2      14.882216318917246      9.3982972345787719      2.7966035696980054
   563   2      6.6668469482911723      46.497398393535484      36.771445715205111
   564   2      29.855079482690353      7.0504676982559182      32.403661679096416
   565   2       22.62259652158966      9.7275757868304957      14.803072759745199
   566   2      16.210395469381201      24.941054026517566     0.27901777426895302
   567   2      26.415917188818998       39.23910809362166      30.505777194437233
   568   2      29.963559669529175      37.373427231946309      6.6400100522104823
   569   2      4.4533251778751177      44.828993529264714      2.8300087344784677
   570   2      46.452291255861745      19.579487780280942      21.817950715834158
   571   2      23.651068078777538      22.488767113709823      46.782107785981715
   572   2      32.328690099513672      14.522186111583524      24.406656615963431
   573   4      38.764077497566582      44.286731027908054      41.715955023654139
   574   4      47.717022068001036      34.060987247659483      14.232021996951099
   575   4      42.364202486337433      18.566465402906893       38.25091967454086
   576   4      47.770393241001734      5.2990418987236332       24.93473247663832
   577   4      31.306026574740841      18.475948646459436      21.832391485138814
   578   4      30.327516529729564       17.31803502948441      3.1461094544027652
   579   4      20.621511712836327     0.52996608336317885      2.2819533109255556
   580   4      20.086308153360264      15.234560676120934       18.21810967358638
   581   4       35.26284162260751      26.433112234995551       26.19844300874804
   582   4       46.72752082276245      32.951520682656351      45.737243472062445
   583   4      16.366038211767226      26.329620885334378      22.957781493227738
   584   4      30.230206348811372      22.040408798961106      8.6430564413952631
   585   4      19.962730959290536      3.7039384261059642      20.637556873398378
   586   4      46.182450705742653      24.385239528873758       37.54460982312758
   587   4       27.78915591413584      27.195722359249267      47.836612007050164
   588   4      37.077997931318308      1.4766854823972488       22.49399293581348
   589   4      14.222776975639318         14.805870345569      13.932638415193612
   590   4       18.28455732896624      13.527464413547007      31.857606831470932
   591   4      28.648747115175738      48.152469980244774       32.53666875600014
   592   4        23.1456311208198      35.044325858428842      25.055040721751944
   593   4      13.948901076216158      47.823210888215627      18.630442667250026
   594   4      47.542516311558224      8.4917545274297179      8.2657828263580129
   595   4      15.514735635644486      48.111816633402874      29.910725023851317
   596   4      35.384464994976788      18.863406552612563      40.460200935933074
   597   4      41.193928318128393      42.022222651446235      25.636178936561873
   598   4      5.9875574269937406      1.2465474365192024      39.729269783723772
   599   4      15.059841956003673      14.395784949612745      29.820647334165745
   600   4      9.2966954853529931      4.7644947518696279      37.853812010721562
   601   4      44.077111635738895      34.058646735857408      47.573959010888672
   602   4      15.879048576496722      31.772342640779303      23.029289639232299
   603   4      22.367270258132471      41.721504003773568      21.335992116940513
   604   4      36.737211278849244      29.250637841979295      7.1417220866321092
   605   4      31.943489987140403      8.5587436063357263      29.491714651423621
   606   4      10.140481936214877      39.393016279391581      28.734845911714732
   607   4      45.244275019736371      39.683252674811577     0.63778325508890488
   608   4     0.83417655185903805      32.418912829964498      24.432553306632592
   609   4      29.975054643918071      23.686452629206901      27.981438874145901
   610   4      39.887385259727601      32.841417016745098      19.680076889702384
   611   4      47.625651720470174      3.2035842961506593      32.672723579787771
   612   4      18.042086538688036      25.666451980674069      17.648958997771512
   613   4      30.121584188382325      5.6648468993822902      16.848813838856977
   614   4      46.058503115884911      15.639677502196932      33.184083406441758
   615   4      32.768794477451095      12.919311113510917      44.794332304774869
   616   4      5.2395638717242097      15.322908481405113      21.980072539128638
   617   4      22.856969841843291      26.479260615850578       10.82209569638893
   618   4      19.484301436956692      48.110762828355995      15.955729827865063
   619   4      33.901993084780642      42.615267521058094      40.651175695663845
   620   4      41.574259475943542      45.071830226522898      6.7621557382468866
   621   4      28.697300168598357      36.418886877799395      29.709566700996067
   622   4      44.167113731382223      16.305411529262166      2.0896995179721771
   623   4      2.0094079997387166      4.8003396672807384      22.916088100828656
   624   4      30.308433987712945      20.382202079966603       44.20015774477033
   625   4      34.854348774139197      38.552679639727209      33.666288623098083
   626   4      19.610115699179321      31.920219513533503      28.361476495775349
   627   4      32.592459743528977      47.975795900176017      32.349935388162166
   628   4      36.183123677241653      44.432980345456066       11.55040526074065
   629   4      30.756960413452973      35.003073787776373      3.6253893680526219
   630   4      7.3810957489800479      41.130495615299509      8.3192272167381009
   631   4      47.108303121731169      44.467677428852561      26.308142030709934
   632   4      20.757927550173449      15.730033466184645      29.962266893935119
   633   4      33.631704569870557      21.358519583805709      22.993909243251327
   634   4      30.688414687217467      42.277042436491676      36.153371235146899
   635   4      18.850345778867265      46.812030223707175      28.856279874340022
   636   4       23.89194141454832      41.497814614438738      13.937966107614811
   637   4      8.4957949559147572      5.5792208759533857      24.788133917296097
   638   4      22.978638806350098      9.5976563917884654      32.580911080771486
   639   4      20.389217694243726       27.37797980458485      4.7263379088438313
   640   4      32.121457122489915      34.888602603414753      30.701757336568626
   641   4      35.543954865542588     0.80608362424520463      31.208575504435835
   642   4        13.3224257782335      43.858806361866769      9.0186588942179888
   643   4      43.342924328171421      28.453064146802181      11.097025098866078
   644   4       40.89105687507999      41.517902797292756      43.128627626859974
   645   4      29.838495204120619      35.346509011404315  -0.0038601938875385097
   646   4       45.74163220892212      36.087344917533542      1.5538660655932233
   647   4      48.255823047277644      16.819264580811424      18.706290682381798
   648   4      35.106355561554004       22.85489892934406      32.362609638607907
   649   4      25.690305453102873      34.174822344513615      18.072217613326039
   650   4      39.785100679260267      22.679261307980816       8.657958888537225
   651   4      46.887134226999365      24.536804043022595      7.8468662631969801
   652   4      40.767396853157933      14.756148377191984      43.206731011500921
   653   4      1.2555412456105581      2.6665079233276194      43.125949336345535
   654   4      34.464436397936154      10.469152864513303      11.343409241348365
   655   4      9.8366598145067581      23.001331358674541      33.600470839392294
   656   4      39.540257909303477      17.115836082820405       10.36688602510411
   657   4      45.692343796739564      47.902071889765281      25.431941819613439
   658   4      10.961372096743688      31.793201244242884      28.330511851924939
   659   4      3.7498280478623842      12.697928719386736      46.884664263142291
   660   4      7.5805441344546747      47.097021033733185      29.253157151292037
   661   4      10.004168012733704      37.101155921192664      20.153786225656678
   662   4      10.095957647830904      11.301138102655791      26.365428661565268
   663   4      26.426765541312577       24.29823804709196      20.352851697119533
   664   4      2.7394644781338293      35.052894830058733      26.448971608096784
   665   4      8.7689887997542328      48.217349318088559       44.25485158342174
   666   4       22.36505308378004      23.241234229089237      26.006294679894207
   667   4      33.624492794609665      40.622228629431433      5.8721878958249132
   668   4       12.64547977259997      44.877800935921286      20.411335303097783
   669   4      27.108083940444743      26.075340352580834      2.6791202615084764
   670   4      3.8553839009243389      21.582980728662172      11.995990591767136
   671   4      14.317760422959596      45.877749255045167      5.9053224269197138
   672   4      31.973000957990244      34.805628191440356      23.706203405061213
   673   4      43.801669433505339      24.232232375459802       19.94504756926505
   674   4      10.651802540392238      7.6525621819189151      18.538415200658221
   675   4       22.68490589405852      3.0091866981321149      16.652473222392434
   676   4      41.451405051246546      24.507023103874207      32.623188437589377
   677   4       29.73021960357374       10.67615094374581      44.836473330921976
   678   4      46.797046543336997       18.69281147543127      15.585357282480759
   679   4      41.785580110830004      2.2284693075996986        41.5800620746164
   680   4        46.5673238795423      8.9238520824904075      37.541228020502935
   681   4      26.850752656382696       46.69573003856442      48.454418765196095
   682   4      20.194977742673867      28.993839663491457      11.660312651908654
   683   4      16.572544102309806      25.877254556927465      33.502978506447221
   684   4      38.395651991361497      18.257242704913359       4.428119494693938
   685   4      43.919659701656791      48.236135515657104      46.706595092366598
   686   4      29.081728142886163       8.144846852131348      7.8866472806935297
   687   4      12.773717460681821      6.2987405906919678      2.3502944876653347
   688   4      5.8533448534522066      36.944148664020979      27.442323089092898
   689   4      4.1761692822044232      19.435229907991161      47.002213938682857
   690   4      44.677347930505917      40.237161722417788      22.119117460964215
   691   4      10.063474654759386      23.614152726159126      11.803940576834059
   692   4      46.397439639641412      6.7374122002126882       40.45295091053945
   693   4      10.420959308871874      29.259088019136705      7.1345696538975254
   694   4      17.762067186882263      42.402421882620935      26.133469828422847
   695   4      22.781996501863514     0.93397280382994841        43.8247767193808
   696   4        19.4859877693331      43.291077478053751      29.428570387145111
   697   4      28.122600294572305      27.033305758614226       14.68356642342966
   698   4      29.736796934905236      11.435875199839332      39.303673349216083
   699   4      37.540915812435777      20.168432772921964      33.138721849000902
   700   4      33.235843497598538      12.808594739239551      18.347760010162347
   701   4      9.3781300574251816      20.284520023777837      26.495821006901465
   702   4      1.0445859408978451      11.901162318395494      2.8222766409870093
   703   4    -0.66327185397133859      42.809494898990856      31.713023876545122
   704   4      23.314150154624222      47.892440781864273      16.404373363241074
   705   4      11.930028797623271      38.820308273316229      25.387878344330097
   706   4      15.229416799390078      23.628791748704586      5.7669153951299768
   707   4      47.421911206706831      21.769934371256177      30.684511100875305
   708   4      1.2829141475593131      6.2639657869415704     0.89391951056346064
   709   4      33.692623868563409      37.469000649550516      30.415630965863045
   710   4      5.8577297404047437      0.2047658079719413      43.282566739054133
   711   4      25.371298206179496      7.4284949729048551      28.273183482740396
   712   4      7.6850594104413998      33.005400256201462       43.32035360526735
   713   4       38.79481589429826      40.428221470257206       23.28545515682838
   714   4      46.305747444291598      32.764706456293538       3.246333916431853
   715   4      29.178593680685424      32.223966186088774      37.036099580111639
   716   4      43.608545273913748      43.077579266057917      15.382249208951189
   717   4      25.120301495941419      20.183394820592866       14.62830702252953
   718   4      12.777145991334679       8.411084290441682      5.7151497007836198
   719   4      22.463200521613921      6.1185732793625096      32.311553157950542
   720   4      19.679484400133607       17.63992915046386      35.778090174839193
   721   4      19.764307043499166      39.322908524737429      43.123854530137329
   722   4       28.91286612439017       14.52322604528837      11.894779671162564
   723   4      3.1482471940130794      46.355773116166716      9.4222456524601981
   724   4      27.350296479806911      12.116594996470468      24.238450830781996
   725   4      16.301770521025759      33.108309944109891      15.894683472890904
   726   4      44.366081698751906      22.862687355237266      1.7429911399663158
   727   4      48.978721064877298      6.1389841921047283       41.92991508399821
   728   4    0.041056818343209053      46.579458652445389      15.321579007341235
   729   4      13.881092660747674      29.311574005737704      41.242479820474863
   730   4      47.246181270250382      11.300139377339129      22.413486334112001
   731   4      41.696907418616291      9.4395120793048495      13.503782289639144
   732   4     0.58244855724939393      34.355140869267586      21.099478088135076
   733   4      37.639248672235837      35.513309510031952      26.416363864106664
   734   4      7.0595155004276835      4.6182193163586271      40.994961110219464
   735   4      10.706320773800059      26.689331203471284      16.132317469907242
   736   4      36.426023839970888      43.142214976108654      39.037750971484869
   737   4       42.97549862409042      30.697213792001072      20.357319263363586
   738   4      2.2173092363770173      34.077752284541383      12.414958718130315
   739   4      8.1343485409678209       24.32213541527349      3.1179683937971081
   740   4      39.804991340716313      44.424739581142859      28.293306221160943
   741   4       26.38856086664024      29.061474228575538      41.195398543474624
   742   4       4.554875609736194      39.958814081152163      34.026339564504987
   743   4       11.77006983167592      47.461238338093906      23.120405389756083
   744   4      45.947563218496754      18.771732395735182      44.877425591233226
   745   4      36.098110197346351      13.057152139920159      26.062201324869303
   746   4      2.1200093007728351      25.059619536814747      1.2951063523918098
   747   4       10.40203229510592      47.256785236015176      37.336807644227633
   748   4       28.90286922947022      21.182904438792956      21.036061600129138
   749   4      38.161366082142791      35.343397090779369       4.462538691976345
   750   4      12.045483890585444      15.004706699529926      20.655206403564137
   751   4        10.7487328337543       8.453202471648174      32.069795623927888
   752   4      13.418272400905028      28.778342843553414     0.87160052657776599
   753   4      19.052630299487539      4.9204116758167373      33.461786547297017
   754   4      24.563763489094661      48.009461941130617      26.457065154129957
   755   4      25.866858041827246      40.704797290011712      2.7214498327175156
   756   4      36.625753521723688      4.7814816495902273      24.261261071867398
   757   4      10.968522216070742      47.010821758632737       4.628094229757223
   758   4      36.551590607012024      30.583201068186671      30.611831242641461
   759   4      7.6240884460601395      11.904203578102175      40.435818263542451
   760   4      29.337462088149749       44.66053746707756      8.7392918733774678
   761   4      27.763314440271074      42.473112987194455      24.902030754230534
   762   4      39.514170996774418      38.867246267919313      29.852246591581547
   763   4      27.031423798956649      1.3519122644589654      10.685776903615684
   764   4      22.177987029064663      27.968244456224625      36.235912571844985
   765   4       12.29829373062574       2.113093569842297      14.027443685136619
   766   4      37.416152853571546      36.920717895076152      -1.271104785351757
   767   4      12.861872328418462      48.780492898741088      47.998977292907135
   768   4       2.400396316998691      34.647236149205256      38.955309939793423
   769   4      1.4083040625291461     0.57911931814997586      9.7664506738341803
   770   4      9.0396736548478938      31.572409890039012      19.207236434764461
   771   4      13.298617583652886      18.007625973266645      2.5581508071228027
   772   4      28.817555496292144      44.691830149716502      42.685697692428754
   773   4      48.414333610279193      39.626721889367403      47.275922069548486
   774   4      2.3935099684353358      30.888453127102107      46.467223615968358
   775   4      2.9602884346465239      9.6526335730115029     0.28413291509106009
   776   4      18.553982038633873      39.852009804897101      4.7404191310636721
   777   4      16.764292404668439      45.554990963066501      17.100093226646102
   778   4      23.300239874425383      3.6689908593495502      41.166406051716166
   779   4      7.8346922041780651      29.002696503841452      37.784517177859684
   780   4       14.20627444587871      42.745875103725261      17.636827565654453
   781   4      35.887875776253466      16.702653667650377      27.134535078702008
   782   4      30.733794002006103       10.51211024824558      23.359645622926703
   783   4      38.886708735202014      7.2781622965358261      37.882555331567872
   784   4      29.032575000283309      25.960138223160389       18.22669144714844
   785   4      11.188957162232551       28.08253828331085      27.876135884593786
   786   4      39.050611503092753      40.031369277560501      46.262916739083792
   787   4      11.249659451309793      43.654429094026938       15.49940575146765
   788   4      12.021434162020837      9.7690580298996785       9.164389205751144
   789   4      17.456716630646387      28.267628398843371      10.405640057335493
   790   4      3.0289661454419399      16.084346572770951      29.479930012531995
   791   4      16.140276948731145      36.755539382506292      31.499088821555887
   792   4      32.607450542911934      20.252171306596889      33.599258496649647
   793   4      24.450160742217271        29.2770273124802      33.627323507204231
   794   4      26.977920430652997      31.992267139299166      10.448093066030388
   795   4      16.343050341927619      13.001528339311838      6.7074457414309174
   796   4      26.788470835855229      48.289248325247293      17.306693887330155
   797   4      8.6930109347115661      31.860891520889812      31.437354993778875
   798   4      37.597623479439378      22.653869532304185      14.925592841864036
   799   4        9.75636384413969      36.647454614852158      13.008778762620642
   800   4      25.758127484902356      37.990877768693451      7.5321938099547445
   801   4      29.671076084279882      28.215596385311954      4.4256915301400515
   802   4       2.217099873285342       1.712574310227909      6.2317505023199002
   803   4      24.715125010645259      6.8685513383591461      20.022078800051045
   804   4      31.140359071291297      2.9140975683821759      25.766118322983175
   805   4      39.039005203493758       29.00084363803602      36.536040826317532
   806   4      43.374693724191381      12.120150411911233      15.528826571932902
   807   4      2.3605028308529206      2.2940516176766339      39.539597361671596
   808   4      36.001929230831571      8.2509685641529735   0.0021358903113761281
   809   4      31.980560156474237      40.416472385846767      38.320629351420081
   810   4      7.9178756444354716      12.575474044408441      13.904283299764161
   811   4      26.339140062394776      29.154814270317598      26.524924897151248
   812   4    0.081523913568461212      26.022142435780236      48.009670404349841
   813   4    0.072036052701019718      8.2117370993271734      14.329978691879344
   814   4      13.219414176123319      35.804821361654291      5.3483430014853957
   815   4      19.194906729484693      6.9291847564707423      27.461105140670323
   816   4      28.492508198861309      8.5369097394785403      14.984448830436989
   817   4      10.151939578803313      17.887373360762616      29.319180592207221
   818   4      43.251566499008604       45.94929851231921      35.648287449888045
   819   4      42.755352656465796      5.6407325095749226      19.225562208732821
   820   4      16.873470910658899      7.6723522131218829      14.755180434894312
   821   4      17.777898064873437      2.5647839615413677      3.9071797433080646
   822   4      4.1121962958135176       26.89145226075405      7.8999759789488895
   823   4      8.7000150266733289     0.99457431945898145      37.474514348141128
   824   4      37.368350789743793      1.0093936094425267      36.927629717279757
   825   4       17.51166113006574      9.6132431004657803      21.713389709839944
   826   4      36.301535078247504      7.0202893513270741      17.475688925276938
   827   4      22.941475572777275      38.404082820698093      32.816459089376323
   828   4      41.549570233255324      7.1968176275126492      31.071525437217439
   829   4      45.839809269156632        47.4096034882498      13.012133053834443
   830   4      18.645033138031749      2.5623387652000269      35.366105623110705
   831   4      23.798146255655226      15.762453663174048      49.217339052885194
   832   4      20.351741523295107        18.7247617049151      32.315795088476271
   833   4      21.949470170379634      44.771316424719892      7.2270723815566207
   834   4      37.794962390965445      21.154980576337664      46.422316297631966
   835   4      16.582339362719491      43.854076525885965      11.057197296654023
   836   4      30.128037536869432      14.565004397830489      5.7029077117317621
   837   4      43.539064761455535       35.13574515347932      41.937709183582868
   838   4      10.176489763808467      20.609076620921005      9.7551976227066142
   839   4      10.204826397042259        30.5774864249308      10.766960079741899
   840   4      40.107892152886592      42.085543186880003      8.4533617412410909
   841   4      19.861187023060427      22.840958217411082     0.40719877729095022
   842   4      44.238057460813224      31.564384020197156      28.126413325146739
   843   4      42.171084449715821      23.979798292251665      42.765006906348965
   844   4      21.295724482116526      34.221045650530044      10.136362693527728
   845   4      43.050644326742855      9.1226577020359318      1.4444503238726918
   846   4      27.960075161301202      28.228538638012967      33.441196805544848
   847   4      19.321115703468326      27.506027269534449       39.61888399822859
   848   4      40.645105818504213      20.996657960370289      31.216656436658607
   849   4      37.248413476211368      35.225250118941432      18.396031720533795
   850   4      46.507202530024458      40.855782724071581      16.534856753384485
   851   4      7.6102472606227369       39.74074767173343      43.317857102271525
   852   4       4.969723877406663      22.554181969587972      29.072435076030331
   853   4      43.964406097396974      40.444732084021759      25.568582393560529
   854   4      13.994794877766546       2.345410119692235       10.55983976431477
   855   4      41.932759222493708      40.131645143277971      2.3317358805524036
   856   4      14.076239810582678      41.003588288002135      0.7021784076815959
   857   4      3.8482397677312004      23.635526181559978      18.622224558157505
   858   4      22.259949108799127      9.6181940171741509      6.2544371917380088
   859   4      19.011682889705135      35.589143058070938      48.082906044961994
   860   4      16.655869643359992      21.322243274882631      12.853963134923692
   861   4      41.138147534727231      44.752253124326032      2.9289750068029807
   862   4       18.52274765190117      28.500552695441435      27.878527421565401
   863   4      19.829809293984251      14.533185676087266      36.965156044995986
   864   4      1.5251090214736609      37.262873834720949      45.795490021062825
   865   4      36.573766646250412      27.552322162829544      42.595019797569741
   866   4      6.7940649193206006      46.046227413764484      18.393753105336458
   867   4      39.414427247870158      14.571021542260324      46.822979735928406
   868   4      1.6746890330894131      16.847598283996184      38.337959118326587
   869   4      24.502968902632585       22.86788863005356      32.423430151842346
   870   4      20.314398714877502      11.860756034697292      42.637243991723928
   871   4      41.181898827064053      42.868093432693712      35.154651748867899
   872   4       3.436213257525957       9.919865519806482      34.137575421308398
   873   4       20.23760876967582      43.108839230723113      48.319521033841497
   874   4      1.4913643191320167      1.2178152817206729      15.395099085991772
   875   4      21.194253164718429      32.540357569133569      48.697053822086751
   876   4      15.700151804642891      4.6688870372148354       23.96936379921641
   877   4      35.366436198454622      33.097625964738079      31.841661061101373
   878   4      5.9054709447065186      7.7582624945256429      6.7803232257644899
   879   4      47.717401372199383      26.972752435378911      15.083861132079182
   880   4      24.177494954021387      18.103877028495301      43.245506761276502
   881   4      10.624122306203274      46.531554509518863      17.896990940718041
   882   4      2.2394337850252271      20.119641811452109      40.058291626521111
   883   4      27.846722022575989      34.892757489575999       39.58053159782822
   884   4      4.1539848559800623       18.92354356970597      22.448162777412026
   885   4      48.784471312948313      27.873712866373854      42.859401898227794
   886   4      8.5331114539912445      27.401347015672503      45.100941888163973
   887   4      22.886201381863078      9.2450717005985457      9.9495653756124458
   888   4      36.069063931302075      22.882045918980502      20.481603186460458
   889   4      2.4511777583918621      47.640829643555897      12.729867857706887
   890   4       15.44034586432837      37.962260245114869      11.077288175851082
   891   4      42.654496922122043      14.191384210370451      33.237579483044115
   892   4      38.860309932188976       10.41488788793411      35.550582890166375
   893   4      4.2438446001848895      46.778929914240194      33.514144801464347
   894   4      24.192019760410069      32.945482321286789      46.417274227044999
   895   4      4.9948426143055729      19.007489591077643      5.5574383810654586
   896   4      21.777857926101223       25.14738885984131      44.343841017616541
   897   4      9.3473415623062586       1.137902195236572      47.553674158219799
   898   4      32.728207537146055    -0.34866865564859151      3.2813929583578885
   899   4      19.588321228081252      42.462830131160523      37.560831040020716
   900   4      35.564123757598487      15.427101322253906        38.7481103936951
   901   4        14.2012468302347      11.899758106046784      47.517148386725566
   902   4      42.749298102894414      32.017916322905982      10.065695176862274
   903   4      40.686682212487987      38.522017888214009      13.192402866415295
   904   4      10.800303018983543      22.633478878385041      40.318287498670657
   905   4      29.177220130239235      41.795257511939759      14.945733907358006
   906   4      20.496473360932818      35.253696293809291      27.068439107576495
   907   4      15.240387248400381      1.9715865277425353      16.484739221436655
   908   4      4.0379368158889184      31.092062639198357      13.899855691002326
   909   4      5.7874564277059886      2.5049866680517079      47.143623850307605
   910   4      1.8457020611799575      3.1303582150669356      26.201341193143787
   911   4      4.7938194024249539      27.744892122294729      39.501588300914634
   912   4      23.296650623172866       31.00726578475544      10.813973367272338
   913   4       42.32447671161956      9.1022706795175079      5.2958512491634533
   914   4      3.6292116034090789      5.7428253879584341      40.536597420324938
   915   4      35.190262800406948      24.502974869687026      17.038101291541487
   916   4      28.804654132822058      45.008305606725273      34.808279757389712
   917   4      46.404689578210416      45.755321748981132      30.157703824384043
   918   4       37.08600005586424      43.877138881539665       18.81054810077605
   919   4        18.8431541257875      2.5033176090207778      17.260917500674942
   920   4      44.356078437282996      23.313734552024087       23.69659702357399
   921   4      37.940429244975661      47.316380616624805      24.769505235714423
   922   4      2.1623283457657347      19.857492656337691      36.425057610706872
   923   4       30.57267146634128      46.170068118777522      21.696052962472699
   924   4       7.092145080857712       43.37180479756352     0.14522564147855821
   925   4      31.803039336856074      28.290512393098048      33.716080275585583
   926   4      14.850792289556205      16.002965448683039      22.963768169785997
   927   4      19.272851598725104      45.889325506354695      25.125128444395617
   928   4      31.300165016436804      28.134128560126857      19.858601498102953
   929   4       1.964757140437086      44.795983742439248      26.806789253173356
   930   4      4.2204784004442093      22.618221953764522      45.074254464649137
   931   4      30.174777921058503      2.2819204129461919      42.400550126025642
   932   4      24.289118843343818      48.153713108908789       19.94529910533716
   933   4      16.260862428058896      29.183204198378654      44.200549248258568
   934   4        26.1549735510348      8.7328480935323061     0.17691339601034123
   935   4      36.103597742599248      24.154557440283845      48.085494156982989
   936   4      13.425179197561523      35.252507968527993      43.954053227074432
   937   4       6.856202824279662        16.6822905268955      35.505818021973887
   938   4      13.315964109862563      43.340279203170304      42.300806717700794
   939   4       34.03537546043416      31.922785653425063      8.3869669520584651
   940   4      34.004345348479923      37.381536262325945      43.364147824332356
   941   4      45.460620258034368       37.93762600303338      7.8229358367770478
   942   4       37.72795761985563       41.30770547874026      28.812185128431121
   943   4      38.426492445342511      8.8254303739556157      41.428638483036131
   944   4      35.011682572531562      27.239293694445568      19.732999199545933
   945   4       45.56287050383628      38.230759059369973      19.256153277175653
   946   4      45.174900452480344      29.874990869459516      1.5547219828764918
   947   4      26.753207486120111      17.080523682532149      36.394766692420546
   948   4      34.130282138580668      14.283502525928226      5.1915975632541951
   949   4      26.971839064534308      47.155358109420384      29.299250327419831
   950   4      45.193563082406584      11.903744587233124      39.530213092140407
   951   4      19.852756103461193      22.000079230370908      39.463927415596224
   952   4      17.972535466330147      5.9789094271242185      46.085221732747449
   953   4      12.292542767708564      16.046209652999984      41.081509919764549
   954   4      45.098905537724271      21.501680661451495      17.524596304154482
   955   4      31.845764899150183      32.959070567606211      14.516031799026436
   956   4      45.697243523574322      43.648575150208352      12.354081999549743
   957   4      27.416434344469881      16.950727971328007       29.77348383614309
   958   4      43.295611665079974      9.6793067737971992      46.186413302602155
   959   4       20.45444459563026      14.735877428574572      1.9733365860706449
   960   4       3.969688581968597      10.148261922880481      27.165001666018952
   961   4      31.548582349046463      31.444072775248149      21.647818330592209
   962   4      10.523469533944205      35.927062887514147      37.389228754510391
   963   4      5.5551603846047612      42.325863221898096      41.515975118377881
   964   4      21.019891880975564      39.300984100194057      14.886215662395545
   965   4      26.597741566485748      14.545789370826965       18.30894415604039
   966   4      24.245589634304082      18.096216386697204      23.956054755080164
   967   4      38.020460924464842      25.653598022371472      19.010374260159519
   968   4      25.863706394894862      12.804986705441385      20.733522696713454
   969   4      21.258973871290721      20.388982020803333       23.69545207128202
   970   4      15.577371469524971      11.233228515172799      14.145171684860788
   971   4     0.11012550094875086      42.901435537749627      14.159899355134842
   972   4       27.38489726965587      22.621765297365002      38.243145193801027
   973   4      26.252353308501743      37.848951444175967      41.417959038554919
   974   4      8.8592985235122352      8.5407609063936398      45.992491260045433
   975   4      46.040296178756883      40.807879280838513      39.952242743366021
   976   4      17.797467966564877      17.895611760969004      45.067457213367071
   977   4      30.357205956907194      48.435070531215132      18.682780356063915
   978   4       30.24633030289959      42.772973568351844      32.129457757445877
   979   4      4.8870789075567611      18.389929431065845      38.339593508826717
   980   4      41.222340952572985      9.0780317713514016      25.127903143466252
   981   4      3.6681601063500224      34.724927810122743      19.586975433588716
   982   4      7.4627131494540739      32.826354530319307      1.5155067843025121
   983   4      47.054128454177601      9.3635277824923566      30.286970852196589
   984   4      33.145617732022451      22.948319066777813      2.4229090873936441
   985   4       1.270576253524047      18.659306082726477      5.4539014815326201
   986   4      10.761273542575418      17.027775324505253      8.5786230196370017
   987   4       39.31807758758287      3.0210608934844454       4.191541959661202
   988   4      25.093726452034655      48.719015371946327      32.008962767300709
   989   4      11.050063108273804     0.71495208387627474      20.030881010308409
   990   4       35.88035848192024      7.5878311220191899        9.32736438688638
   991   4      26.477765490327823      20.595993301410076      48.282766719390132
   992   4      4.2800113506197759      3.6197863194300273       20.11709989967159
   993   4      9.4905881627669686      43.513853789176572      36.397717988215042
   994   4      37.934649859089745      19.618491938348026      20.127501460759031
   995   4      26.166956523142193      9.4260831319407377      45.206960054629555
   996   4      8.4341771035105761      12.867781002092457      2.9585309194177345
   997   4      37.993993495438957      47.093842027583285      30.290202649417324
   998   4      11.585027924102581      42.192294234316087       30.84199444642854
   999   4      3.7813956648672034      40.774911701281347       20.63732081885415
  1000   4      47.693347353273303      29.274983194470149      46.165683950391383
  1001   4      44.962660395146763      2.5762469622130251      4.0866795966740659
  1002   4      16.323247944562617      26.611370650234583      41.638534370199132
  1003   4      23.605200901970885      22.259218204375355      5.6818863799570067
  1004   4      34.468733158721925      38.322158197261366      10.842438797451409
  1005   4      28.551976416294579      12.671374722740815      41.864484505226997
  1006   4      1.5137071277650964       33.76562971707358       47.05799615414994
  1007   4      25.591320490180276      43.340553972598585       35.87053927513017
  1008   4      38.803725794281405      13.372490214922308       33.03645611603298
  1009   4      39.241847206541365      11.507759231310468      5.0676119015536187
  1010   4      30.492044813928082      39.559806409566598      30.829495356736402
  1011   4      29.929336023291704      13.805733803555427      46.950553035004816
  1012   4      43.308993928752784      30.252155546919823      41.105046521780245
  1013   4      37.916762907898054      6.4314764084972227      30.514373063246847
  1014   4      4.0528912746112535      14.165046007233753      9.8564338674202254
  1015   4      7.0125723202419294      18.774626504930072       47.76986469900379
  1016   4      49.367501385768428      27.892793956943549       31.58380815339309
  1017   4      33.703984021373273       18.22882068058043      13.543184264443264
  1018   4      35.542289019164137      6.5635812895321033      42.599489932813434
  1019   4      12.573734441078692      50.169260571559036      31.361821381918666
  1020   4      42.566660653712177      27.898458327041791      2.9805365928082641
  1021   4      24.214365716463838     0.57969158883503458      39.079840882503603
  1022   4      37.074915287286458      37.635009542831924      43.942538068114423
  1023   4      39.866900029520387      16.333858778854037      20.677503491596777
  1024   4      28.119688530371498      29.706144001595209      7.5790590707386274
  1025   4      19.430591371580949      4.9763107784952156      24.179164748163565
  1026   4      23.675887810011595      3.1789316127483214      20.170820652237531
  1027   4      46.987266272687776      25.946971829632616      24.935461947894908
  1028   4       23.20921400599984      33.427326443694909      2.9877417088711384
  1029   4      30.158089448078968      3.4959167133901383       45.93444081902188
  1030   4      36.995618323946147      36.439016900486294      31.455758358826316
  1031   4      38.501911832119767      45.392770423195564      8.6202225420098131
  1032   4      19.441386406220953      24.304491347984229      41.545739565848223
  1033   4      35.000860520557602      38.121162212277959      17.216268924776411
  1034   4      5.1187695189016189      27.821196978888651      25.875088045208852
  1035   4       2.285242532863093      34.306218729527735      33.787806887353263
  1036   4      3.0413269786881898      22.591130753769338      22.183588715841339
  1037   4      26.129392431058978      37.269624628269746      20.088814945619642
  1038   4      14.193130390584926      18.719147385219138      35.536919755579881
  1039   4      23.641362043145026      27.107711508592836      20.164426485040789
  1040   4      3.7369906350570057      9.4459926700265822      19.131432269251057
  1041   4      33.643016171091901      23.581473784352539      9.4224873782128249
  1042   4      45.896277564978767      30.369289925586042      9.1407600406054339
  1043   4      45.760314245643833      26.301035579768993      1.3887995543685381
  1044   4      32.029073787509006      13.338462883974731      33.097726561116694
  1045   4      40.493265381750028      42.763598631897189    -0.10408942402710182
  1046   4      20.602332276881988      34.329947355966326      37.390474862560382
  1047   4      33.065581147603886      7.5075203552717769      2.3362322791394581
  1048   4      36.804522385933772       1.385121797357602      46.995421143114719
  1049   4      5.2393697347045993      27.204029626305587      35.769781500020827
  1050   4      47.194912339222874      43.812118589872071      41.920435574307241
  1051   4      24.104516227992036      12.253965839445781      34.471070207813916
  1052   4       5.673538472347663       44.27164835731454       27.59646970474375
  1053   4      43.990696131656335      29.190561600767669      46.796556694785572
  1054   4      39.518585574069668     0.41283010071469889      27.608050565211055
  1055   4      11.298221458951714      11.345594010121575      34.456553610311097
  1056   4      46.002010317166068      39.198343883762782      28.454348090028006
  1057   4      15.495700552073428      6.0759215880854258        27.4650182990855
  1058   4      13.629066142447973      41.962051200883451      45.845497461555652
  1059   4      4.0434747630871621      47.206854946052673      5.8524672750347602
  1060   4       24.06543952049643      6.7045192717756059      39.259285543470966
  1061   4      32.179354403716118      42.910378111447805      48.151718860417901
  1062   4      26.407274257295263      14.942748658352917      6.2207498054975083
  1063   4      39.435488717645157      38.901093907074646      26.440766001727365
  1064   4      6.4356181736775202      38.366834038043869      13.686393227098598
  1065   4      14.264399046559886      25.983725251744549      17.134842691128259
  1066   4      43.265150352450434      32.947604637433699      31.575598798977033
  1067   4      16.323023291115671      21.330850883512255       27.98415271742509
  1068   4      13.101893700359158      21.739714871880981       46.63161693576658
  1069   4      15.299210110555482      1.4846616307479503      41.053611689304965
  1070   4      21.508232877388988      20.935627900231584      15.782164250583619
  1071   4      34.169967382056484      47.429541457619933      12.664485418860171
  1072   4       22.65787101044317      46.736471625762647      41.454895817730602
  1073   4      26.784563210290255      39.136344605140124      13.470136434448639
  1074   4      5.3201382489979219      4.3390351071543511      31.604702831844577
  1075   4      42.510111740260726      47.366504684092547      19.653523405916111
  1076   4      45.416773849230751      20.434117688663296      12.434794763021554
  1077   4      2.9562131931114757      37.181928398803784      36.136453387585263
  1078   4     0.64981232611494311      3.0291147553049536      19.921837134632678
  1079   4      46.501809307350641      17.487061791632996      25.506673391981867
  1080   4      10.022377041339881      27.897627781591844       19.51752862170877
  1081   4      18.837340478043121      18.530535364671746      7.9880859358767804
  1082   4       32.29694428737038      44.764163737039183      34.224146126682534
  1083   4      17.240434479388771      19.903025458993042      37.435146527443031
  1084   4      41.914319671564378      38.659529449660717      23.887767267043394
  1085   4      3.1537915538895582      29.330082319806799      5.0983365710991242
  1086   4      21.459660125939756      12.489204196429499      11.190977761382809
  1087   4      46.905356469227968       37.26359137776015      21.947015884677889
  1088   4      45.273657246017017      32.936274949503819       39.32555703655995
  1089   4      46.655428814546227      1.2166468284492584      10.535236092977021
  1090   4      20.489580678376193      11.791268140292729      34.317009687476677
  1091   4      1.3142897114157439      14.224363079551859      41.040822138789636
  1092   4      20.365189742405132      45.547751614343611      39.734119763380001
  1093   4       20.49569955741952      2.5805683569596747       10.58441068910456
  1094   4      14.704555779168487      8.2225642424794483      41.192124038504744
  1095   4      4.9258857345309135      14.913016320552039      13.442423484361575
  1096   4      37.901663649747249      35.544744393065123      37.413880687597938
  1097   4      13.355737971298634      38.034992936481565      38.783340796425392
  1098   4      40.902619899638545      3.6350902939299408      10.850334079872161
  1099   4      39.006094670547782     0.50443911408950515      15.602948018126147
  1100   4      44.661931557708655      3.5010306676936644       11.25865820010546
  1101   4      11.329917526391103      24.573992481333605       18.90148315081214
  1102   4      4.6888801380705045      3.8062363941638391       43.73446737174384
  1103   4       19.11927593475674      23.099631498676068      15.068553097508055
  1104   4      24.306077891431439      19.602555770513302      10.989062437890604
  1105   4      1.2086307652791837      46.279397421021898    -0.37771253507297126
  1106   4       48.52194540743929      42.965795172279883      5.0848082267923038
  1107   4       32.67301322704273      1.8459709099754977      6.4168669085209764
  1108   4      38.484260341707497      30.344279468551104      13.857374833057339
  1109   4      34.294122217187251      30.895035533817225      48.589465975377415
  1110   4      47.419005291609395      37.742453919617191      14.843742651264698
  1111   4      31.342472421286825      39.693767778929839      34.330794718438369
  1112   4      9.6650925932248821      1.1195645981932603      16.628471042698962
  1113   4      17.587787537069332      38.061565747971478      20.723851287370266
  1114   4      6.5554148792938891      5.3764959669469627      12.505821393677719
  1115   4      31.803322839166277      29.496567124817581       37.35043690976822
  1116   4      16.039229737489812      33.367830624364458      5.9383651425984993
  1117   4      14.390573662815285      31.529032114866393      34.765063789198628
  1118   4      16.300734132665848      43.985823066594939      36.199896882978749
  1119   4      16.819138077628775      10.974822628024707      34.093651248739896
  1120   4      2.4221300312460015      36.447213528440884       5.934807974303224
  1121   4      38.004826596085067      42.779547848284928      2.7103752417113181
  1122   4      29.856200151988403      26.345108863884068        43.8606924586256
  1123   4      17.925664492305692      29.171459741474866       24.96645123487431
  1124   4      48.861032511661072      41.710676262083233      28.081544779261176
  1125   4      23.953494605229221       34.51904738139708      21.353019340467238
  1126   4      8.6835268852028502      19.034336519649084      16.050375158984746
  1127   4      14.557183951453279      23.066573492195722       22.29927281155458
  1128   4      19.224720637616546      25.981151714078589      47.118136656140798
  1129   4      31.785606373425409      40.616890543804764      22.022047300465914
  1130   4      41.522669376719037      25.480409441716468      25.206813643736321
  1131   4      40.657546431269822      28.411818204890313    -0.26694756959587357
  1132   4      21.878311700411153      8.2721911539330151      29.397284652916291
  1133   4       43.33707156238944      32.145146830452454      44.349579545330378
  1134   4      43.370218282598593      16.029894385029941      27.054157242950026
  1135   4      31.887488983660912      2.4531607777974411      18.062446270305774
  1136   4      31.366508676344218      43.593197153552005      24.295881596067762
  1137   4      7.9763986690653059      36.629827761914029      1.4141442485574902
  1138   4      45.015276209595051      14.932270691425458      9.1135617186147719
  1139   4      26.725692627767813      3.3962387395311624      3.7722197612000041
  1140   4      31.415901861526716      5.8114809384465742      36.133164289587988
  1141   4      4.0741262337056154      26.766301325077116      20.629182607739718
  1142   4       25.93732440352926      7.5037888328007369      31.860748930967414
  1143   4       27.11414083688631      31.609679517572079         34.812672109984
  1144   4      21.989211641349254      45.545177340540562      27.738800966612253
  1145   3      27.662157892701558      22.898013526370605      20.619406245780414
  1146   3      10.929158727618322      20.126473973243254      25.646773325263645
  1147   3      28.910648828474759      28.833378105951201      5.9953329059636209
  1148   3      6.6291001251607957      45.410772096407747      28.710178078291918
  1149   3      38.380131746848967      38.601895712376297      47.463972759154608
  1150   3       5.886286678216587      17.381863760597721      36.796451429617036
  1151   3      28.714330254169177      43.247514764955916        14.0165810868822
  1152   3      19.594645736694357      24.486519519355369      48.171092447418339
  1153   3      28.316554477834561      47.561109081794221      30.827008195496447
  1154   3      30.634109033586263      39.520517094240411      39.036440043235331
  1155   3      45.982125622257108      10.416258568364482      38.298769515192539
  1156   3      25.148574340658374      31.445374161744585      10.487881190586046
  1157   3      1.7545920754186994      10.692325714472219      1.5784241310238103
  1158   3      46.677612823377828       45.22303389085603       28.49054818238783
  1159   3      22.350120210366995      40.504663444503983      14.436711902210607
  1160   3      30.372656123928767      12.363331065300747      40.853400011944551
  1161   3      39.619539678789394      43.735687654272873      3.4257542219795831
  1162   3      45.695239492486486      32.973017695866936      47.456349732779749
  1163   3       1.533926336420139      18.067664853076817      36.797133007277537
  1164   3      14.086179205681065      41.480242538114091      47.609574234172108
  1165   3      20.794390367297382      46.992742540102086      41.212612648817249
  1166   3      2.4328448041007498      44.812471306426538      8.8602053496831932
  1167   3      15.629866434506788      43.955649210397105      17.718692693158886
  1168   3      1.8777958363981715      35.474665684334006      46.102993566735222
  1169   3      19.606914086072326       4.575627000794487      22.223321103433626
  1170   3      35.928442387629055      39.079613787179341      10.156989882649579
  1171   3      2.1815998742612375      7.9111604844451655      1.0287083262932317
  1172   3      42.225119439750294      28.737556954820302      47.638820376035738
  1173   3      42.784155256648049      3.4897386971270352      10.889806392012485
  1174   3       20.17482612436639      45.505088197472993      23.561163410878788
  1175   3      30.674605616010222      38.980037842326702      32.649618334637545
  1176   3      21.758785255982588      3.2709176919144975      20.476602669541172
  1177   3      36.641319255446028      34.505469254310228       31.91575440510686
  1178   3      29.422089249372032      24.301653091019112      17.909778536023541
  1179   3      3.5096448301083485      22.719353455277027      20.281290568256527
  1180   3      10.918121559175725      1.8476793270644933      15.428554447320952
  1181   3      23.997743795515682      5.2197135746492807        20.3415698553192
  1182   3      5.6172659205395234      26.530932303946724      21.470958022286958
  1183   3     0.95441598945533934      29.807511131749095      46.410336120736815
  1184   3      40.582079916648127      13.874699434056032      33.214928039451181
  1185   3      19.594675155101068      20.110099711597115      8.2813113499781199
  1186   3      7.9145494292253407     0.96897725296960546      39.161396047075812
  1187   3      26.115975315851308      7.1151610615093395      29.934606686820832
  1188   3      17.099368561272048      27.794082290329762      24.004167178597491
  1189   3      39.907347223535574      41.740023729756302      24.111128173783719
  1190   3      1.0243910681501172      3.6784427617190891      21.571494047164794
  1191   3      28.605884999836753      48.390981929904392      18.079329356082244
  1192   3      46.159150077482884      7.9124077177244265       39.14347065594648
  1193   3      19.469290859809441      30.030311595132233      28.477852456096816
  1194   3      12.497119111097703       47.19106660896162      17.731001480585647
  1195   3      1.9461453172136678      32.031404268640237       48.01349835301167
  1196   3       31.08825297758127      44.849410064124136      22.972047726540882
  1197   3      20.516141249329706      25.217007907223991       42.96274327352193
  1198   3      44.176959789665645      23.939697157791922       21.83522486006072
  1199   3      32.521110070403346      19.861487584010476      22.754466855470397
  1200   3      33.085741005800408      39.479642922876643      33.927446903367965
  1201   3      27.510772922987158      15.815795834239969      35.464859139987013
  1202   3      44.542910123097229      34.157375586434412      40.557507372455092
  1203   3      42.478887397455907      44.205925035696175      35.464960788652242
  1204   3      31.840750174585203      28.764437388261559      35.570060676165916
  1205   3      11.996147507588919      46.127359780472467      21.873919454356887
  1206   3      28.775979765369389      32.863580191291383      35.269432167751084
  1207   3      23.362967510369259      16.740665373135844      24.658299969882357
  1208   3       32.03476096713284      38.656306485697883      30.362081212382492
  1209   3      8.9548622847870725      48.762352596987462    0.071587425845285005
  1210   3      15.521387804514678       24.55576927478096      22.699436388823187
  1211   3      40.375154030169767      38.391668939838041      28.301283977853739
  1212   3      38.211836963793552      39.678368494302937      28.034101752098966
  1213   3      44.650629255760236      47.850017338255469      14.297373857233492
  1214   3       9.646738625508716       22.32214154780911      10.563686513989817
  1215   3      3.8299106453634582      25.374837938971702       19.28864700065888
  1216   3     0.50678949412977359      33.690536395965459      13.225243241172633
  1217   3      28.035499014680731      11.516913811183214      40.327055133577204
  1218   3      3.2249881959418416      48.904638299738359      5.8507571700688121
  1219   3      34.967993633217638      44.098342796443013      39.863106053791967
  1220   3      27.996716355843247      40.397784411963762       14.15701626506717
  1221   3      19.159534515055419      29.264743901538647      10.037661452132816
  1222   3      38.683519838039985      45.631307311975924      29.252261042852407
  1223   3      24.648133794824364       19.90643380570268      12.779930130695718
  1224   3      4.2052076199991903      36.341184853852411      27.271922888030577
  1225   3       28.68111799187777      27.128174113212754      3.2367102781629407
  1226   3      34.685681126536331      25.472270807208091      15.590378613904218
  1227   3      20.207435166479161      34.106651890968969      48.127564580047768
  1228   3      31.175951331388649      42.153558717897852      37.975071740207397
  1229   3      13.943710310754048      49.258201797404261      30.611840045512984
  1230   3      16.751061413081974      30.424802864987115      23.965583181242749
  1231   3      18.603001032721149       44.93332987971111      29.406718451958579
  1232   3      3.9013070029923775       4.592809062939633      42.117846636866936
  1233   3      30.765834915861969      45.566464257356948      34.792661196926943
  1234   3       32.75746300397735      46.278868249335908      33.021656292905902
  1235   3      43.972882988570731       32.28127696606802      29.908075225371054
  1236   3      45.951305508839923      45.485517741968465      12.815883739057073
  1237   3      36.167512648655098      32.440196959603405      30.211273388834812
  1238   3       19.70089500709112      13.265837729360534      35.700819384337436
  1239   3      29.593440030966011      42.986959231175106      24.615592951441531
  1240   3      19.792803839251697      12.738373508770501      32.816232746181051
  1241   3       3.617929141149959      16.901505572731246      38.436137858846337
  1242   3      37.063685564589683      25.440398648058835      47.475586961281401
  1243   3      8.5556000865002559    -0.91728670477794139      37.130447093637535
  1244   3       10.90380722406284      45.251748441922565      16.483844818959753
  1245   3      44.889347205407915      16.781731903487991      26.144261846972608
  1246   3      38.318191434801932     0.80468538601974504       14.02832810448003
  1247   3      12.892699992706159      49.316295912524254      19.370536522390484
  1248   3      31.753545479220172       33.30006903636562      22.708512082247633
  1249   3      44.980628763615897       41.86782588695781      16.088365742136705
  1250   3      2.7846326934089025      32.904786230592833      34.853248326676962
  1251   3      9.1712656958305416      2.8966992103292828      37.552835756555034
  1252   3      12.603617951679285      46.610012621826229      5.7002704909300403
  1253   3      18.347188120691939      18.937489859811866      36.115595439773358
  1254   3      14.500690366359189      49.323920217156861      17.338382886426519
  1255   3      35.951172818797971      36.140363039724313      26.249019931751867
  1256   3      42.224709691650389      35.615445830669685      40.863490843221648
  1257   3      23.937373071651564       4.806057415677504         39.805458784547
  1258   3      3.8828984879970316       47.00413602175756      7.6534471041205085
  1259   3      31.209560209614274      41.274075141068259      31.372357112013564
  1260   3       43.02373345820336      9.1452553950460604      47.939943032967726
  1261   3      31.762971540203857      16.384704733789583      2.5728371007214985
  1262   3      24.483959549541577      34.020443872305528      19.558656901628545
  1263   3      45.005586984970719      22.622424210990644      16.208554616207305
  1264   3      31.494946836209134      42.269232310673175      22.914710214274187
  1265   3        20.9321646726215      2.7789896108064411      17.057367832077585
  1266   3      3.5056355014954872      27.891353623311076      25.231930037997842
  1267   3      16.913338752841899        27.6220018189142      43.118906792676142
  1268   3      38.498375708213658      37.153381588800464      26.690998329476926
  1269   3      27.012388531703611      44.516636412790341      35.260732962509891
  1270   3      5.5913046609899579      5.4437010537884731      40.243046228390476
  1271   3      5.8251684369642316      3.3652704562607316      45.398919258225135
  1272   3       46.82484490245276      42.427398892013166      40.620329710817629
  1273   3     0.68331016544025092      4.4440129715645513      42.582858422053967
  1274   3      8.7170848154672136      46.084439435575483      18.065691444682297
  1275   3      37.238120290261961   -0.034993273024809458      31.297504159997391
  1276   3      41.320341082477597      43.976044681357692      1.1522499653718479
  1277   3      13.674175473103983      2.2017269204329764      15.164827998937053
  1278   3      45.009288491415248      35.250132045310281     0.11058869206238126
  1279   3      47.851350104180177      35.724180656408549       14.89265304553777
  1280   3      19.823118278080837      17.694585004651142      33.936280164861067
  1281   3      38.669813353949579       29.97885904038684      12.152554913198227
  1282   3      35.450626557281367      36.265743447568255      43.262986741227593
  1283   3      18.612370826294921      46.574849291582296      27.150862826676637
  1284   3      39.051333773565709      8.8937627217723829      36.921351084716527
  1285   3      43.301202783555574      30.835972959806018      42.853224830253922
  1286   3      46.127471172180137      34.576933793665539      2.8109444113855044
  1287   3      34.584194379702872      25.935205294841456      18.404583216594688
  1288   3      44.810790517080768      41.193963219816283      24.021014410091919
  1289   3      38.580138953168699      8.0824125364668937      39.589780761614655
  1290   3      23.731817248329758      10.342848582278307      34.256132761662485
  1291   3      48.132196162229221      35.698338233851722      21.410964275406066
  1292   3      32.742854719403908      36.345943333360033      31.725904834935669
  1293   3      38.849854168744606      21.702470909064623      9.7918441462120178
  1294   3      20.742938131594219      28.681220980080862      35.467619812720194
  1295   3      25.240085400704007      48.083149825160895      16.202606580622767
  1296   3      5.8796698506613936      19.360705724987938      22.678037901712877
  1297   3      35.738765244887617      39.942771719756649      34.278813274797642
  1298   3      23.135849500252391      7.4005411050662744      40.506869827909753
  1299   3       36.10859897698942      14.904112797499844      26.494962344000143
  1300   3      35.779581064501443       30.57469903608375      7.7888242216706995
  1301   3      37.822055700222677      16.582145898852385      4.6987174198069708
  1302   3      28.247048717752548      14.479274617406185      5.9187272470247603
  1303   3      3.5181281881950648      11.358895176083111      48.221479749493113
  1304   3      1.7518602333213933      6.3525596704053182      40.842749727316161
  1305   3      21.587431725767967      21.869382033913499      24.797731457428107
  1306   3      41.397480200253412      45.129552176850865      4.9267203853865258
  1307   3       16.08256067456016      42.928540491834205      12.477246884204112
  1308   3      19.392562733469923      39.358935732694881      44.811596380366581
  1309   3      48.075590657742993      38.060893814630212       13.25839092935384
  1310   3      35.467055759673059       38.65658761550317      43.856798533137209
  1311   3      18.503995516754596      44.078158447696765      25.614290675410839
  1312   3      16.209683139685964      25.780352998817534      17.830646043241462
  1313   3      44.578868777630831      31.666158264499554      9.8160874626125239
  1314   3      38.741748175458511      2.0355905927880968      27.627198683666396
  1315   3      3.3867343254055724      28.146679148032931      6.4732049005389154
  1316   3      6.8297071178921476      28.236842622278481      36.359977354947553
  1317   3      7.7875311574269368      34.758615029340042      1.4373438396762499
  1318   3       4.401098384010564      16.917322302723811      22.208595121346722
  1319   3      23.172325626420367      48.068144524715727      40.020895899272453
  1320   3      22.518762850376767      7.8232515160524461      33.242597880866718
  1321   3      20.050903493889692      21.444113592309712    -0.60956212005482802
  1322   3      33.622791888942317      21.667843222168234      32.857925624821753
  1323   3      29.581214927309222      43.609905572031245      30.667631897939128
  1324   3      18.837149347912053      16.096967955702009      36.471378790294466
  1325   3      1.6047245209448844        33.6785390818848      25.684659791209711
  1326   3        13.7353509403387      46.301675561353306      19.840486578361791
  1327   3      10.552919815865673      24.991614439601484      17.244495637772644
  1328   3      48.923063003684099      45.197636240434946      26.497654575761249
  1329   3     0.87171786182799216      24.395446240239462      48.919354285215746
  1330   3      34.523414212065141      8.0274306135986091      1.2676577827036177
  1331   3      18.622358962220098      20.825196161869226       38.29833603185677
  1332   3      32.558932973338365      32.614095352324114      9.1236876916769241
  1333   3      32.675789902088269     0.67015489491349267      4.8659875648602506
  1334   3      19.757625272421556      25.811090196379013      40.357675658988143
  1335   3      45.743542189307888      31.786046255327246      1.7556579830850234
  1336   3      27.442824489366011      25.632639883262271       19.37834970468127
  1337   3      1.3347269993773212      48.650455088586106      11.617183515806323
  1338   3      43.820929872974546      26.826797322939569      2.1186426565053438
  1339   3       17.50417580021935      5.1743767042072326      23.899246155428973
  1340   3      47.690067205032193      3.3820468635353156      30.915087923918609
  1341   3      12.634814823149886      26.581879390759607      16.391162578437967
  1342   3      37.065804677293066      7.5425050817435988      41.842075088938131
  1343   3    0.020734141211657439      44.631893782410536      14.811277163280192
  1344   3      3.5037920840941013      38.654407156292514      34.803741012597804
  1345   3      9.2362518843583441   -0.059602978274984543      45.950829059597709
  1346   3      18.380023511172173      27.990111557062132      12.101872953567636
  1347   3      24.458550595042546      6.2575728445559236      31.874071921275991
  1348   3      31.564255646378069      40.393979545107754      36.219622978188191
  1349   3      15.449744066405978      5.3492509491172004      25.719224557084075
  1350   3      48.458619564048483      1.0340921688867821      9.7045568379221052
  1351   3      11.262235221879585     0.77367496239822953      47.633468174829204
  1352   3      7.5611677679358316     0.96869047586245982      44.005003073400722
  1353   3       43.96687026332188      44.730498355821254      15.926659797430698
  1354   3      4.8289256094873236      1.8903063606648896      20.371182877888895
  1355   3       13.29658592350793      43.512381678296869      19.120404679709065
  1356   3      37.494960685408522    0.086132201163500496      23.692127514723047
  1357   3      22.164516308077747      45.133825926278917      40.118001853261568
  1358   3      20.461693746971058      17.274578716718455      31.108957308026522
  1359   3      10.097098777575066      48.104643708136742      16.785668560342785
  1360   3      26.723249665997884      48.499220382203063      32.924601209793394
  1361   3      43.618691502425868      29.482352381359835      2.5345990476080589
  1362   3      47.771941323348962      7.7419279817900444      41.465445798837905
  1363   3      46.746417559657353      39.552950312643212      15.266539424827833
  1364   3      4.5483776656613681      14.297380766072008      11.637208555019521
  1365   3      6.4831131351697273      13.725385609560792      13.714209557721837
  1366   3      6.4121729402466672      2.8982247389895091      40.431523911403666
  1367   3      3.9505158136608611      19.267369554181688      36.886401822535014
  1368   3       27.28518900912956      44.845938038857646      43.481351558830454
  1369   3      23.664172931666712       1.295461662026052      20.218791015021054
  1370   3        2.89534181488981      4.1258876275988419      39.619962868428722
  1371   3      15.467474475846233      43.918728954364006      37.742444420006855
  1372   3      18.970036501835462      3.2547718633448719      19.048327913719053
  1373   3      44.798466859549706      28.980332194790133      10.039993799846703
  1374   3        19.2352554979059      1.6718874349058559      2.9644999607311586
  1375   3      1.6090104623239685      27.263590091552452      43.417358999296539
  1376   3      7.5998789307479839      1.9412993181577756      47.161514114821557
  1377   3      23.812521319135406      2.1569987470114076      40.070552367006002
  1378   3      40.076518052914153      42.962753254525353      42.151243384687142
  1379   3      17.179077678580747      29.488386404999247      26.737652911708555
  1380   3      44.481012068938909       29.92127706733115    -0.20240177575918275
  1381   3      8.2246105899128139      27.932058677455277      43.492996168381829
  1382   3      16.928196819728488      12.421659710564301      32.931512326137153
  1383   3      25.711644907549108      47.809447925639901      27.942451912434397
  1384   3      10.954640902882582      9.8999099401588939      33.296170711347173
  1385   3      33.045303165363187      27.670813602399527      20.068335674676522
  1386   3       11.94718498435237      37.143984832113524      37.597586783953695
  1387   3      35.847995126316945      31.175059796036717      32.259938880819163
  1388   3      16.745913748453756       14.05605700985673      30.626532648042406
  1389   3      22.989572194990725      2.3745267621998547      42.724828272032831
  1390   3      21.024056362492871      43.819820774371088      28.579160590602637
  1391   3      23.119778559463214       47.00509932612735      27.317552210952083
  1392   3      30.455026472432618      30.784164185423361      37.170958474208582
  1393   3      36.421048293662352      2.8438093760737888      23.593407781431573
  1394   3      19.791463489760343      33.964726225361801      28.153173254788186
  1395   3      27.581970982345219      26.702240690589122     0.82930500395407558
  1396   3       3.965944108924274      10.278093337358859        32.4898805332801
  1397   3      13.235666855756948      2.1100492160371798       12.25864660140663
  1398   3      43.497297795210187      17.555075730395789      1.1129838797519713
  1399   3      9.9977045785242034      45.273097060102884      36.818858798987506
  1400   3      19.316174050205014      28.316467492088481      26.125161185008626
  1401   3      6.3159451119119465     0.34175647203460213      41.459090131785814
  1402   3      4.0629385971028817      19.376411392241593      39.719244860827772
  1403   3      14.571528790383907      34.493996786196412      5.5746922803276684
  1404   3      46.778622948015233      3.0157177398737511      11.176661857343461
  1405   3      17.780836445332227      22.446466142699943      13.932422178556291
  1406   3      43.585075633292739      38.683204449991273      25.133864814914649
  1407   3      35.489508830912222      23.204415850150017      18.783812946483714
  1408   3      38.136373067983783      37.682594964486775      30.363361945097378
  1409   3      2.9982797026645089      32.536501822763206      13.025321274534328
  1410   3      30.650433994970786      48.076802136484758      32.394343702219395
  1411   3        45.9564179191389      28.221218625887531      1.4656372600718088
  1412   3      1.4127827617195308      1.4510110560133229      26.255989914307857
  1413   3      43.586437083507946       39.77063855265618       1.613071940706849
  1414   3      20.752522848538423      45.625566508738622      26.297971839710534
  1415   3      17.212412073615184      6.7311724695850712      27.739164731664268
  1416   3      39.040825490991232       17.98444341161483      20.226021742528683
  1417   3      12.383183815345465      38.226098584527946      40.206150220812013
  1418   3      10.717362405536397      29.874080733638522      28.214992029709201
  1419   3      11.468236974464947      48.814777200442244      21.904734791633647
  1420   3      9.9330001270882455      31.911639416540559      29.991030613409908
  1421   3      20.514302044799091      21.826964037453244      14.519369233602351
  1422   3      11.257611137551493      45.272616367644012      19.300422648412972
  1423   3      1.8740253479526132       2.136442580785352      41.472819010881082
  1424   3      31.670339680250709      13.735073243821367       46.10093627582178
  1425   3      41.411247570444139      41.301923956893702     0.89647039151005536
  1426   3      13.218811739557465      25.194360740265573      18.589807732868461
  1427   3      1.2711631705776423      26.810546020751541     0.74350875236721958
  1428   3      47.029764529661634      39.608838319063011    -0.26957796090314523
  1429   3      22.896342316117906     -0.5061061493102802      42.614515208826731
  1430   3      29.423798748899802      12.264697827548112      45.989026167127058
  1431   3      34.787754764553938       20.80426817948209      24.193230487475191
  1432   3      24.995658118380007      36.047154721265244      21.135598172496266
  1433   3      16.930407354006434      2.1830213373716254      17.326013979029877
  1434   3      15.558028811306162      19.066388362283092      36.754845046659788
  1435   3      35.196593066073447      16.278322723739493      37.278154461712788
  1436   3      2.4835731183448448      3.0551919902860085      19.544482347144637
  1437   3      23.295112616557585      47.972649757058342       18.47619211056557
  1438   3      22.211797330339877      33.111036726062792      1.3978481608085078
  1439   3      23.240912349632829      20.993345998748897      15.222261359648765
  1440   3      41.096877056908951      44.110731409666336      29.452641115120109
  1441   3     0.21093207775705253       37.75566841950495      46.990705881957176
  1442   3      20.619421904018051      5.8378154313472121      32.975543250881479
  1443   3      21.035260914035835      7.3821258879168381      27.773199664648143
  1444   3      25.578941048280949      37.423007260245022      9.1872784641111345
  1445   3     0.49468331950130523      48.358942952865156      15.933127180478678
  1446   3     0.86460238116041987      33.566575885192819      22.837713532938452
  1447   3      38.701846966557262      43.531141295692024      8.5159261281119374
  1448   3      30.420926345528954      35.702279600358452      30.141778608641633
  1449   3      26.206884721287533       9.315663382846946      47.148404353486193
  1450   3      40.218082063227797      40.642243968518351      26.694746293989716
  1451   3      31.925119625128247      21.891441300954991      3.0610011137771158
  1452   3      17.641301817406355      20.278501182127055      27.637899709283953
  1453   3      21.504545003105417      30.265019178951814      11.181077503932295
  1454   3      30.547155749951365      1.4577920640106585       19.09263596593696
  1455   3      25.107195205920405      46.941563863417862      25.219316645639736
  1456   3      45.449787222141829       37.81949967336373     0.88775963530458279
  1457   3     0.10393000120501487      4.0802390291745496      25.816188980066588
  1458   3      39.989127945541156      25.010068857827328      24.430519545691862
  1459   3      38.763506917683699      48.383364556309921      29.209290182783796
  1460   3      17.580584909016764      25.110371452608685      41.807160887612788
  1461   3      11.906350703017219      21.008911444472282      9.7622392200548802
  1462   3      45.864262974053148      39.697070427676834      17.895906116185419
  1463   3      18.053140063660408      43.196272151014227      36.719915587041413
  1464   3      39.586375316442762      6.9861997672171148      30.950798952801005
  1465   3      6.2645891279800985      40.916391657104683      42.552191171247252
  1466   3      1.5311751147688242      18.181632781073045      39.698523282804203
  1467   3      12.739682284804086      43.201335555963965      16.554682153057968
  1468   3      20.909172730580838      23.303426449264226      40.822156710000073
  1469   3      38.892372762712398      42.878828882378045     0.93672322050911705
  1470   3      32.027918464638653      22.736136909841186      8.9230555105217739
  1471   3       45.91266140706194      19.906134515654582       16.66939981363597
  1472   3      42.010107349912325        40.4993501668257      24.495329137413172
  1473   3       3.049347338357872      18.370232227181198      5.4753873545444591
  1474   3      45.070260130141946      24.449643943127199      1.3507921417767299
  1475   3      8.1970521428606435      37.664066578297891      13.234636984343258
  1476   3      40.821768023063349      42.353782923173391      10.051832188034263
  1477   3      19.641229112274839      3.4387402834845182      25.016638509797506
  1478   3      34.345224956914301      38.662593579839793      31.836214505486339
  1479   3      2.4547251017309999      35.859296758959921      37.557569868551468
  1480   3      35.485172295877042      17.135641124999925      39.868240387566324
  1481   3      36.322025287259493      21.518161804280211      32.885461966882588
  1482   3      45.674743541539321       22.17239581354923       12.59901792185196
  1483   3      30.170579365276545      47.610993603307364      20.337634800553097
  1484   3      22.452495816678145      32.712584151746519      10.363830336496864
  1485   3      13.519353061873767      42.594747295715514      43.989824363188788
  1486   3      42.329803418057566      6.2383191598325718      29.849129513479593
  1487   3      45.692497028229916      29.858137764507855      7.4535248623400348
  1488   3      11.206152471446718      39.169571552910639      27.101761633083072
  1489   3        47.5915749970397      42.821963659095658      27.238768051516857
  1490   3       36.40088456188581      23.195891452738898      16.199453230309828
  1491   3      23.239934957764866      23.403896314061846      4.4753577378192233
  1492   3      27.912229391661555      10.012094428041244      44.996874155387644
  1493   3      41.359693023029493      31.638005380844906      20.199095350970069
  1494   3      28.035082648840334      30.006606335224021      34.057265782363672
  1495   3      28.411642312851054      33.367875338055221      38.349742650970548
  1496   3       2.762529920344178      3.1392340292306611      44.015632951855466
  1497   3      38.354434751921744      39.544183613318204      25.028674802150679
  1498   3      18.236959421239511      46.725956058601213      16.447887992692404
  1499   3       20.04383693455928      3.6847201729323675      34.514012578198951
  1500   3      39.164691665077164      20.564092782276845      32.388086297545598
  1501   3      20.362819464227453       25.46597440193635      45.680519026708311
  1502   3      2.2685412640955538      32.665221312745025      45.573524301383507
  1503   3      17.793926360751669      38.683351377642047      3.6595430308958501
  1504   3      8.4030983426667465      4.8444869517702411      39.461970242699486
  1505   3       0.150795628164999      5.4098111481994478      23.455535065915576
  1506   3      7.1464195528068668      47.301166891343989      43.861275670273045
  1507   3      47.424679358730884      43.068069724820788      12.973938140515234
  1508   3      25.631910780362102       47.61384109049979      30.698476529096862
  1509   3      43.095080717041753      39.140784451512495      22.462161886727461
  1510   3      27.161368021133026       14.15240283365482      20.244074972349715
  1511   3      10.711732106151388      26.128923406939762      19.804618421516032
  1512   3      43.515979179429593      30.662619418268971      45.809138523237614
  1513   3      44.422668403497639      22.779197866084655      19.014867421565974
  1514   3      22.949217851165702      19.609113179690915      23.590731481905724
  1515   3      24.619896992717894      8.8731440233220784      31.638093259988828
  1516   3      10.182347506315567      18.717028878562854      9.0357199524273621
  1517   3       42.94978792256817      24.430526132436377      24.505106283657938
  1518   3      23.700784086115501      3.2458912943960305       18.23531715576927
  1519   3       30.74303883326067      26.494997042602325       18.84756801811627
  1520   3      25.280947999774931      13.285624481141754       18.75514750060923
  1521   3      21.397312306068788       34.46764897236234      25.542751662483244
  1522   3      45.863629390194568      28.994101256894293      46.165169426901521
  1523   3      40.707449096213139      43.401081189905874      26.794245884381095
  1524   3      36.543682727090399      37.370066855675866      32.944639136772572
  1525   3      2.7661024341358962      46.329284909544995      11.331304384391967
  1526   3      44.583217912403782      31.490982066551204      40.261260303355058
  1527   3      38.563259435786854      42.982944173839904      28.536563055436854
  1528   3       21.37317433434945      10.414985173626548      33.280859085025384
  1529   3      17.542896887739406      3.7293642481875198      34.344948741375831
  1530   3      39.879046356458161      45.785753610028308      7.2876894235630401
  1531   3      6.2728233966124485      4.1416634437226909      42.700940024724758
  1532   3      11.632781642544691      46.327239642454018      3.0972346716107073
  1533   3      1.3374984614496512      46.731403031604891      13.880013706733598
  1534   3       39.55400072118762      46.889945089397848      24.304971874426684
  1535   3       14.95162465458696      43.549085015501994      9.8158300143949813
  1536   3       16.81313646986295      38.279384146753976      10.021947187508783
  1537   3      41.016813385582068      43.329570682331735      7.3006944042035355
  1538   3       3.958887884598203      44.828306183709216       27.17477268164501
  1539   3      30.676866378909398      41.462376127354219      34.206865798716265
  1540   3      47.387195480790531       47.29239042234363       14.22463893446459
  1541   3      26.368320508378037       35.77282217893066      18.844458007699281
  1542   3      38.976246624951266      40.663035457954997      30.154549601067096
  1543   3      24.903301672973022      25.815140570808246      20.281040559303982
  1544   3       45.26633851096075      39.996329239226732       26.88037894321797
  1545   3      43.213069362421102      33.306359715903632       46.01708643652622
  1546   3      10.560948200755819      27.732068645633046      17.627361354920989
  1547   3      38.452483480022799      48.193253567769567      26.452812142687886
  1548   3      18.522069002905205      23.122394340701259      40.179901750832521
  1549   3      46.694371025244685      48.908753413384133      12.006597208911032
  1550   3      46.325837420946009      19.555272326506429      13.870000859951904
  1551   3      42.261745806881237      10.880409830048244      14.732690502336119
  1552   3       15.48729889817904      46.734035474524831      17.804844083638454
  1553   3      34.651291985881613        21.8937143504088      21.532774300763904
  1554   3      29.455965700219465      43.710783191226163      36.215741059018299
  1555   3      4.7928729719830327      35.089717496984321      20.905416109943427
  1556   3       12.76939893259353      7.3174977942112411      4.0215871417540683
  1557   3      5.7891304443740177      18.498383771043599      46.293950456031261
  1558   3      30.254258499777535      3.3658027192586459      44.182992103328495
  1559   3      35.470967895060774      36.655046802376042      30.353558858015916
  1560   3      39.579933996330531      41.380380647859781      47.445142927430837
  1561   3       26.05314323790277      28.286052822125477      33.221091736657506
  1562   3      47.374849984119827      31.218294761019315      45.784158235828357
  1563   3      19.242535021326724      1.1708246391084693      15.804879097867444
  1564   3      23.645821497239709      7.8565388074082261      28.856744992457976
  1565   3      48.254946746215666      27.546505434075797      47.051033976381333
  1566   3        45.3832053145073      36.873026009336016      20.765229628598682
  1567   3       29.06200608743033      11.909305777092968      43.445941920522728
  1568   3      28.973683164989172      11.212412071998044      23.511014179411919
  1569   3      14.836386330996056       27.81747742639828      40.992306799149411
  1570   3      30.630646738473757      40.187947450928803      20.740571795173476
  1571   3      44.782928215025592      1.7824062905490421      10.301448037996774
  1572   3      30.995930153561041      3.9851780486962531      17.414119388842813
  1573   3      30.938604218447491      29.924509512530651      20.659790342263012
  1574   3      47.825138576951701      41.973209180587823      15.454802542644078
  1575   3        36.8220947757613      22.610542466854252      47.123246451413678
  1576   3      31.531550660281354      11.543132659135825      44.575839671655622
  1577   3      19.873522306822515      43.940642859064781      38.651749380671212
  1578   3      46.554921271065666      46.409771735580946      25.839395073050103
  1579   3      42.472455995250897      30.161172528023176      10.716622123304056
  1580   3      38.272356317776335      38.856369300845373      44.612816773606369
  1581   3      10.499597616494816      47.791423789224986      19.488719495612219
  1582   3      21.220627068715491       47.59275319480777      16.198520642051975
  1583   3      19.634963200329608      14.631309157304388      30.962823643527255
  1584   3       16.40379323769525      27.009280139177058      21.321263349074261
  1585   3      36.753486397091663      37.081022953495541      45.812732147154627
  1586   3      13.821280892208955      44.822826422776252      7.5106606214596159
  1587   3      23.062382360361514     0.98103023638880527      16.533962452944291
  1588   3      35.209011583479153      9.1814592324010658      10.155345910108915
  1589   3      9.5493313160789679      19.084129842454995      27.985862247229214
  1590   3      1.9164693230536261      35.372202708734044      20.347867922066843
  1591   3      12.584828757092257      9.1236062792257631       7.506157408701883
  1592   3      41.402579550876894      28.098274986369809      1.5095723419556311
  1593   3      18.235338667903672      24.327352942008218      16.215088237005148
  1594   3      2.0060197563232092      1.2091005127601668      8.0104961215281261
  1595   3      25.299914091679256      40.321778297675706      13.676090413014904
  1596   3      37.714989355130477      24.103721952167344      20.015536825378287
  1597   3      29.952174141198949      28.164972144119464      33.503338883850162
  1598   3      37.214680347887203      45.045055289055185      10.162253255279424
  1599   3      26.979929442124845      45.396611708951987      29.333734752832203
  1600   3      24.103881460222553      44.167662329906079      36.183763727534476
  1601   3      10.141759991840528      29.731432535521822      8.9807006585916085
  1602   3      40.992961064732953      38.154027395083673      25.648218132711513
  1603   3      47.409952265076029      40.433521480074269        28.5642582746909
  1604   3      22.326047568879147      10.873753656219563      10.626943174656461
  1605   3      30.506450295893032      9.3527727567654466      28.971139659081008
  1606   3      38.312324436094279      4.8444317847751153      24.582862685677977
  1607   3        14.9825919823232      29.550275149149869      42.945370430244445
  1608   3      4.0770521324323665      20.824661282232892      45.987534185262348
  1609   3      4.6655912553292689       23.66348128077221      46.383092929954778
  1610   3      13.495887596901909      15.684526644788484       21.62877046301131
  1611   3      1.4992187839540878      43.168557458232193      27.577360509088038
  1612   3      33.846734732331868      42.576688661454071       42.45355239826597
  1613   3       47.91799548510906      28.769250266963411      44.340021830225879
  1614   3      10.694584948312075      38.716911436952486      20.542202837494013
  1615   3      11.077863268911733      40.687507487788643      29.782299099965456
  1616   3      28.524937935794672      46.597336961155222      33.709525671503485
  1617   3      33.748970475859039      33.724613905581634      31.158887587926213
  1618   3      35.379327326488983      46.139226581351117      12.232287666695974
  1619   3      6.4316478826281855       28.83103092241463      39.013206420421106
  1620   3      26.682732638500369       18.90493292940975      48.092429457539623
  1621   3      22.142837477459977      9.6610579280258886      30.716174489159879
  1622   3      36.581817160932218      34.497400073047679      36.848391628152051
  1623   3      29.853382670990896       16.12454431553483      4.6329368634595971
  1624   3      22.975779908155261      26.723081302283518      9.1336205426451009
  1625   3      38.787175597218088      12.015303543252223      34.379638413343919
  1626   3        42.8334027112111      41.541693824090359      26.638788648806052
  1627   3      31.672517878586582      43.936002103245748       32.61451717756043
  1628   3       45.63813087604084      24.821586010179505       24.07816977979909
  1629   3      17.675869325151066      27.609950793831928      40.443066393579812
  1630   3       22.14178853237393      15.317188988153012      1.3433032937558167
  1631   3      35.434517601549885        1.24795262185825      29.505069018222699
  1632   3      47.057108206695737      42.127893619569086      5.2795279655445873
  1633   3      18.599658245974183      10.715806668459669      34.243255687723831
  1634   3      47.815973076065326       5.400888994262302      40.561013018081916
  1635   3      42.756445131995413      9.0803287203240917      3.1995044476960044
  1636   3      2.6407859532326237      15.007861048428738      41.912822854926873
  1637   3      45.256701949466461      32.398366728873796      44.602742142746251
  1638   3       33.24501950197083      35.851514474473205      29.379243578524935
  1639   3      30.149370634733721      35.011433584959676      1.8292575501754229
  1640   3      37.062335151949874      21.273038702276029      20.217232802105592
  1641   3      23.380340223299619      34.820022153280725      23.241196465885846
  1642   3      47.196275455727161      38.386677352705519      20.264564419321875
  1643   3      36.913002725644183      27.033987190897101      19.718810230957239
  1644   3      29.031018178189054      43.897008297950592      33.291585690941154
  1645   3      44.878357215743875      39.722677634270106      20.279966001874847
  1646   3      25.757666214961652       27.93657328645315      42.446875053694349
  1647   3      40.991223186779422      17.903573097461962      9.6866960692142889
  1648   3      35.630289063349991       41.73495500660507      40.258546870151314
  1649   3      27.583357042782193      30.678677689305818      9.3621709642552222
  1650   3      10.515320834710792     0.48516679226173687      37.746725770118971
  1651   3      27.546913102834566      31.136450522771053      36.638589890722749
  1652   3    -0.47831634620972313      42.385726962220261      29.883381653835034
  1653   3      32.349055919717159      14.379940063338259       5.316015266253828
  1654   3       47.18257329673007      43.830875661034831      24.572097065425847
  1655   3      10.285693243965971      1.5874676378534065      18.343250448552041
  1656   3      30.394106469124033      25.266906510660849      45.111488010991664
  1657   3      47.654494444700788      9.0113617212048513       13.34702899251101
  1658   3      2.4085190017844451     0.49315071848112396      13.997520088635113
  1659   3      29.173734804914609      7.2401706853038688      16.086442474974564
  1660   3      40.232135820485411      39.060564096625363      23.019197853395884
  1661   3      26.067108600718981      14.687601993456536      7.9734353777486291
  1662   3      16.174302731285771       9.294484304825577      14.350433474209622
  1663   3      40.607682528174948      10.341852234917772       4.907847834887348
  1664   3      32.090011806202419      43.205304320001382      35.372966911181194
  1665   3      26.616383782626905      43.781777874377859      24.964764383063006
  1666   3      34.768747858739111      40.862700043174442      7.1862164182723953
  1667   3      39.827712456616929      41.112371464370987       44.56931314016969
  1668   3      29.160458318456456      38.254780554023768      30.151265149142098
  1669   3      19.170268963375118      6.2181665037684093       25.72192022477698
  1670   3      23.579835909895852      28.204245282206951      34.889475968891837
  1671   3      43.135174327952711      33.534928540733688      42.947101970584356
  1672   3      45.889890783275561      38.798859381644021      22.640680371660089
  1673   3      25.975826959252771      48.505054086448006       18.98149559134713
  1674   3      4.9972816254579042      1.9330074824473649      43.363850531989186
  1675   3      2.4841813165252344      35.889188358045381      34.834036521168279
  1676   3      2.3475924717562338       3.655188737166708       24.37706369314073
  1677   3      47.609428020897077      17.822993904006662      17.285748919853898
  1678   3       47.28802914290506      25.944795584592093      49.199258523146611
  1679   3      17.085216093278426      47.183166072954791      29.493056559405435
  1680   3      4.0654822809608273      1.6943815544759671       39.87590878021679
  1681   3      22.659470403035879      9.6459016254379435      8.1599422943157638
  1682   3      7.6333786427409285      47.012407601350041      31.019151636411639
  1683   3      32.928073523653239      41.076699393863201      39.896271939097076
  1684   3      1.5742778850843901      47.565586285393664      9.2065898110979685
  1685   3      44.556239748744652      42.977722532612127      13.695520844889218
  1686   3      5.4423151844104627      19.652959627147187      48.435491314880707
  1687   3      22.212021016281344      12.747008100940068      34.545037829046137
  1688   3      1.3515209102231482      15.293791632793514      39.438731616141901
  1689   3      37.003292013227487      25.290241022553278      17.479973669621938
  1690   3      40.211676333950528      14.601155508543934      45.162112943214971
  1691   3      28.750109936188672      26.551684661493102      16.440845235881568
  1692   3      38.441431680785392       34.05573087580099      19.259678616099972
  1693   3      20.840240260028921      46.518171809297669      28.939695978840984
  1694   3      27.204022813831187      36.423125634347024      40.584549170972814
  1695   3      3.5450687710851034      20.821891936691973      22.430511062416514
  1696   3      38.013697482920037      43.544674811448957      40.070257311456594
  1697   3      18.456320750448089      42.667239882540962      27.948670351322303
  1698   3      43.511713338803006      11.519689945392276      39.150918036763613
  1699   3      41.075504134242344      22.725305713858408      31.908539829582725
  1700   3      26.760734074156517      12.521114149115562      22.474501087814126
  1701   3      2.0537416576233376      20.401729846922983      38.261670788055689
  1702   3      44.330788678652098       14.98725817865985      33.384044973312754
  1703   3      21.978154409337911      6.7597449298443912      30.587775958943315
  1704   3       47.35422363481738      44.616815003296551       31.29767208039727
  1705   3      29.954907361595552       19.58707591857544      21.193638927173957
  1706   3      4.7925289572270717      27.278816257320461      37.688574052152404
  1707   3      36.448771254198924      42.763192867186405       20.00243054292908
  1708   3      22.660345756476584      33.006950439381171      47.514429349586543
  1709   3      35.944907631341962      36.702980971988822      17.844423288116758
  1710   3      34.511607478716556        48.2229130447801       32.02747160824692
  1711   3      9.5869685484909262      29.810569524802705      19.049390905837946
  1712   3      14.977148563659201       13.07412773079146      14.094216450970272
  1713   3      3.4569551054567484      4.6051764857543738      21.591511152883879
  1714   3      48.512937318152524      33.746190887816745      46.743454450192687
  1715   3      21.210444633796737      27.425160295186998       11.60113094659137
  1716   3      25.347364448611806      30.646368608990464      34.533253739569339
  1717   1      25.495083319717363      46.216806935555077      1.4631400343450087
  1718   1      40.948944992945684      5.5796383717765874      9.5804448532005591
  1719   1      9.6385635671994585      33.882526498772783      32.464587982158427
  1720   1      23.221941288291685      36.106451410984079      32.632137570119056
  1721   1      47.092556662780993      25.726804219256366      9.9622258869902716
  1722   1      18.152761496087834      5.6755921667671192      43.750366732649582
  1723   1      44.176907828729284      2.2974521274982327       42.21526942641092
  1724   1      32.617874975961698      18.805222536806479      11.623711262766832
  1725   1       15.78200619496813      3.9888487591874062      28.433723912171612
  1726   1      44.597645020148086      45.842877291989687      46.934776562598216
  1727   1       36.88764175660733      19.442519603319628      5.9730722975716279
  1728   1      27.693351659223179      27.090840977969115      35.494736648949292
  1729   1      15.228575160504665      6.1753192765643181      2.2870756180535965
  1730   1      21.687136256374654      27.462784423135034      38.620101093030193
  1731   1      48.454150552811541      32.958023446497073      2.3873076678765699
  1732   1      33.910233323389924      37.033047926279743      15.436790152847131
  1733   1      24.139863886502482      41.709637387239852      3.9136710885552608
  1734   1      37.738113602605132      1.8548497973435454      5.6075713653960939
  1735   1      41.950770343422555       36.42021123157064      13.007918826316523
  1736   1      16.495276287520571      11.887447036301531      4.5444908370053572
  1737   1      21.576275993474415      40.857663015067082      42.762727938497086
  1738   1      45.648672737490166      33.174139529641131      14.777040516148174
  1739   1      7.3766858428349824      23.697280442354835     0.83096158525684893
  1740   1      20.940890108098138      18.815053402992135       15.33869752610399
  1741   1      34.396901097307911      6.8686755787539813      40.674047251726535
  1742   1      17.715515657823868      32.914459203055344      22.088975419050392
  1743   1      47.728684263880957      29.069657906175902      14.114440739333045
  1744   1    -0.35234988195062694      32.946090508688698      16.086171107935911
  1745   1       3.037299977368177      19.479894229742591      42.382448714702804
  1746   1      27.170470426556488      30.655527704888044      24.881173128967699
  1747   1      2.6836687852995906       19.15237643978562      34.068361423911213
  1748   1       9.348526224739965      4.7412968674257518      22.693000644478882
  1749   1      13.313974871841326      11.612294385771392      33.457531583265173
  1750   1      21.672254563266705    -0.51619703102631043      45.578898440691354
  1751   1      34.472356056135801     0.70027046882216815      7.2585263339347392
  1752   1      41.322419825153347      5.3058758863648494      32.603358166647098
  1753   1      14.943673616276536      26.522971137778981      31.954799131606524
  1754   1      23.710100310427226      41.272279056607076      11.487607031986027
  1755   1      34.634883707212737      25.300175873579875     0.76869662991523369
  1756   1      42.110861363051363      4.4303759876177295      26.379630508175463
  1757   1     0.73778359570604113      40.540448493245023      12.845413119990104
  1758   1      12.094436028236625      43.069454505805332       28.69182488865583
  1759   1      8.7510260539060916      16.714934550746353      15.700422388564627
  1760   1      18.214660910702523        28.2346221554326      4.5751450589864699
  1761   1      47.128082407654269      48.492070800582006      23.590438876295003
  1762   1      39.283967524586664      24.974630571484077      9.3839332713961419
  1763   1      47.803636678897256      17.263955130471388      27.501860913721448
  1764   1      41.831593013831807      18.481447496990288      40.614479690522387
  1765   1      28.352618405287437       17.85945220257711      31.754969640159835
  1766   1        21.0182201812408      27.315448914695622      47.738605078025643
  1767   1      16.270275936075645      50.080880552746869      14.578081162370323
  1768   1      28.359032754536365      27.734876417150009       45.18175451087567
  1769   1      25.479681922861197      3.8569655611872782      42.019913867258282
  1770   1      10.075945338753026        8.61260483680325      44.049582226067599
  1771   1      6.5245944357094201       18.55971758790205      33.894703240624644
  1772   1       48.27752725701523      12.811051035468918      39.593861138793301
  1773   1      1.6596958332660818      17.033886889578408      17.830940512735236
  1774   1      43.241246207281677      33.047528609952849      37.786850932701249
  1775   1      24.473033091430128      12.100601350985531      36.702911528404428
  1776   1      13.576985974256315      45.567810065947761      43.159099949297627
  1777   1      27.787609326350424      3.3478700578679841      46.034972322494383
  1778   1      21.940900024066384      43.174056996612045      19.540783111957762
  1779   1      14.702652913721282      27.854611232721901      45.418707999242258
  1780   1      14.714046133552948      44.546507866636588      22.012216897409512
  1781   1      29.112094657660759      19.045807734568861        42.8177390889769
  1782   1      41.966153319002544      10.790744957332871      26.525398328543094
  1783   1      46.856905890455174       1.627390204164002      2.9777552495271125
  1784   1      20.467863507732659      40.968168707946319      16.620575644575503
  1785   1      14.880149370088608      23.225580052626658      8.2307945885574298
  1786   1      47.879799483482195      44.549377763081679      3.4300085455291032
  1787   1      19.817925272064283      32.246008073054817      30.790187635783212
  1788   1      27.724921241760192      7.6574349143778528      5.9317494074243209
  1789   1      46.136466641712879      43.034092756725869      43.754323532397983
  1790   1      29.223511900106008     0.17604265076279671      10.859527817292125
  1791   1     -3.2890097403725611      9.8350412037679842      22.085774962944303
  1792   1      22.145616530443391       21.46621815372421      38.484881897820252
  1793   1      34.486866770668989      42.322187388980105      37.478550328428845
  1794   1      27.462363968476502      10.573233365745176     0.80864881754502937
  1795   1       32.90766092136208      24.283295701900499      38.592445862071578
  1796   1      30.966302697253052      22.517244666859309      21.184783545317451
  1797   1      39.528639503747179      40.965372024999795      34.804789476501128
  1798   1      12.110471546268158       43.61183859841276      46.380886380664229
  1799   1      46.471956635148779      26.720983534640023      38.054267536347318
  1800   1      27.156304945627316      10.918308282442545       20.02817509629309
  1801   1      11.143591953414203      25.221304321284581      13.975618779665004
  1802   1      10.599856559365493      6.5516701551437846      30.479220217348253
  1803   1      5.3575321547852504      47.644860711387636      38.979145098223412
  1804   1       7.081959608013138      28.504085279794754      24.541169122025909
  1805   1    -0.61301507866133986       39.74687144292146      39.550551967434131
  1806   1      39.558090893378449       20.16338879013011      18.499973613376444
  1807   1      26.680138939415006      39.309764296771803      39.537546740776563
  1808   1      28.541184439010376      40.831655040169913      36.281212818186397
  1809   1      45.075945072830116       40.30962188815279      7.7752041735579809
  1810   1      10.681134888139155       13.41135657783067      25.598746903858679
  1811   1      22.000194071311537      47.554660693867667      21.105949004601698
  1812   1       17.41915177067759      22.856017286841134      5.6008876430216965
  1813   1      13.136917667396508      41.080485024957014      25.358294913088699
  1814   1      17.963618685224429      46.422029740544723      39.812718187075241
  1815   1      12.488704870666446      40.093873122716367      37.746481291633565
  1816   1      25.064120981707184        11.5921037812713      45.355235698790963
  1817   1      43.224356393852268      30.365967618357981       18.00484409580455
  1818   1      43.398946027407256      42.170668673341396      21.256650490066104
  1819   1      40.992606424530948      38.864252526909517      46.219662988940001
  1820   1      40.888723885564765      31.665521462805287      44.424079655170388
  1821   1      6.7595334816130128      16.561408374359377      20.600677559660131
  1822   1      16.954714380387358      42.121655383409895      23.868131596043565
  1823   1      21.064786923329741      28.375260650749855      2.8211997385252263
  1824   1      4.4883908211058543      4.6917355250152948      17.996172617796397
  1825   1      29.306410072464427      30.286695534767269      3.3869117393518668
  1826   1      24.651881442762253      40.161070700952209      7.7981052921361202
  1827   1      37.006633544133081       42.26919380985025      11.515575820009103
  1828   1      31.725283660515398      17.203703901924666      14.330374816428108
  1829   1      14.824906557307648      33.584308008874238       42.92237070030545
  1830   1      15.661264167935693     0.55005230658158721      27.921381809065288
  1831   1      26.654388706992389      33.892722791187865      12.166688138931734
  1832   1      8.8018180849102272      44.054612900866893      34.230790512834936
  1833   1     0.64803313811662566      15.747881264710818      20.738054207012453
  1834   1      25.499089108613436      27.783476742050404      28.151477737096819
  1835   1      39.561722945201666      1.6885358743066108      37.685775385710386
  1836   1      41.824241723474252      47.007947942889047      34.223716403248922
  1837   1       19.98629909216109       30.04888753066599       13.71686538076152
  1838   1      6.3092449739483252      7.6367540433072882      12.168792709584149
  1839   1       34.53003755172211      12.346555571756907      20.250702566711681
  1840   1      37.430154274012182      4.6801490474510423      3.8382373466470323
  1841   1      22.004055574269607      45.517457986507736      5.0469414122665315
  1842   1      27.518128202743419      14.791635584493568      30.658412055012754
  1843   1      38.421210330334205      35.679491544969231      43.684218243030585
  1844   1      7.9452198138559966      8.3444801516305951       7.647672538629001
  1845   1       35.79515135277078      10.577823484821385     0.55092876709321914
  1846   1      20.942876160640282       42.78470173276969      6.3440920163713672
  1847   1      27.491614852479163      6.9236210991886926      26.927391762819507
  1848   1      11.451517470040528      41.351576517242002      14.133867268480975
  1849   1      41.449961438121839      7.7553876621596647      19.444849046867969
  1850   1       35.05565220336392     0.14315592286690698       3.245317217136527
  1851   1      18.627962983638529      17.004119746282765      18.297524439641755
  1852   1      16.473659865031497      44.570504860289482      6.1097993118665581
  1853   1      35.501521239814167      5.5201775751155857      30.079777502791863
  1854   1      47.222852356550902      22.304324462366008      18.475345730787723
  1855   1       6.067616053515076      4.4867701409060388      48.373011642632335
  1856   1      31.408952860390752      13.655204417652252      19.313789072039302
  1857   1      17.107385020866364      6.2198825367967592      7.5758410948408379
  1858   1       23.38148818275527      30.437675658418595       8.453545126108363
  1859   1      43.450473689785788      1.7399356846653626      46.344136910018292
  1860   1      26.008709403133906      1.3056169249879419      25.894385904920746
  1861   1      18.059694126642306      12.187047571555162      43.394723424192428
  1862   1      44.771661696713366      47.580131619221483       30.72584370644941
  1863   1      1.8995398469314206      8.3563407797266596      20.096544343957085
  1864   1      37.708940217785674      15.137175506875307      20.693601269153014
  1865   1      32.020139226556616      11.333786104747835      38.531339029446485
  1866   1      45.137619934680181      4.9324643190747031      39.255249256456878
  1867   1       17.34376212064215      26.196818199622616      27.198550405703102
  1868   1     0.30872321588121859     0.71168748576252694      5.4545008592290891
  1869   1      4.3875377648808112      4.8674828512529755      33.801162114737849
  1870   1      16.340138719388637      37.089235369333373      22.896846144585098
  1871   1      16.049684432557214      1.9507004474670615      2.4806855884177952
  1872   1      20.116100838684652      23.219218988006443      26.937256537248619
  1873   1      4.5527012929834134        34.4012566924875      33.012956105021694
  1874   1      21.289136597511082      34.708292472002299      12.585372494112931
  1875   1       23.83383838430009      32.872787053653362      25.785356077620616
  1876   1      9.3456987076250666      44.214540836477589      14.154739974530887
  1877   1        40.7072207497405       9.120098699293818     0.99297641130735603
  1878   1      11.730751593138294      29.006049779772589       11.27428587528318
  1879   1      2.5878377834517154       29.44650030726979      13.098771982409655
  1880   1      25.162151496857465      24.334251329333711      30.656980084976539
  1881   1      32.119487381354048      32.187968817088617      42.362280928952593
  1882   1       38.78067977927364      1.9364378989963684      47.855226070143054
  1883   1      18.425011640834448      3.5097977161121352      46.121639893530705
  1884   1      30.069590970506223      39.264869122788056      16.145841605084318
  1885   1       7.149842002928013      31.256395864399163      37.291437210308359
  1886   1       6.035939276866749      12.005424262576076      38.585374659760184
  1887   1      4.7781758954527067       11.90896098366056      34.896579864851255
  1888   1      31.956854016099481      44.195540588228667      40.567058468085975
  1889   1      18.579138803315335      34.400788357723648      42.088064059665804
  1890   1      19.056282790149563      27.260941448818642      19.070916900193605
  1891   1       31.62851679489965      35.289850524038172       6.049776882471078
  1892   1       6.657206504520401      13.896294301407947      41.222111468718445
  1893   1      10.895402322083378      6.1548428166450337      25.113385278643015
  1894   1      30.557139132429988    -0.95750868904260356      3.2489285519397408
  1895   1      40.570580702463026      42.798427725623242      37.350575916446772
  1896   1      3.7983743403089267      21.391427718550716      17.297692165575974
  1897   1      15.050023360477397      7.4657863984078503      29.572737084391228
  1898   1      10.916405947280431      27.016071023144011       44.92834053366834
  1899   1      22.367820012689215      17.084987657132672      47.737765729409766
  1900   1      5.3468158578930591      40.358849584912463      19.006620526751501
  1901   1       7.919198824093451      11.961716490944918      25.962098752126199
  1902   1      38.512091978932702      27.787889896257074      1.0410717019304665
  1903   1      25.126091104475602      45.446966725135276      47.362269916131226
  1904   1      43.955643732156446      28.919972693038755      13.218699739479945
  1905   1      40.985237466210165      14.006023428660418      21.258739797023505
  1906   1      32.562526612034709      46.082463120889678      13.765174767420111
  1907   1      28.503945441558617      29.181510552130675      27.521138470982223
  1908   1       23.19178158184689      19.164222792339675      45.131874886277231
  1909   1     0.45358471626600094      29.590886915589252      29.817990912199402
  1910   1      17.350916702834983      7.5556478965636051      20.720974631993311
  1911   1      31.588335603184742       4.148051977369076      11.705505614652919
  1912   1      48.941962132246452        6.59604773718433      3.0232947874592866
  1913   1      36.142326036421814      35.725208019575881      20.550115083343222
  1914   1      22.669450590581771      5.2856157248690447       42.98086029909507
  1915   1      15.282196032508962      10.322047237131606      40.042255797917704
  1916   1      24.731141331536065      8.7607006087531829      37.943889221044657
  1917   1      32.629413909895412      10.685480990642427       18.20720872601618
  1918   1      15.337563680833426      26.987544258600106      15.080373220178105
  1919   1      22.767591522658783      32.329147969902934      21.530361162370077
  1920   1      6.2403302378142032      48.040894077857047      6.3306359938030514
  1921   1      26.940721527377391      36.134558946010849      6.5168368808376638
  1922   1      2.3699786844106501      2.2007101635366642      37.077497738449836
  1923   1      25.315025962944222      42.103199794298071      45.836059059935799
  1924   1      14.544788505010763      18.151433030635062      4.5760981725212693
  1925   1      6.0814641245152217      14.512339275526484      8.6689439144948874
  1926   1      25.451540517925057      33.070951711056992      2.2764367585218008
  1927   1      40.680673359669107      7.7079359642955794      12.375041825979034
  1928   1      14.269351738705959      27.198465922308131      23.981605642741098
  1929   1      19.512658343092262      19.477278465354257       44.77211471736436
  1930   1      29.791481279728796      5.8627230651028137      7.8220431935343537
  1931   1      28.629297864543549      2.2120040764155595      3.0555981602006574
  1932   1      48.015560977470102      36.341152253869055      1.1190268573108939
  1933   1      34.675402876534761      14.591584469410453      7.5112748170903929
  1934   1      13.930745827935777      19.509956123991437       46.98761170184433
  1935   1      46.983099812251034      2.5147721076231111      20.213126786180542
  1936   1      12.867299083278398      14.182266816924736      40.005483602814571
  1937   1      49.354520279507668      30.004260026042271      41.983577221057182
  1938   1   -0.081522567167241267      5.2214555714018758      19.312172928282031
  1939   1      36.407942938319508      5.4640239033880409      21.923097056768505
  1940   1       22.80645842474669      43.995613954016456      22.398832851194921
  1941   1      30.425288484261831      46.120641496809988      43.737549216321042
  1942   1      13.573883395786861      23.228016777975295       24.52835500525044
  1943   1      46.520866522764983      14.525052766273349       31.28344085452218
  1944   1       13.35210514987576      11.612606625045863      9.8205564387191533
  1945   1      37.521625204435452      41.300112567258772      37.830361967324862
  1946   1      28.431531384818378       40.89303724683792      32.133094129970445
  1947   1      42.196851168044276      19.851408898129407      32.533264994908869
  1948   1      7.8808364472726726      26.450202577948406      2.5119687295253628
  1949   1      23.511388311316505      31.672536487019553      13.114118982409165
  1950   1      25.095840169037015      41.140302163990462      36.501504456178324
  1951   1      44.850852520900595      38.610917988275006      38.977364927933763
  1952   1      11.711903669858406      34.277037490365103      4.3125576368344936
  1953   1      24.664257298404628       24.51709441321804       33.99826972705565
  1954   1      5.1017346824494041      14.719147943151423      28.998607528205149
  1955   1      4.1510013020297976      14.529361555786673      45.059006307763298
  1956   1      45.526795896943447      10.640049098549438      41.535623476420461
  1957   1      9.9059756994346877      23.396770201334128       35.83358978512625
  1958   1      39.318040546483232      24.505949193422175      33.734980614995358
  1959   1      21.992525178581133      25.618671392787778      36.034706382939952
  1960   1      8.9138960313263915      39.942241838086403      41.412233950108117
  1961   1      29.412621549027513      13.658764686546247      38.179390966728548
  1962   1      7.3044127650426214      18.106525355590072      43.127869543975642
  1963   1      17.978350876281066       22.24999760022812      11.108767104959753
  1964   1      41.816297356389441      4.6099708964475754      41.426039702723784
  1965   1      7.8667704463638737       8.251545479334677      48.225272725788415
  1966   1      26.134084453269079      3.0662664645171431      20.110738090735996
  1967   1      29.646662059789712      35.158811344547132      24.277289749305361
  1968   1       40.98776231469791      1.0066510271508631      25.781250691661135
  1969   1      19.715467650412634      13.755919789267063      48.298541589683623
  1970   1      44.428880223033204      19.877589718235065      10.336866260064889
  1971   1      28.441803795537062      5.0762678638226912      18.258532146582144
  1972   1       13.07404252926645       31.81879253705355      29.423782866560614
  1973   1       30.27943510268458      18.809130312771963      1.2068847219068652
  1974   1      1.3277470660027235      36.240000950531901      11.440396413229779
  1975   1      11.555574134647872      24.750256229625023      10.411985333000281
  1976   1      6.5437455168024936      38.826722794924564      33.742779725455897
  1977   1      19.049639029125302      47.482731201763464      2.5088939836113275
  1978   1      23.569957936903819      31.014275084817605      45.250292999950972
  1979   1      5.7558248075613507      10.672333277078982      18.430960527533255
  1980   1      15.026227356636289      46.556916301906739      31.729558342151321
  1981   1       16.37209129558649      15.056768976714521       5.449602920714292
  1982   1      20.206796532922283      26.231115895536199      6.7631210449573897
  1983   1      17.055778018208077      30.752547691552259      16.201155147655847
  1984   1      24.201181123628515      28.556204926899024      18.414013074860033
  1985   1      41.123037014959593      11.026557212104537      11.767153484952585
  1986   1      23.077856290549885      38.822832577197566      30.514847143641749
  1987   1      11.340223302000149      18.809575703575092      3.4562055870770734
  1988   1      43.035089497150388      8.0922014814639933       32.69120308795069
  1989   1      19.318361333758009      0.4713538182647381       28.75384460615253
  1990   1      20.759364333775668       37.35252531300155      47.647057866451242
  1991   1      39.718856152745666      17.434556776882626      2.5014450230964336
  1992   1      34.930009765613207      21.799462545496691      30.166799049561035
  1993   1      32.395257669926622      39.373887058898333      43.965292546827669
  1994   1     0.87161503966739307      21.947744725850949      21.493085162990219
  1995   1      22.166894152864138      47.707899376132382      1.3645628944964507
  1996   1      29.049894186362231      13.027510539580801      13.836848388737957
  1997   1      13.274051844599994      3.7564792723102398      24.161916794193274
  1998   1      3.4345832948573571      2.5079635390234167      47.491190194183964
  1999   1      47.848871079857709      45.177315336126256      48.454427227554717
  2000   1       38.17279012662673      16.972273463778649      27.317430107019977
  2001   1      17.665613635003211      41.956910597115417      4.0902504998505904
  2002   1      22.373849576410251      37.205645850641893      25.011440998849533
  2003   1      5.2622079658653398      40.528243934046422      36.275064123836863
  2004   1      14.502107064019672       2.320816281189368      39.060346730787465
  2005   1      1.2389679430373521       42.12558602963221      6.8035967255379655
  2006   1      1.4560609353148515       14.93132451805648      36.309463325886107
  2007   1      12.087729743156807      40.253456530623566      45.616843435085343
  2008   1      31.266748955151151      49.116618612884395      7.4316436872142173
  2009   1      38.224421437966974      40.445940012684403      8.5073798010245891
  2010   1      32.475984757168767      38.592491813820239      5.9950142129551587
  2011   1      13.448800615934509      38.720461949234853     0.15604183451481096
  2012   1      45.929158497961737      1.4980520651315585      32.579183418190489
  2013   1      46.539400871808219      23.854637574398257      29.761816678527698
  2014   1      18.036648771443243      45.561911348025134      19.200222530970141
  2015   1      12.771662228399462      5.0642411178495355     0.19516904438692495
  2016   1       36.15796808285527      9.9591824525295323      13.013856857597039
  2017   1      9.4285007412578619      30.207671592678437      39.320071524313747
  2018   1      9.6542144848727602       31.63612613551015      12.936692214448879
  2019   1      46.730940010192072      41.668128918698834      21.847195737480671
  2020   1      3.4809081510565183      13.093849358706139      13.975482249052035
  2021   1      17.698370905032967      15.367408351174365      33.188917342087358
  2022   1       41.13282878321985      2.2749900494637325      8.5045730974354257
  2023   1      29.127231051471494      31.199821034520799      22.350070734869078
  2024   1      40.457293275190992      25.137036397691794      44.166027232389155
  2025   1     0.90349962970002196      12.489482743665969      42.727214293349668
  2026   1      32.237057632068776      29.852273436400164      39.688358582069355
  2027   1      32.994434583571589      3.2946287190984118       19.77103856105801
  2028   1      38.016570793845062      42.709430706951139      17.036668353650281
  2029   1      41.560082422777896      43.166706880579412      14.118333092702317
  2030   1      36.538647501218684      41.170887117899149      1.9330013033312552
  2031   1      41.845442375543477      46.535161756119244      37.474948767916153
  2032   1      33.478321274621798      14.802371693031176      34.504179590840977
  2033   1      15.260881819192727     0.37062611262139727      10.769274113881057
  2034   1        9.80804325377105      10.003498675208068       18.64071786849366
  2035   1      33.222505458479986      24.283408980947303      31.569641730277269
  2036   1      15.917436157921578      45.497711270940094      14.922411598827264
  2037   1      32.194443891021258      31.047981735794949     0.74456866407049549
  2038   1      32.831245633071944      40.940333007412008     0.34181640072257985
  2039   1      5.7040575468873973      41.820177836086728      9.7902558605711683
  2040   1      29.721040459576763      19.222675683399142      46.178308264549166
  2041   1      2.3250716600688341      27.565001951375685       9.435004005122078
  2042   1    -0.74111030779873011      44.746980538684809       6.602478716255324
  2043   1       27.00769796277018      19.939470694140763      21.031414372745008
  2044   1        8.95145749778127      31.729482088852276      26.905576712379528
  2045   1      15.690097886719139       13.91600357459558      27.588615214932677
  2046   1      6.5760092456233572      49.550076854470724      24.126303874805636
  2047   1      18.500745117320008      22.833818683963091      43.137952504326002
  2048   1      5.8400065745541561      44.144573237084963      47.049728856203949
  2049   1      4.2780200386859777      39.461722939861346      14.317619459898964
  2050   1      -1.040080008989128      24.774552226543101      16.051965762279355
  2051   1      10.454303680886708      6.5090084466593323      1.9969547236264891
  2052   1      31.184908623706121      11.164967295919665      25.682629870554159
  2053   1     0.49557020642831079      37.852180904957642      16.314762962702194
  2054   1      1.7973453908948998       10.56575570108877      26.294733979749857
  2055   1      43.374112070830847      28.986579535349534      38.942260558792384
  2056   1      35.869685233171296       24.65407559046244      10.109421335776617
  2057   1      42.362237699742359      43.211471017943964      43.639481059665123
  2058   1      14.314030190658233      20.537484859847538      26.773410393018494
  2059   1      37.144514344551233      8.5983280694741708      30.212075055324711
  2060   1      25.897785670569604      21.867949065136525      5.5280436067332701
  2061   1       4.931789170404338      30.871853952455009      5.5393075835835148
  2062   1      50.201348264943341      6.9484040457087204      12.804126488102217
  2063   1      35.121124886687618     0.45321942689039335      21.955542308231287
  2064   1      8.3647489903593115      32.834967259861692      3.7586405632809066
  2065   1      2.4169240721736474      14.377734505187204      31.416382886091085
  2066   1      23.491103866648281      3.0304132740066065      22.711206200618609
  2067   1      28.541920469259807      46.261294611413902      22.691740144923408
  2068   1      20.300117213832834      15.092336897242353      20.613071537338076
  2069   1      45.162709564597129      37.291671165359567      14.313472899987001
  2070   1      27.513389330069916      2.3366861496964204      12.924686935602836
  2071   1      43.944020059276845      36.679882848524649      2.9688913156351799
  2072   1      6.9379340498555155      13.328395231730573      21.801957208939211
  2073   1       20.37766883373909      1.2138992586429946      43.178066324791757
  2074   1      25.126258521917485      32.123281419963369      17.036524847083896
  2075   1      1.5746604490062099      38.466885649977016      6.4874173010496285
  2076   1      49.175509459695199      1.4124341693717761      32.794319686243362
  2077   1      19.412001481185506      31.783410606755396       1.391705901314491
  2078   1      36.996431891281951    -0.77026607168071726      38.466216125144669
  2079   1      4.6362894669954535      47.508810211464763      13.545548751920862
  2080   1      26.831026012333272      25.217232301480834      22.577160750238356
  2081   1      36.769932033061586      10.432925999707813      40.842366509777982
  2082   1      19.519065197395033      44.193429166423051      41.559885977778094
  2083   1      15.118602885512761      31.090700655796088      40.549537908564311
  2084   1      24.383926136265117      9.4207796173980594      5.4854483040734658
  2085   1      30.481371280572137      27.756791561267921      14.467655249378872
  2086   1      18.513225860755476      11.752115103625886      30.291475657471903
  2087   1       6.012910495072723      5.5402777663211236      7.6794336672871681
  2088   1      39.891368245621955      32.237605310429871      14.422824514056302
  2089   1      2.9757522255924136      8.1659963786714336         28.000239020111
  2090   1      3.3324016171972759      17.613620237789416      27.785955823602869
  2091   1      28.779051442164004      24.689481938361695      14.339415723965308
  2092   1      6.3663727799074517      32.791091499982933    -0.66143963243383808
  2093   1      25.190960907901434      9.9096149361839281       9.691836326963152
  2094   1      18.614138012255761      9.2117169530806553      26.720419340131091
  2095   1       25.95340404890058      20.334737171865072      16.914831453807881
  2096   1      22.271321256128754      11.242145796582051      24.289086079436679
  2097   1      9.5720426825844136      31.936679509062724       42.61124259910487
  2098   1      47.867005329202819      33.457807116767846      43.723013806098997
  2099   1      14.086384172034242      14.940289575684325      31.950491324219865
  2100   1      11.862916478553563      17.290597644368273       27.97770626163889
  2101   1      28.023679835844145      36.109940030695618      32.064781881270122
  2102   1      34.946893068058444      21.250254003847306      41.139297138758415
  2103   1        2.78499891400282      16.321166892426568      13.251500695938654
  2104   1       4.087867512978228       26.11663133555809       0.651214560381012
  2105   1      42.521980213556184      36.359529232197936      23.368507603163081
  2106   1      5.8057390844547241       37.32671514183064      1.3353149183702238
  2107   1      5.9203078215583815      27.231332326744937      33.360060238724692
  2108   1      9.3752563123151216      10.765591783833191      46.281502066486702
  2109   1      3.8005093458721695      13.981205480858934      23.365895132896171
  2110   1      46.826267428003689      25.982056426179621      3.3175961880458602
  2111   1      9.5470132173480629      14.102996544299772       13.88597943225413
  2112   1      31.831996338457039      21.541984557511086      45.751313146485138
  2113   1      16.167173392905738      11.423366284688813      11.977627846902909
  2114   1      8.0222279054039021      21.854160828478459      25.223294098251859
  2115   1      21.729736789303761      32.072287614934162      42.560016436234818
  2116   1      17.709806294940684      42.472715185516812      9.4847188840448844
  2117   1      17.376801158405982      35.206479861835589      6.6142532791590423
  2118   1      49.901668651557486      26.627767357371557      14.331646304246643
  2119   1      31.795109850934775      47.965434742821067      22.787360339504161
  2120   1      34.580702795702578      43.954720163437315      9.6957991166089883
  2121   1      4.4060882498603666      2.7074253949453047      6.4510938254754482
  2122   1      38.876206620594054       30.97091001141025      31.457586375801611
  2123   1      2.8768767937488371      25.116617495182368      7.0807832794020698
  2124   1    -0.01399820564725467      9.3068582014504528      38.560410178464046
  2125   1      14.068394708503426      36.354194979448536      3.1568280909534536
  2126   1      5.2055992854968265      21.873388830405766      31.377026486783283
  2127   1      28.114869302557182      10.222851288718287      8.0102862874077925
  2128   1      15.771493116997748      43.575088649541186      26.740547641116507
  2129   1      22.414628155181056      26.665721092078645      22.038436704601072
  2130   1       40.77647705206013      7.3741210063499487      4.7442582088029628
  2131   1       16.41764765479499      10.882120843470508      19.905561988222903
  2132   1      37.913868068742687      26.178013921226974      41.119143319391029
  2133   1      23.616766427710001      24.858380415126028      42.754386891138246
  2134   1        4.98462578744628      8.2049174237648437      20.484143822312369
  2135   1      9.1376450039034243      11.312173385567313      42.038798997653018
  2136   1      6.7081884598912644      15.695678839907487       23.99424058035504
  2137   1      7.0968723136038134      30.427752814113418      1.6533976951901384
  2138   1       14.98922350575477      2.4356062900584581       8.047300931956114
  2139   1      48.982045887803025      38.091159083506255      22.614843740928752
  2140   1      13.070451387914654      38.672178321404317      23.191612197442787
  2141   1      15.201400589291934      23.308317394570707       12.47447951862199
  2142   1      44.097920059389153      47.606246535679432      11.353499932550195
  2143   1      6.4638354735709189      37.934513444393723      25.416243666921577
  2144   1       7.111211906257263       34.87010287021495       26.75259347933962
  2145   1      15.104115456792899      8.6619605265525301      5.8393714091884679
  2146   1      41.998114456937309       17.24756528190775      20.285029811381172
  2147   1      24.048764879402924      39.581612467070748      1.4663847870490978
  2148   1      37.106870493846458      6.2435169982034227      32.656677472181855
  2149   1      42.461798089274097      42.426984227683192      3.5764005015669049
  2150   1      25.566272239691504      15.686387669037469      37.803079187506391
  2151   1      44.801784083019626       38.20684516723388      10.118796542555312
  2152   1      30.755899874266884      16.049840409794339      47.868324100850863
  2153   1      15.962086364556717      30.446590830708328      36.153830792940703
  2154   1      28.633283662742777      21.540039776163717    -0.50390001823111541
  2155   1      24.176613399620031      11.395798222308651      15.848147522600355
  2156   1      5.2128185843892956      36.846101300746163      36.273225881786473
  2157   1       27.00447342426747      45.871330713082976      17.564650743477142
  2158   1      19.608722439671315      48.335937314751277      24.840016348795348
  2159   1      8.7367167698070585      15.353487778307922      2.9538032292887113
  2160   1      16.013955165292483     0.36975173132145506      42.935254411603623
  2161   1      6.1611125134341034      2.8827461477523895      12.916821280759438
  2162   1      1.7085810939738073       48.52660473032973      39.670665104506057
  2163   1        26.0468873107991      42.367671796662265       1.199352163793616
  2164   1      46.790266135991381      34.777349640916448      12.016393387125646
  2165   1      21.305946408063463      23.596793793872454      16.437265939090686
  2166   1        15.0578760543643      6.5229233006363261       15.53297463276961
  2167   1      7.8674594881101214      0.3850413984594972      15.223770033603024
  2168   1      15.732598567702777      5.5439784156459906      45.940002653766776
  2169   1      44.006325505256392      41.743899356183093      40.349052579581709
  2170   1      47.078394797599991        13.8198194971033      34.469909576686433
  2171   1      37.980589895989688      47.734305792569032      9.3151210060445599
  2172   1      27.224952649243281      19.329178238994807       14.14291127467189
  2173   1      42.814722569542226       13.72014163955861      30.933214026170674
  2174   1      33.896709642594182      31.630112765071701      20.902819383287682
  2175   1      12.599090974136447      33.471597801575633      45.220364229709041
  2176   1      36.259595925674958      34.318705981514547      3.5504046040659927
  2177   1       5.211404292381336     0.10191572200931577      45.914429048051993
  2178   1      4.2640273151123385      5.9420949218340358      44.894467797200974
  2179   1      21.383945695138756       41.03619293041416      38.442039709203385
  2180   1      23.412334614003118      12.896492477009227      12.586248374893902
  2181   1       19.28339528539238      29.843447949338689      38.510923937720406
  2182   1      19.717699706015139      25.441225948591615      3.5767041970469258
  2183   1      8.2520279227149356      43.015333757385442      2.1971411808667143
  2184   1      46.422162715307628      21.968799199080909      23.041891333423884
  2185   1      33.134917748309199      41.792965203279053      20.407518049744123
  2186   1      25.676488000578363      34.039203286731507      39.827228254854532
  2187   1      2.2833467653661792      10.650886472498732      4.4997384327177494
  2188   1      37.499192901783154      37.889987407644469      41.603554010103622
  2189   1      26.733058857121229     0.16587569193323679      8.8223228386596624
  2190   1      22.105985718295649      43.802231132793437      49.339001695041524
  2191   1      13.092768924978648       47.96504021166875      45.735444457720305
  2192   1      17.509909104722183      18.829244766341354      47.193403790125281
  2193   1      8.9758166021440271      3.2684402317743646      25.750079673838151
  2194   1      11.480184804072639       41.08410336756328      32.928018956298807
  2195   1      10.361365990210354      20.758735126639376       34.10693897341433
  2196   1      3.6141828506632758      36.546347752686671      7.9634669437850389
  2197   1       42.75750043922632      1.9331780724662999      39.323432141210731
  2198   1      5.5784577387167147      43.585164210176124      13.965060326836113
  2199   1      2.8748809980928582      10.001968061943765      36.791823685220827
  2200   1      26.619429900228212      7.2393087814476527      14.592453722269093
  2201   1      10.315806277649783      11.200420551946637      8.4583745730120334
  2202   1      33.584107827234689      39.212243033083105      22.453577188488357
  2203   1      1.8937809292476229      33.294691996698695       31.62026638060615
  2204   1      36.671807869283739      6.6704262684956044      37.247447896748575
  2205   1      42.710019757227862      39.948781750595558      43.702947599446773
  2206   1      44.022137960796194      26.266655515606097      11.087559327153695
  2207   1      46.053514092653955      31.421728752133028      37.489176051722936
  2208   1      14.528440382565426      9.7144390075112881      47.257003865951617
  2209   1      23.784830069005196      8.8638836972115218      12.493106559669991
  2210   1        18.9305744694312      8.4012333382425854      23.306334822354753
  2211   1      10.929407653200059      28.578558356512026      14.628676468688475
  2212   1      46.017172759705986      20.447038417121082      29.477288970686828
  2213   1       30.12499900289766      27.916134464764031      37.821001038606163
  2214   1      2.4422587690839941      33.079358773469671      41.109986762624345
  2215   1       35.60288415566923      6.8434743055937437       24.80933587865157
  2216   1      39.351648590410193      12.368858631595392      2.8989390519662601
  2217   1      36.270545848794413      32.545496798860697      43.064786888489138
  2218   1      32.434637042341159      47.054189716697671      30.120725510290718
  2219   1      8.9819797848458247      9.5153821710796311      30.947563526388553
  2220   1      36.807243750986125      41.026951597898027       46.14949089336617
  2221   1      1.7692149106319264      40.538627222586889      29.318148884603275
  2222   1      11.294752037755279      36.267371657684699      18.391429461133175
  2223   1      15.266319998093882      32.975026693360384      8.2491508941051919
  2224   1      11.466150566263046      18.191673253724375      42.183581953771018
  2225   1      20.571965741740648      36.008001886813105      38.900411021287283
  2226   1      30.364640508325312      14.033859231846808      34.839534827066103
  2227   1      19.945881555359406      23.425924037233127      37.545009590632169
  2228   1      45.276844891982222      10.878896869996209      15.139165748993291
  2229   1      46.417993725299183      40.166412381981274      2.6866227551661583
  2230   1      22.937398441406934      27.038357272315864      4.8977626210316618
  2231   1      8.6768136042140078      34.530442896213515      37.051529904651979
  2232   1      4.1582653955443387      43.790642461546206      40.025769921904306
  2233   1      14.449327417978161    -0.80271821175707081      40.672956660579025
  2234   1       18.62381219577528      26.900077812137628      37.524631744259139
  2235   1     0.30390396282216109      3.8827332203836207       1.141819334554705
  2236   1      26.994445356029264      19.259076626943692       29.25406702706092
  2237   1      17.244590777334452      34.135296205776442      48.246023901481124
  2238   1        47.4749997466322      32.136713443950832      8.7865208859449524
  2239   1      12.886698264120843      17.372964011490353      9.9263547986732785
  2240   1      48.087039107171911      33.219404605941577      19.530165120275612
  2241   1      36.078603194651841      6.0158247044586206    -0.55000783582913504
  2242   1      9.4701927217147119      9.3071870303493629       27.44042606074002
  2243   1       3.136412058714571      26.165314511725363      35.575090542463776
  2244   1      34.424949242953822       33.47457556171684      39.774008328358263
  2245   1      37.368389274907884      15.745628394750215      46.031456802277809
  2246   1      11.836990956632606      32.275706078737542      10.307669672670201
  2247   1      8.9581015634839716      38.851588497335655      1.6922304177482836
  2248   1      14.430678605170083      43.255233073393164      1.0692807399822113
  2249   1      41.122375832842117      29.495492523711277      4.2689304269075103
  2250   1      38.937441813346787      13.387928577627102      42.652341221139103
  2251   1      35.349292117329142      12.216624856553073      17.116389702178459
  2252   1      10.845155461682239      19.239645486659366      15.144224617958685
  2253   1      23.662273283704231      17.327059252376923      11.255735666451182
  2254   1      32.703757538543712      11.622307627583028       34.56371034851378
  2255   1      14.085201680542516       16.51291984297827      36.243660000171978
  2256   1      22.225369377508727      27.437959400941082      44.419047950884661
  2257   1      48.206770395708972       23.97758088700563      25.706733856302538
  2258   1      8.2961161469301228      1.2646321363272151      35.147416078227224
  2259   1      41.159273009506983      15.190920934119475      27.724830495162045
  2260   1      18.672540435440116      38.813254663640237      18.893967158740065
  2261   1      22.584219122411287      40.794289555524429      33.131897344525626
  2262   1      2.2703942162238295      45.873926957922535       5.232012871958907
  2263   1      7.6219449240000614      14.742481730503677      36.715732533877919
  2264   1      42.291093442416944      28.504804121855564      20.716339082591723
  2265   1      9.4664988060886959      29.284287098038323      35.931080991848511
  2266   1       19.30912829208598      3.4795601941551695      5.4814494365090756
  2267   1      24.224472083232204      21.008993211732321      30.783229781676894
  2268   1      33.060603042392508      7.2712284828182288      35.689947423755079
  2269   1      41.497799940442349      31.752677033560456      40.450375755881865
  2270   1      47.872396898957135      16.832461765674669      38.210446455040199
  2271   1      34.874838012994893      22.406757930811313      3.9505515866293983
  2272   1      31.075270913316441      33.855503987190907      36.706199969019544
  2273   1      18.489849521187566      43.710001790499071      16.444863090543013
  2274   1      26.321333580443799      4.6921587010587693      23.945612862378546
  2275   1      48.025716709223389      41.795786094165031       18.18270686378095
  2276   1      21.960188570158184      11.907870890446574      6.0769361051048012
  2277   1      43.724627675797315      16.926307975743402       29.18793414032578
  2278   1      25.397337871130148      6.7400411232969972      17.881550047327313
  2279   1      44.811315490149248      22.698578948731555      25.985062501394097
  2280   1      8.8245510604306183      34.790167198550328       14.22352849571168
  2281   1      22.668257517599471      13.788731666158066       9.420202339417326
  2282   1      21.492703023979693      21.861720574712216      6.5900397472869283
  2283   1      11.186523271990428      28.551929386662763      25.594050161040304
  2284   1      48.543089159860337      7.0382462873751424      9.8318113365777506
  2285   1      18.399523947501603      17.556044810429267      10.101307002937736
  2286   1       30.31760046016899      9.5369509833909873      21.236625738728655
  2287   1      25.345228773721878      37.414102579841952      12.400814726658838
  2288   1      2.9275972949061306      17.827068041007337      45.743847442446217
  2289   1      34.674797046076712      29.733251769797171      29.732457776782596
  2290   1      36.354595486292482      30.455544061487387       47.29368514526255
  2291   1      36.148354383601983      45.951351923458482      19.445351903359914
  2292   1      45.747250658077647      16.421424156887664      44.775672969794897
  2293   1      2.9672679945247715      23.185026202940612      10.614218638541077
  2294   1      41.981927673676246      12.830916573873672      43.606536371512561
  2295   1       13.02192484555942      8.3285738057967222      1.1950929637334406
  2296   1       39.00684744316365      9.6975138293238725      25.446418044670082
  2297   1      5.8687012671502918      20.869404501783126      11.100903114341829
  2298   1      31.623493262260528      25.806973998898012      34.366954692917687
  2299   1      21.632459935754955      32.918723633214363      39.085416397113939
  2300   1      46.112933414833293       35.70082993673303      8.0131378328029292
  2301   1      47.414759371391185      20.140763868969987      11.097271056285269
  2302   1      18.267213303430459      24.939638928188881      23.346711401231001
  2303   1      37.022343213846192      45.860848414043154      22.954234094335032
  2304   1      33.148106588240047      18.783536330154611      40.533808087781438
  2305   1      19.325726531524634      35.964249511582736      50.443011517799142
  2306   1      9.1847034269006826      37.677212576693037      36.270913644536229
  2307   1      36.651519947425903      29.532054114571455      4.7289844934247665
  2308   1      26.324994742050816      13.212394256223888      42.278001716830637
  2309   1      34.232434318347345      14.873940838214256      45.365003567197995
  2310   1      20.091335590127159      20.206235010891337      40.932153155287473
  2311   1      16.387576869536048      40.586558574940113     0.75348619066675637
  2312   1      32.380823184744493      9.6116668892869068      3.2609001301312532
  2313   1      30.016915388918456      0.8528437523472735      40.509272632679178
  2314   1      24.640054255485556      25.394294335984892      11.922445793407016
  2315   1      26.594012144392348       21.05039575580728       50.66519618836184
  2316   1      15.317113152880168      17.053867453819993      1.4451354679283195
  2317   1      34.554451457386257     0.46028509848719662      46.026511450682563
  2318   1      28.616854270857502      15.838942479389964      9.9374958249037011
  2319   1      40.935078441408287      7.7718728440630969      27.094798693650265
  2320   1      42.336824601178982      16.391100177268633      43.472016249928259
  2321   1      23.213158891221365      47.696571874837595       14.10268677819397
  2322   1      45.054978803084929      13.723158112202322      40.985739450004253
  2323   1      23.624411677630341      7.0119413333111087      9.7244187753648035
  2324   1      29.938712247150953      44.372327252292088      20.304783525418244
  2325   1      21.384534215747571      6.3461818784762389      23.810454172347484
  2326   1      15.444141388067591      39.173702284182099      39.591705963583557
  2327   1      37.847051575408884      50.746198687429512      16.963045387909162
  2328   1      32.277434529501811       3.198128231231895      41.674457643864116
  2329   1      37.061649667464252      46.028242294539623      41.839781872668027
  2330   1      43.441646211225525       25.79057028796721       42.30113449284211
  2331   1      14.321405324955762        28.2781251629461      17.995237345202572
  2332   1      42.160259404414212       33.40245948565429       33.73117266227711
  2333   1      25.002290552216785      17.022806491558729      41.383269535939249
  2334   1      2.7654297025011751      12.496133373713281      40.066444969734277
  2335   1      14.076254063027433      26.432704642914644     0.30031595661988592
  2336   1      40.139979868858234      36.426179835368622      5.3430541136953673
  2337   1      43.932849392238964      44.256652352138559      10.737702412317979
  2338   1      6.2177643184725637       13.48957154059562      2.3338597449017104
  2339   1      25.448087215733239      1.9142773279049279      37.578009465253906
  2340   1      14.900518725401996      23.459041391352731      28.839295549246618
  2341   1      46.529274676582624      11.371652467709826      24.806783083606142
  2342   1      4.2771928328682209      28.052275949463795      3.5799750204375385
  2343   1      9.7492299518992862       45.46701111321903      5.7963487445550026
  2344   1      32.526694965984177      2.4877910814021025      24.040203549819658
  2345   1      5.9154069838730932      36.571082724594923      14.903601265734038
  2346   1       19.57441741616433      2.7522589806786719      12.624001121659258
  2347   1      32.143145321876808      18.731096757637705      44.015047229108241
  2348   1      1.9042205062183353      41.239989384123888      22.319871811998471
  2349   1       45.43145912793544      17.714532139559552      32.328587194222571
  2350   1      18.269999476547962      4.6225976614886717      2.6784422668675005
  2351   1      20.876662357288609       12.82959971992312      44.863484350297441
  2352   1      13.199238827143278      41.176724980751793      41.293936791663093
  2353   1      30.253403468732618      40.602567323423095      28.618564672325597
  2354   1       5.504918315161305      18.971198665797601      7.7891050152116108
  2355   1      44.995575894375158      18.812516151396412      42.572416585042838
  2356   1      26.036164419970724      28.099666893753025       2.946849650256957
  2357   1      46.975695673612009      44.225127949686375      10.248380487932302
  2358   1      25.891324219813843      15.216838981485106      16.174884274520608
  2359   1      38.090560770425483      23.169350415345516      6.9414609939710026
  2360   1      29.223677598531083      46.783506297872982      7.9800279043501909
  2361   1      2.3063864755918151       34.64178820556991     0.37143850284839552
  2362   1       30.10966800655439      28.930754622508886      8.9110078177132053
  2363   1      31.115535990521636      46.569960082678911      17.333859486731907
  2364   1      28.644057689893746      22.016562760150233      44.288928094077434
  2365   1      2.3738759062918522       3.587393722081337      15.033602699042655
  2366   1      33.744366452355152      45.911067733514216      35.840427919819057
  2367   1      11.480849676881586      27.414641119148413      30.098812218791636
  2368   1     0.20890065038113537      42.248685816565327      42.483456400987322
  2369   1      49.148739752882392       47.86880966708177      -1.944903370263952
  2370   1      22.506528559096306      11.425963661571101      42.013652562027993
  2371   1      19.986319285303374      45.423650808344938      47.482988872087049
  2372   1      32.793184807844895        4.02653068125153      36.467034516006919
  2373   1      41.298008862260332      33.763223648580265      30.531321637493829
  2374   1       4.728449854987316      39.264819782063739      22.133291801626637
  2375   1       39.75121207098087      29.683331693186322      38.591831861198841
  2376   1      18.265350555332706      42.593673102316224        46.9225141505907
  2377   1      8.9139484181662034       18.00804327543133      35.956262503067201
  2378   1      4.6286703205066582      12.201105180293684      26.411252665892917
  2379   1      41.151494686548077      13.582872138413679      48.097068679665192
  2380   1      3.2576998620281641     0.90944716346141496      17.077723478989515
  2381   1      45.505883947973714       17.43382839946392      23.259093557949356
  2382   1      26.026367333799175       26.32420652337133      15.086599581376911
  2383   1      37.558298389986184      14.039085780315089      14.977125958544841
  2384   1      7.3181885783002949      19.151193214690849      4.8555921292024165
  2385   1      36.673334494807413       5.486625739561684      8.2549874669390384
  2386   1      1.8359426308220963      5.5374986555512793     -1.2519611435288351
  2387   1      19.049331031350466      47.832367656453307      13.721984884586041
  2388   1      21.487221507117194     0.36425788466658021      4.3728361091060721
  2389   1      14.766790459583442      32.715456471600184      17.895936420415975
  2390   1      1.1258597449234022      3.8538150011222552      6.4132929771949545
  2391   1      13.990527854853488      12.415358120165729      6.4093300051078295
  2392   1      22.030373233097265      17.408786525316426      42.703636790634704
  2393   1   -0.016386638635449174      29.698490031448639       33.21263927734848
  2394   1      12.265859622443358      19.240549318322678      36.947584052661853
  2395   1      38.319125474178627      37.158712587925557      35.751980957297832
  2396   1       2.303985490738619      25.270011810458826      21.624745106632712
  2397   1      4.8220339526657785      8.9738855829809197      25.419310825058581
  2398   1      26.797389170203026      7.2440075359970342      44.834681272676455
  2399   1      36.972417716399391       28.67887102681075       14.65367887977173
  2400   1      25.491562145249009      39.798743677315947      42.701217087247265
  2401   1      22.028231663348258      10.428079544319015      28.016371508055798
  2402   1      8.9595213357630925      27.257594584860975      28.043955049805302
  2403   1      32.816201327264011      47.388294813251918      10.705179197572088
  2404   1      4.5331256941786719      17.021333690116695       31.07752137873964
  2405   1      35.422733071680184      19.004595591076058      27.651809945619924
  2406   1      27.762016310746802      47.321767430642808      46.351827899454328
  2407   1      30.134538179290338      31.377614121236576      45.221399202117837
  2408   1      19.314751191576931      38.660808878531888      22.091556400677739
  2409   1      13.979683462339336      52.195758500511566      31.412252536453337
  2410   1      22.139743121711593      30.379693061182682      48.985114334783837
  2411   1      12.630824832161753      4.2721890040865329       10.00058602921446
  2412   1      45.528928378441499      4.7731685540625426      47.058932673228348
  2413   1      21.487794403466381      44.001193249504752      9.3669973927339214
  2414   1      33.584423609258394      7.0850543271453299      8.3353307587860819
  2415   1      29.327770366680369       12.64130353353173      10.582464680718717
  2416   1     -2.0646204922620313      25.911891471595879      13.214531717621739
  2417   1      5.5332867662742231      33.928979085471667      43.798551977648231
  2418   1      3.7014155198854679      24.488025220451384      43.496935000856425
  2419   1      45.203407273730051      29.746250392676025      20.401073486339047
  2420   1       42.22949601962916      43.694771311921457      24.262589487055727
  2421   1      15.882422761492963      12.348054670456346       35.85540212453418
  2422   1      38.770845897479866      11.225347443413327      7.4523265657165148
  2423   1      17.034570948649964      38.890925238840865      32.085019056041638
  2424   1      18.503954810811635       33.29216864596696       37.90720384001731
  2425   1      31.824989554594474       12.53391391842197      22.446339227306392
  2426   1      9.7788980497408371      10.960763361148464       14.44043377055282
  2427   1      11.043891168942144      35.504374832707661      21.525547842331306
  2428   1      8.5647229724169396      40.378160237939085      6.4397672544926863
  2429   1      32.829224342113903        47.5525161223566     0.93113895076162634
  2430   1      41.575040779821457      28.674032295035961      41.513253554590023
  2431   1     -2.8885668119334751      21.652239041144423      32.536485527819252
  2432   1      43.801312886569733      6.1444074949580321      21.344198190150085
  2433   1      36.942527543606722      12.048047849355722      27.884048437747396
  2434   1      28.261894313443914      17.614598251099789      38.104727817981214
  2435   1      42.287083321752924      27.178811100727231      23.689627144410736
  2436   1      34.846718902510304      19.331108743295591      34.605153538969759
  2437   1      45.412723416894835      48.714237004875933     -0.3172504707938088
  2438   1      17.825371110897628      8.3080850779952264      46.086839394878432
  2439   1      30.429220200221749      37.671703509395712     0.17763237720570971
  2440   1       35.39053587106789       6.363767038885082      11.201483015694894
  2441   1      16.901092870679001      46.193480861178273      24.329721874322519
  2442   1      32.570264043798772     0.60821389789630487      13.402967603933758
  2443   1      49.026977373833546       19.89677057916494      15.906318632102721
  2444   1      1.0140938296133342      33.106858350348595      38.026033450198788
  2445   1      45.895856027821409       7.288246559813083      29.231616088170451
  2446   1      33.473634154777464      43.786278335054099      28.847762212403595
  2447   1      37.730070722218947      30.473140814477397       28.41326213986434
  2448   1      20.625763213683751      22.149151051156618      2.5161394657818663
  2449   1      11.497167090765624        4.67597864013731       38.81702758771744
  2450   1      42.348876152214366      23.539322706521087      34.626686313335426
  2451   1       7.241280310998536      1.7761054122819209      9.3736925393777319
  2452   1      3.1350780740436224      29.547619103198908      39.249432506337179
  2453   1      43.529392991296938      20.382510083813795      50.933794807849317
  2454   1      34.429097584267041      11.986181292102064      43.079623791832894
  2455   1      33.851056591348858      9.9997194339630457      29.122607702441147
  2456   1      27.154026401273146      27.593557909776354       8.269354293224648
  2457   1      11.296832088598673      13.662703364962317       22.35654081322674
  2458   1      34.902222485785948      17.912970250751084      15.641019869754961
  2459   1      38.080159156987591      24.931062769054545      14.105904980991237
  2460   1      10.664274319632669      16.737280734465667      21.284339859227387
  2461   1     -1.6066382301876003      23.526525792681038      5.8645851462562284
  2462   1      32.505163985084231      3.3414705256947537      8.2911445169139402
  2463   1      14.203992854366614       37.69393845386918      32.429246662918246
  2464   1      41.580214269340303      42.526236828590903      32.871278146121732
  2465   1      44.777462591845897       28.65189012813596      34.590671441365025
  2466   1      28.583047900609415      16.030522361569911      2.0160564699222769
  2467   1      1.1394477675973018        16.8749328083893      3.7764640622010055
  2468   1      24.943367854482339      17.856463888823171      35.236094179860089
  2469   1      39.420360667891437      33.928997349694704      3.1260904652943244
  2470   1      6.4928153983757406      47.058087901075012      34.111517592375414
  2471   1      10.449704164420657       30.43006674249251      32.551166592747045
  2472   1      22.009712486542874      2.6013668617146841      2.0974074908659768
  2473   1      12.253019299607114       1.099541079654164      9.2159328934468387
  2474   1      18.311469482157722        26.2385388444402      9.5826565639373218
  2475   1      24.130092371514461      15.730979209845893      44.393848740001324
  2476   1      42.648129729849714      25.951674309504241      18.725471668012858
  2477   1      45.634857712885179      14.454282425822003      3.7156171455843512
  2478   1      47.774926655502931      38.339340101510892      8.7140213842914438
  2479   1      39.191737485469169      5.2304512823990015      39.013617018968276
  2480   1      8.2445357649364741      30.049411174606728      6.6314544842225507
  2481   1       5.668067315381017      9.6882720939523654      5.5882041292517943
  2482   1      42.639816883249857      18.535801530156476      35.851038682853513
  2483   1      38.453524916604174      3.2767200437388393      10.652666794518797
  2484   1      3.6442208225345101       11.13718081871899      21.041595071634379
  2485   1      46.081706827489072      21.153599305899871      44.764810205397339
  2486   1      1.5867507560298157      25.158597524881767      3.5163988717085686
  2487   1      27.497327713398409      32.840544087906359      18.866129875125882
  2488   1      13.457271583567016     0.84586960823067558       33.49049678943139
  2489   1      39.101380164384558      41.321681269531425      21.173986500861542
  2490   1      5.2930270237179391      37.721404108823286      11.703754879729697
  2491   1      19.603866266876352      12.300053190716117      9.9307558717055837
  2492   1      45.562517283894955      48.139149198500704     -3.7136580647802759
  2493   1      -5.102955158264062       18.99114361048558      45.427533735724019
  2494   1      10.171829124905241      39.762159498769904      24.408646030204611
  2495   1      13.111568840372826      24.885541110331452      5.8391399046156369
  2496   1      11.827015232735034      41.522973253185768       49.71522110230012
  2497   1      7.9717078932168501      13.216929239692865      5.2308659919169624
  2498   1      39.118931593021976      12.090295806900949      18.849029479848529
  2499   1      15.822268073098027      46.034997650263143      11.114718077212597
  2500   1      31.896204429758644      28.391287229775955      3.8951788560472673
  2501   1      40.795938152143059      4.3095354409550355      12.973971919024102
  2502   1      31.785421489116644      44.859458872007011      46.836900555289887
  2503   1      36.712952474691662      44.701915698124232      2.3698412414268932
  2504   1      21.790346325652678      20.564769976946899       18.12451921073141
  2505   1      38.388377348095482      15.248048933566825      31.592020618691169
  2506   1      9.2697576313757288       20.24040349699083      22.207912647282821
  2507   1      11.936485824945354      4.3271502932886854      13.823143567070542
  2508   1      32.859904724407642       9.362995401544838      23.502081788738828
  2509   1      34.382692387925196      14.084793302861062      2.8048741517426481
  2510   1        24.3408971184382      38.267285297848368      19.010360640544278
  2511   1      27.184963097396849      39.951089612210389      11.203816360243898
  2512   1       8.390053643491143      19.138564782956646     0.88121674167484132
  2513   1      28.802965413798116      28.591101979848389      41.392608516885247
  2514   1      45.957489850757213      4.8489117739773651      33.126781383870366
  2515   1      3.6425679469463166      18.874577007595231      20.154121331959765
  2516   1     -1.6675977374286957      10.252445745112798      6.6956760823814392
  2517   1      40.413093351484342      4.1941976406207715      2.5184336861601242
  2518   1       39.41169078476937      44.705115657013899      47.495693429901714
  2519   1      5.9459952670455944      21.909481156933854      43.637424835720587
  2520   1      8.9814801086021117      41.106957122593307      35.966697568519187
  2521   1      43.941395399486822      24.711666539498427      37.964578078896615
  2522   1      46.283312512935069      30.101659203594881      3.9905475669452954
  2523   1      37.812183117958988      8.8272498486385267     -1.4739367806240524
  2524   1      3.0670090631987348      36.909530376828634      43.584160641413916
  2525   1      32.062105995101611       27.40073521900813      31.477671327756624
  2526   1      40.184227776414694      7.4201176953687735      41.990893201081732
  2527   1      20.381408377100676      6.4612541320882508      46.283973487904738
  2528   1       3.649295251944066      24.185940258961484      30.259285211478119
  2529   1      34.083232604617855       11.90744649539314      5.4103340944186442
  2530   1      1.1277767612986622      9.0712123973889334      7.4709758074560781
  2531   1       36.59424000106084      10.102057459168746      35.962663271241013
  2532   1      26.500802097091089      11.604754007840741       33.92807793580549
  2533   1      29.746277178108169      45.269103657018313       11.08467872136503
  2534   1      5.4373246736326211      41.006225368620086      6.6959940615078963
  2535   1      28.279284692818315      16.182436015671708      13.462831172414445
  2536   1      46.285060426321216       41.50857368881573      37.648915877313101
  2537   1      8.7525308486603652      16.080697870976316       28.71884320988762
  2538   1      7.5650996684560328      3.0840922660753223       4.196597283706196
  2539   1      42.181714471311999       42.04261788185655      17.180969857592011
  2540   1      34.416405421362526      23.820646863176471      7.3307967199786166
  2541   1       28.23057480558143      42.640877862459767      27.216996677093814
  2542   1      36.902952243339314      44.734331999544956      37.349551068147832
  2543   1      44.983262277619936      14.996424508834041     0.14236740478222354
  2544   1      32.204642635640973      14.328930808280298       43.01599111403744
  2545   1       3.279489982804165      22.904029420769255      1.5148377250660683
  2546   1        18.8790363808229      6.5433615985287421      35.248288271015127
  2547   1      13.596027804899542      8.0906400925914443       10.23508556377206
  2548   1      12.820865876573501      21.799671643605357      41.559771812398445
  2549   1      22.497520033719798      2.6773722698327633      45.783098478410999
  2550   1      31.923514862000047      9.0985557927799814      31.733641036261087
  2551   1       13.93179260682186      6.1562762809715457      41.732429028900086
  2552   1      40.721142663398624      20.893977909572861      7.2798222243916992
  2553   1      1.5938036454044568       45.84414215856161      17.040628439937155
  2554   1      30.108053650146086      35.968465591419516      39.405375778043464
  2555   1      35.590996873487661      20.008742763207113      46.712677110616042
  2556   1      23.772405863494299      37.249929225765378      6.5827727415360648
  2557   1      22.339718324967798      17.059249805161773      28.732880551256397
  2558   1      26.919838933675194      40.216073748662566      24.971312139301006
  2559   1   -0.069026162057258825      20.487185702654113      35.946856494300093
  2560   1       2.887009687215714       6.842864118715422      23.571849128032461
  2561   1      26.094371539958132      22.479358271022818      40.334248285716278
  2562   1      46.908373396227383      5.7695144431451739      43.472808444680794
  2563   1      32.510324182624856       25.72765620530625      9.2586331995162165
  2564   1      19.241333739989045      37.739468795104997      15.397240610405412
  2565   1      31.782181255141722      36.079579531161372      21.638836415903373
  2566   1      18.560232551455822      1.4381403264503554       9.727196759445599
  2567   1      15.109808204019579      11.218656765893478      16.634456827613903
  2568   1      48.894558505256171      2.8935859263093713      45.495038033415327
  2569   1      12.123678950437556      9.6000774399641564      35.907005577569073
  2570   1      17.777330322691832      11.862320600125944      14.832868789213626
  2571   1      4.5368431382991687      11.829838980501991      10.076345862177625
  2572   1      26.124743204348189      33.492285298603562      8.7438461674292984
  2573   1      9.0452245808487071      11.149139605463663      35.361951358874123
  2574   1      21.011832191131401      20.188998529304772      30.566110484775866
  2575   1      30.216615865270317      9.0086185473599905      43.324999989506637
  2576   1      5.9433054815430086       42.40445429562223      26.156823375129772
  2577   1      17.269028490195524      46.215371996943084      36.370878259808201
  2578   1      44.465936441385381      16.025395605364892      11.095075069535751
  2579   1      21.306975928986741      18.813218359961212       36.95035125727788
  2580   1      29.467468240304264      3.0234527816032934      27.737333193236843
  2581   1        27.1687976683858      30.933860758296952      42.550518049637645
  2582   1      3.7107748727218968      47.435329047396046      22.006274371329429
  2583   1      46.197081043932506      34.927975132522228      38.065615798495536
  2584   1      12.370660738191956      31.903428510928393      26.371772930239686
  2585   1      24.530375350266244      41.856290018348574      20.497658592595783
  2586   1      16.687639791681249      36.747283112690482      12.840497376029559
  2587   1      42.081733488499459      47.934566829135107      48.211242779657624
  2588   1       25.41652410560177      24.740371694413003      1.7357632592882766
  2589   1      33.996811530178405      38.471188871399207      28.202322304161356
  2590   1      8.2583787856172464      12.031853991522846      11.644861082077265
  2591   1        12.1715368515703       17.75633568311456      34.094370625789445
  2592   1      38.024578739546619      8.6611424404499555      17.642854059853384
  2593   1       25.62685849593765      38.727524691926497      4.2063740078009557
  2594   1      37.609163800036981       20.37621648182089      15.487651930974135
  2595   1      37.948528067908974      14.556445642900751      49.157151187196057
  2596   1      34.448335542902804      7.0201119721376832      4.2691833554168843
  2597   1      14.069865360251994      7.5985337766526859      38.730006058621818
  2598   1      14.499091968519263      6.5321992158490856      22.933306555925679
  2599   1       24.80197590666759      45.825825083933296       41.24836440720221
  2600   1      40.882004957033992      1.7389746248810096      15.669225847033147
  2601   1      10.766961779275226      2.7595713995421098      32.383863665613745
  2602   1       19.53206024862623      10.080512248830992       20.36804543332293
  2603   1      28.425019483587516      39.492761319271473      46.154582581529574
  2604   1      30.259353460949267      37.736249631630749      35.362143589377922
  2605   1       9.219248707838938      13.076869540298571      39.229359886793738
  2606   1      8.3722409532724331      37.111608848059646      21.947230863803689
  2607   1       28.96427942056032      14.922789824994679      41.787976772807014
  2608   1      37.560163068032374      34.698902634993324      28.720059041189032
  2609   1      32.541767034833335      36.849716599471279      24.957958548657025
  2610   1      30.968941962861305      6.5748929241173553      3.7926280769166683
  2611   1      16.051809241103687      3.4839466687428327      41.866184165123116
  2612   1      19.762321184905954      36.016732153186034      10.054472563744543
  2613   1      42.275002637154977      21.413056719522402      29.388126969829397
  2614   1       6.281241326300135      39.430351245593698      45.287640766157431
  2615   1       31.72738056788868      18.198562068987261      34.882530619885976
  2616   1      8.8847265972551988      1.4761663086324159       21.08042577705254
  2617   1      39.812884179046989      34.415956660646792      36.660771157105479
  2618   1      48.035947378798255       18.58433178767449      43.894040199277534
  2619   1      21.856633535706909      6.1700032796906905      1.1396317292528479
  2620   1      44.108938102280966      20.046451554484424      6.4912810109003054
  2621   1      41.438341889761674     0.76618467191956308      29.033241948532726
  2622   1      20.918880909954435      43.146255387179146      35.670876775725887
  2623   1    -0.15894720934078077      24.363266256312016      36.853457173276567
  2624   1      27.529794412659651      3.6920089906274693      5.9048991106246378
  2625   1      40.486565403375238      34.358918807245679      21.545037051836381
  2626   1       40.49456750443678      25.616189707183455      30.702816114227648
  2627   1      24.835780686899184      45.924223162935832      20.415838671869999
  2628   1      12.742835224969134      29.121447933922806      39.172872060528441
  2629   1      34.772478961853892      25.109094564251677      21.178849216823671
  2630   1      15.108616157944081      16.717159393005733      29.492539545527372
  2631   1      33.488299367077545       28.90726886293475      47.221909893143305
  2632   1      47.443466308588157      32.900404315521143      24.816624155495234
  2633   1      22.126259228687143      23.694572529043118    0.084725383965643913
  2634   1      49.384780202146374      40.569232121655709      26.028964088561924
  2635   1      39.240525895857488      21.928516514224398      13.055481408215575
  2636   1      26.947725496419309      6.8701810332632522      20.604676391144942
  2637   1      11.312741247550234      31.457508933522465      6.6337986443290031
  2638   1      11.953182638392651      36.527890892787795      45.189784939908336
  2639   1      26.370622147177126       38.12086722175998      15.593239452376237
  2640   1      45.057504562327516      4.6873669344026014      9.2090159564533209
  2641   1      21.043169446598188      3.7212919909171576      40.468100812054381
  2642   1      8.3075434124712171       31.96990126100463      9.9218339188532561
  2643   1      30.946134635183125      12.543323926488632      48.714023892195932
  2644   1      38.234743813839493      28.205003945619005      34.396567331181956
  2645   1       35.26813173623141      48.091000905649899      14.696215029949455
  2646   1      18.139945554893483      13.864502556642549       38.39048075804083
  2647   1      28.377943272252601      48.033555051019235      49.717570543108828
  2648   1      39.802403702818509      22.475476190572525      46.560599033334981
  2649   1      36.975560371056446      33.095432023900173      25.856656995098021
  2650   1      2.7816422750012015      35.268851368255206       14.35147195916306
  2651   1      42.400688168593511       14.88933395708348      2.6260369209374153
  2652   1      45.567398930073573      8.7905524727855493      45.824134610314495
  2653   1      5.4369705528709167      5.6446405713648273       14.56022576096932
  2654   1      19.984748769802021       31.37918302487849      46.803509123196889
  2655   1      40.386868191012915      26.989421019969829      36.514850164520169
  2656   1      36.015203532361284      12.138294535221954      10.598780968706981
  2657   1      10.827163308843202      34.167193655579851      28.386158679797326
  2658   1      8.4925597352075517      25.427258075764335      11.489692994152611
  2659   1      39.684030809935344      15.469357335975888      12.026000316716575
  2660   1      10.784753728824024      16.590743761826896      31.192170552701196
  2661   1      36.289938435893475      2.5429219971456405      38.464311575011259
  2662   1      2.5501790092943364      2.2867590968923359      3.7669584803186082
  2663   1      26.317582122989084      24.583069881555698      37.567599650516108
  2664   1      26.772962926666803      1.7931971720128641      16.686154553282737
  2665   1      10.412079092678756      20.419931897235799      39.696092651705236
  2666   1      38.374217616004778      26.977203574694553      6.1629547392492778
  2667   1      33.098758389821249       23.99876572210627      11.740060714202897
  2668   1      40.322575556647863      29.235365320201041      14.954634614107535
  2669   1      25.236206445104294      17.206841693555376      30.905034451665877
  2670   1      28.271732306652762      1.3627784688832258      43.311742612513413
  2671   1      28.189067484290003      29.250885297670862      31.170046883617573
  2672   1      33.109021060135035      40.271891964877149      10.109260732616661
  2673   1      48.727320964502326      2.6039192802823372      39.067070411144464
  2674   1      30.191725118953361      8.7960689811924659      9.9614184884262507
  2675   1      13.859090053761324      39.276949776058466      10.006937639082482
  2676   1      28.654772512930396      14.026598328240739      24.369440153584357
  2677   1      42.272749507446257       31.18497169661666      7.8911533722143163
  2678   1       39.27632744935665      35.740459226255389       32.13403975287315
  2679   1      28.845850194939789      20.947762692990445      38.961662732932609
  2680   1      1.9272130582509985      45.068552873493651     -2.2048928346391947
  2681   1      24.357915963279577      23.647748114677334      7.6058756771136187
  2682   1      11.686394142016891      35.460195963436696      12.334194326833433
  2683   1      26.139746920744479      9.8946233595892679      24.439130010988084
  2684   1      24.478402220062254      30.351541676369116      40.726701579790031
  2685   1      4.3477373892318232      8.5343230045860388      47.528273796524601
  2686   1      14.392941789259801      33.228300379770097      36.505922897515262
  2687   1      30.762187690240584      41.042342788366135      13.085070201376146
  2688   1      48.451781440843547      18.434595732097005      24.430970913318657
  2689   1      29.949895210105723      7.6370595331897633      35.236370603899459
  2690   1      28.001070310797061      36.677830629349508      21.653875029170454
  2691   1      13.156204948906923      6.2171335499570439      6.7177897899048702
  2692   1      39.525406186547926      26.404212627907988      20.798178410397387
  2693   1      43.296631161011184        20.2870779397051      13.470145131438967
  2694   1      9.4597517800630779      22.454352105821883      42.314564851019043
  2695   1      40.642451592288054      7.2995380556424099      23.612405631820689
  2696   1       3.988228689690708       14.34564287123159      48.484539464500287
  2697   1      32.803761585300002      18.883061893479262      31.762226494331763
  2698   1      43.580041486521466      12.109610954050682      33.491490817735745
  2699   1      9.0017211694997368      37.918821721126008      44.056221434602719
  2700   1      9.0321853579306222       41.10806247270844      9.9161036107400289
  2701   1      1.5048798733795634      36.547585919926505      31.979461499418885
  2702   1       6.995239710218109      30.972569201273455      20.044254783026116
  2703   1      28.280244321219577      22.270542764857026       36.09024208394478
  2704   1      31.285047146158419      19.881701507451194      8.7547864637062602
  2705   1      28.177694185668244      44.880812501838676      48.654334634063233
  2706   1      28.389313379678836       38.52690566866891      42.468733288489048
  2707   1      35.430287274817225      51.167467824724348    -0.13862941521964356
  2708   1      5.0539116964179325      8.4200014779578112      34.777251683916148
  2709   1      35.130499253586912      29.123963685520376       18.40230142134833
  2710   1      33.481152552561262      31.175057814697126      36.783951212662274
  2711   1      10.153613520441359      46.707712455499241      39.564463511299621
  2712   1      28.986287679090267       4.291239554987011      15.226367316181429
  2713   1      44.786848981288038      19.913765210581378      19.751787507669949
  2714   1       36.75252083704077      18.897779936057276      31.319499590178495
  2715   1      21.965957581872441      16.477673681580075      17.988774102511869
  2716   1       17.91524139771024      6.1126719365246194      48.453004422829856
  2717   1       30.10653213783975      26.840282652354826    -0.86767393379579694
  2718   1      33.585895260564072      40.263406644747633      16.468286087919253
  2719   1      7.0670312123231094      43.776945151351391      36.994034702335817
  2720   1      46.846182682839739      39.177830468525933      45.487236123717189
  2721   1      28.541968965145998      28.587961034204234      19.517518642545614
  2722   1      16.504314883788041      12.043982269819907      46.547862227208455
  2723   1      3.0492954025276324      22.036253389780793       35.92970331678103
  2724   1      33.902781345275741      26.194767891010738      27.966619622310926
  2725   1      22.398625309663647      38.056581594598846      16.229618783856882
  2726   1      12.448037555487993      30.478892698792055      35.664191363803589
  2727   1      16.783322850761838      33.540081962338007      3.6907912326470389
  2728   1      45.307192963936089       13.79806484202166      7.0254731239667851
  2729   1      7.6844515794205011      41.324441990714085      48.050329888164626
  2730   1     0.77201434881147513      16.523238991989935      6.7984019541267946
  2731   1      37.133409496413094      2.1519231499097353      20.244020692324707
  2732   1      15.707594649362825       25.22958511454134      39.440973033485527
  2733   1      8.7879369985391609      17.545352191039729      46.744672451150372
  2734   1      11.197939156086139      5.4439203868687294      18.401032320434336
  2735   1      37.795495894435327      14.697571831043318      34.629767698295609
  2736   1       27.13525753283983      32.563710877884837      32.659881729317092
  2737   1      19.424954970580966      35.698796675420077      35.976675149387745
  2738   1      16.344231375732232      32.689315822290069      33.786907234498315
  2739   1      44.470145288474193      29.232032182843486       28.91468758783234
  2740   1      42.187850905936635      18.082397461498552      26.344870703478215
  2741   1       39.97051500897846      30.641177271459508    -0.12562620200221294
  2742   1       16.20955840833248      9.6671181225396055      32.196938706737335
  2743   1      0.4907903919764785      44.790041822299102      21.439214286739666
  2744   1      1.1424779895795352      9.7391016927977727      47.564572574789594
  2745   1      5.0185711547845058      28.480915266975654      41.882760243115406
  2746   1      47.927252425320503      13.257963999142953      14.102241718037092
  2747   1      37.715009880316586      23.582878230629664     0.99216188827863983
  2748   1      8.2125627933600143      37.597211851730336      18.732715564042415
  2749   1      34.554456900188271      21.779487755089558     0.73748933020975616
  2750   1      4.8831749462917085      33.431205113499338      18.131717295258998
  2751   1      16.751584135939332      1.1620215958816142      35.731327443597351
  2752   1      2.2164731452774546      23.093047549101485      24.326364053742026
  2753   1      43.379117357589401      37.307481732729499      7.1366143554605559
  2754   1       38.34428621761483      50.567059108452071      2.4984753366624437
  2755   1      5.4434852690654312      30.000822443970755      26.780829037297245
  2756   1      11.199701579874754      27.880439536087511        1.49791773532462
  2757   1      2.1827325606882142      44.585583583969381     0.84777035076019769
  2758   1      7.9207437310170068      36.861775508495839      52.699636975395151
  2759   1      40.102537551081227      34.135094846168954      26.397618237414754
  2760   1      3.8748309652371464       6.709035426568966      5.6547800419537069
  2761   1      24.304267464898953      38.334132809449855      46.769142123111401
  2762   1       12.80827561472654      44.612935927133876      13.980061894488699
  2763   1      25.293659918930931      43.438777810553653      13.319425638616922
  2764   1      33.195179520036262       15.11319106970822      39.370189211405489
  2765   1      37.625803231927279      18.144230998783108      9.4506084209462031
  2766   1      11.068859651234947      32.478354846853151      18.261920855016641
  2767   1      13.835878083434551      41.197397037755216      30.627327214490467
  2768   1      40.755108267239798      38.809995199877946      10.733793774237219
  2769   1      39.956760201213726      15.639915867184969      18.328227581031815
  2770   1      41.661405614270691      1.8507564350039523      33.361429707327588
  2771   1      25.656791630140816    0.022636458357567984      48.219582880696485
  2772   1      42.946031154206231      41.148080905147154        35.5511492463773
  2773   1      36.689484374764881      18.699767677718153      2.4792095699544614
  2774   1      16.718217144787118       22.76036559482397      26.134005958087833
  2775   1      44.177125706340327      46.824324630136587      24.012917423605266
  2776   1      37.696173073524001      44.697441028773383      13.467201309536089
  2777   1      43.369331800776024      45.688508348309334       2.648436924711274
  2778   1      46.793073711225915      8.7377481283313596      32.455129053283734
  2779   1      5.2317310417112273      42.457634729206546      50.098384254766202
  2780   1      34.759705312869599      45.291250110193729      45.261962951615629
  2781   1      36.536993663464663      48.238522240993142      48.314575301287718
  2782   1      19.410772345801938      47.494051819138136      31.941692608026042
  2783   1      45.388139905136377      45.182075583827412      41.067365005615926
  2784   1       17.53184473456977      8.0829577303708984      17.043586060616835
  2785   1      32.930928477983862      48.931367999883634      18.953988697226571
  2786   1      33.023554391575061      16.703156071630239      22.728306668933616
  2787   1      5.4063024164164535      39.080939597945047      28.224672280584706
  2788   1      2.7145769990503248      19.996807949900745      10.788167258871669
  2789   1      3.6465978498365001      30.224836650212556      44.503319258802051
  2790   1      2.8617159090013291      41.663287351874317      34.253258134138768
  2791   1      25.557910752605324      5.4964672395559528      37.398386272277349
  2792   1      46.707073138394229      23.598413125013884      39.545555979440003
  2793   1      5.4687905254999762      42.785145831042868      29.407417968445614
  2794   1      18.746617325656207      27.132978832015173      15.869695016398957
  2795   1      41.920839264049874      24.153733662599869      13.939237562232895
  2796   1      38.033846280877704       5.581549619906923      18.530633992036648
  2797   1       20.41675383193969      37.320500899861607      27.994760516090469
  2798   1      40.218016504253754      18.986744416101928      29.966725555533476
  2799   1      45.141803140066564      32.333009246089041      32.699814261244995
  2800   1      14.898931172503415       47.43745500989958      48.336807185176433
  2801   1      20.690345442368148      8.5033437322304941      10.457550520976326
  2802   1      5.3246748084974662       45.06456613851347       5.477736233011135
  2803   1      33.331882185303613      36.446621724925947      45.460762417637021
  2804   1      38.388751646449279      19.997095064259071       48.38021574358909
  2805   1      22.135685599221269      43.255615663726296      13.784524596865737
  2806   1      31.391928437300404      6.2625722824887475      30.008787055728316
  2807   1      1.4830467220075849      42.641303431920434      37.291033998289791
  2808   1      22.777600637979749       21.45922994690185      27.551929819497119
  2809   1       14.70518494160412      14.179648569522854      48.171031549851939
  2810   1      30.613625659252005      25.592654445405483      29.192488999193539
  2811   1       30.04847702119709      3.5289642766534746      48.505836578814964
  2812   1      24.915614169895008     0.74860172239593159       44.73170305078898
  2813   1     -0.0861709831137282      20.145469130174483      31.826863025311319
  2814   1      26.160882141501894      21.713412157067566      46.252732691405704
  2815   1      37.176959518687376      42.850158555149555      42.981219214384929
  2816   1      39.568729984572684      20.800425533540384       3.843228717005013
  2817   1      37.768846812069491   -0.048614717487467381      45.310142014891383
  2818   1      8.7911954515451036      37.610024957814602      27.892392809657633
  2819   1       18.11877080316394      19.038814676087675      31.762368555760439
  2820   1      43.236778374404516      11.425768938404364      1.2088216567565706
  2821   1      4.1870904842146084      37.460357575021142      4.8156644017764094
  2822   1      26.722197210895757      22.162508859476876      32.445095855866093
  2823   1      6.7611031594068267      24.057362152475253       29.09513345886959
  2824   1      47.741645986362059       29.96853459713784    -0.14278637753419371
  2825   1      44.780513203157341       45.04811166027428      37.359802768935552
  2826   1       32.49500262540576      7.5419236625635744      27.459164907478211
  2827   1      21.985977344753643      20.246515597731886      11.596105491303009
  2828   1      16.362322219060818      16.065200103486063      24.820811402830945
  2829   1      33.780920698147753      27.522698368234266      13.062998123796959
  2830   1    -0.82046143153755546      47.513002463445034      30.408721601154184
  2831   1      29.319397681127668      1.8987766781963771      24.726720110946847
  2832   1      45.352354085127949      42.141975800443277     0.43764392044421707
  2833   1      42.100396293549913      37.648290681143969      36.178994440545942
  2834   1      23.184064880081138      5.1317855736753089      34.525112143164023
  2835   1      37.754151431671467       45.04246821620567      26.001379137393197
  2836   1       41.24021036566819      13.336801277764192       15.84284548834567
  2837   1     -1.2833260810750022      6.9662581506403471      6.6391985336732242
  2838   1      5.8820075361283335      1.7483409042231288       37.30986931474088
  2839   1      35.787644952655839      10.820548483338216      25.151300928517049
  2840   1      19.689987920185093      41.016727850264601      25.593208315735765
  2841   1      7.9858722633108954      6.7902565081165971      41.797801293103099
  2842   1      41.405902216281845      27.419286925337936      26.728958476681598
  2843   1      25.479419824700315      27.767569147604647      47.476245131016647
  2844   1       38.33937665962813       12.04233443603256      31.196971246675684
  2845   1      20.535883451063281      44.076447779599093       31.63935260114183
  2846   1      15.678524372976876      43.375198189650966      41.474873717993404
  2847   1      4.3891259170127563      28.095546588201596      18.808840466119552
  2848   1      46.073844120765393      35.304438391733754      46.036879828504283
  2849   1      32.567110045580606      3.3026278976693981      46.035373005942446
  2850   1      40.329329146982552      32.431690804019588      10.282098651265388
  2851   1      5.5280367247770137      45.660245930150808      9.7752828303050876
  2852   1      17.681940541237584      42.175247744695092      30.925163223826218
  2853   1      22.450977445847936      5.4812588468011416      16.435114092309139
  2854   1      26.477182069871422      17.224001450124014      23.955657006264712
  2855   1      11.203946232090493    -0.63553389918499059      31.290935741054575
  2856   1      12.038711539176708      9.5707316668905982      30.475494306905617
  2857   1       15.47989158391869      41.696111261381617       35.46694608052627
  2858   1      16.993241205235293      28.675867485579097      29.683827281532174
  2859   1       25.55188659108693      33.381970955280728      35.414434049413302
  2860   1      2.4198437709971152      19.647456600405924       48.50751058652795
  2861   1      12.764222657234031      30.889971653636916      50.241008371779749
  2862   1      44.414096851776073        13.9792897247591        27.5941146455832
  2863   1      7.4551134158053944      43.674136661606013      41.630860585450087
  2864   1      33.598666530615574      37.324137093677869      8.8572311553173098
  2865   1      36.760607659321131      45.289955421584672      7.1067158385544378
  2866   1      41.738709618704824       10.46136013945706      23.383368617034929
  2867   1       10.08126657835672      12.186288668161067      28.582072929930547
  2868   1     0.83311590895342746      35.834085358778282       40.20542210362666
  2869   1      18.664930437707998      21.246597499717602      16.594585141281755
  2870   1       34.59543476130132      15.954844252793912       12.97674550964666
  2871   1      47.705225934870562      6.2803250069785301      14.869872984100189
  2872   1      29.083781722866838      36.565042314211126      27.323799265300384
  2873   1      9.5007996278476181       32.37299564105561     0.41330730068393134
  2874   1      2.4401469904548581      43.922303630622437      24.716095710243902
  2875   1        22.7809108440958      46.890987674777001      8.0077868106577412
  2876   1      43.999256506352047      48.006331033464441      27.053395861127814
  2877   1      46.030801300483077      41.899243048622488      32.074926813490087
  2878   1      4.0752113638560896      48.892772153347785      10.111174470895655
  2879   1      41.223914975740001      40.208283802499786      7.5789978550793267
  2880   1        8.60388508055747      47.172418926159239      11.354466533196421
  2881   1       31.85477151211937      6.0048822773926496      15.132793113088683
  2882   1      6.0577342357849675      25.943368769247318      40.195508449510832
  2883   1      1.2185079079205279      20.287285127601557      3.7748556572496499
  2884   1      40.838575368221278      38.301609084661713      1.4157772661750703
  2885   1      21.253537401986399      37.507786710322691        42.8893979595749
  2886   1      6.4308432763791146      20.851561894243918       28.33348558579965
  2887   1       5.308585352988854      23.396336169068359      22.752266285217718
  2888   1      2.0724017891430542      42.250544257267414      15.692409930574479
  2889   1      38.597805053696966    -0.43006348105675174      35.534243266316679
  2890   1      15.569614946656376      9.5354804875694779      22.908843304041834
  2891   1      12.727441638622407     -1.4823006405945411      37.532965120224958
  2892   1      40.193108991485261      45.590967325969984      10.264822970016951
  2893   1      47.885265588415606      24.458247059394253      46.572979285145998
  2894   1      1.4170179673556325      11.243619617402615      34.142566065697032
  2895   1      1.3595310386382136      17.296880385562346      30.364528515821462
  2896   1      10.028258148067819      3.4365746374806116      7.0409337935856433
  2897   1      19.360834216517311      32.833921564551467      10.447483552439707
  2898   1      7.7188878312622062      27.418696788657485      19.158491236612118
  2899   1      42.961543971156338      4.2422884745977294      35.912110692264392
  2900   1       35.94494765380356      41.053123240975623      30.269826801758082
  2901   1      28.702167857204639      33.649026645652889      41.461525601392481
  2902   1      48.131268904860555      45.627162431954531      43.202074709713102
  2903   1      29.953291570456649      9.1626175345701739      39.824852039273189
  2904   1      7.4038100716111703      35.211341293142908      7.2203625819300115
  2905   1       19.37934948249455      8.5128060424322971      29.778908320202181
  2906   1       26.06424836312512       8.203275592535352      2.6984503977949843
  2907   1      33.767030914689784      33.777477414433548      13.588874461349953
  2908   1      16.314042969048071      2.3272045222619591      24.542548436152167
  2909   1      4.0953256515274132      14.583227279353286      20.035638866617461
  2910   1      30.004277180752258      31.881747202848864      15.425458035347399
  2911   1      6.8663616236801186       38.79532801689426      8.7610954919835695
  2912   1      31.100852648376943      14.770551769347799      11.826618257888111
  2913   1      19.283329220267774        1.67789807431476      21.616972320247953
  2914   1      23.040925347462334      40.836676875088756      23.308488671383397
  2915   1      37.168167121638113      42.610880479221038      4.9719496937617524
  2916   1      15.458942040008923      29.398235521253792      48.727892509654396
  2917   1      35.505624539088217      49.356540061866809        35.7020591234891
  2918   1      1.9601734813044316      8.1230672504532713      33.665546791885987
  2919   1      19.638966564826145      29.686181376208868       23.47062063688168
  2920   1      30.523943303591995      21.032430846980787      33.017324373666995
  2921   1      42.806607217748684      20.505802482239616      17.099823721978151
  2922   1      27.762494842848692      39.222004529106194      7.4778161438096076
  2923   1       2.287862020252394      47.149146610659024      25.588675740628641
  2924   1      30.480963611022872      12.003216717649726      32.023623779396168
  2925   1      17.466401860361177      1.0227461459353713      40.233733440829099
  2926   1      35.981723911453884      22.480238165555587      13.254298826528046
  2927   1      9.0059929105622061      12.913645975049983     0.68916432232321512
  2928   1      44.013844912881495      33.615915322520074      26.941473119501083
  2929   1      42.293955609432139      14.508751519838684        35.5555375433485
  2930   1      47.183557676105075      46.084777814845424      17.072374610581996
  2931   1       23.79791734578637      11.994090600250699      31.961442339071578
  2932   1      5.8977117396167058       41.93844555162034      32.831123737483068
  2933   1      13.490248960657178      10.377999527526191      13.744617475967829
  2934   1       10.38310308112656      36.020974049487549      1.6932824022622925
  2935   1      1.5251929068816252      32.835521651838306      10.410986401782269
  2936   1      13.237819820978524       17.03859878936629      14.317142105518519
  2937   1      3.6226727483499368       6.893684464935439      38.320491326486234
  2938   1      29.034746614581369      33.124554961226664    -0.31230803436914173
  2939   1      15.216230056858842      43.828438365614851      46.052283871865917
  2940   1       18.68009241632026      13.110352837189389      6.7381163242151647
  2941   1      29.324967310959433      22.639731640357311      30.097828981051219
  2942   1      3.8452701317038014      36.505777641053257      18.113409025983323
  2943   1      34.158765182151981      8.3099309598196438     -1.5943107943796198
  2944   1      6.0626302411612167      23.002228175417169      18.677139092030231
  2945   1      16.113626523633112      21.552245259860918      23.107747904420371
  2946   1      12.982801934223293       44.40605631906822      40.160080550536783
  2947   1      16.161690569754057      16.180651406992322      45.664517208960035
  2948   1      46.098411353852015      48.697236894590702      8.5337544952184317
  2949   1       44.32077813691788      32.786692697569229      20.228782318793133
  2950   1       8.180244354834894      15.595131485426329      33.663088565742228
  2951   1       21.04230114934116      33.818232979104479      7.8155547480992933
  2952   1      33.350974106623319      12.058444426868284      12.848959838152965
  2953   1      39.322855909409512      22.926891760405482      16.576987842239053
  2954   1      9.6606109443548682      26.960944488040621      7.6834299463681202
  2955   1      19.581068726626448      11.009602807682235      40.640767037205116
  2956   1       33.19845600178099      31.196886056868316      15.394448548612944
  2957   1      10.476740718722992    -0.05591278366597368      42.816681601634642
  2958   1        16.1689473468426      25.602138611845191      6.4243984053135694
  2959   1      8.3030845828481343      18.769912190527943      30.652924706023963
  2960   1      4.9192013751509194      42.569415364156704      21.764599209756568
  2961   1      41.259413448791733      2.4156228023678463       43.79871256402491
  2962   1       34.26213743308643      34.713503923233851       23.13249978509517
  2963   1      31.127032409473507      33.645300898653417      32.612145358566409
  2964   1      10.472676131987321      24.434395796097647      2.1657196810952706
  2965   1      24.878519536685999      21.768012515934579       10.43817081031869
  2966   1      32.563014484630635      36.445267181221219      2.7863728600901392
  2967   1      43.042059225803236      6.7860159085374097      1.0020056916177946
  2968   1        21.0853265537684      39.706577472899596      9.4545793082609322
  2969   1      32.441436559120532      3.7410070763541166      27.485435098055301
  2970   1      48.477011587282789      2.0100032339067941      14.129428000067273
  2971   1      16.015337374180337      29.905191780319718      11.290300795054376
  2972   1      41.446027083181441      23.390524924656429      20.065545705969424
  2973   1      42.607845949508764       30.60581538945998      31.927602795485015
  2974   1       6.879113929407267      12.947584336999387      31.257196325929247
  2975   1      26.389858497655887      25.479241568340669      4.8743673340842744
  2976   1      38.097792982575065      12.573848523798766      46.381890513082872
  2977   1      6.2129114463430986      12.478120062686569      46.988982988979323
  2978   1      4.3520770943414862      48.213302352693027      31.749320928577628
  2979   1      29.807478517610708      8.3997870408414688      24.284413846265156
  2980   1      17.266852013641316      6.1359450650733551      32.291892774318086
  2981   1      29.443215787424801      17.012307220435382      28.634670890413826
  2982   1      28.759301560158601      21.315308810182952      23.437502785776761
  2983   1      42.184549010115795      23.231585915000139      1.1548981444099164
  2984   1      1.9026258104363387      9.8193802311815777      14.124333446220078
  2985   1      37.283997908551868      38.747266602046295      22.306572472436006
  2986   1      44.419193564382908      48.085491282481961      36.195774714614366
  2987   1      31.282975303862276        6.86531829380485      18.383322516964775
  2988   1      7.2208237026824067      31.655621801805388      33.498927599448706
  2989   1      28.600341221611849      24.217542817073443      2.6540693952983085
  2990   1      48.435571404976287      27.317506408418332      40.501269358412273
  2991   1       18.32626069452931      41.228135310083921       42.49563647733153
  2992   1      33.877636264136441      13.034782781537899      26.861567712606366
  2993   1      35.167964456679961      39.439987252136561      4.2583714436403532
  2994   1      37.360513081365276      26.512303823968743      27.661641443074853
  2995   1      12.435827104861845      10.385086580189707      4.4455837043163022
  2996   1      10.626168456857831      37.387435810851542      14.996586709243477
  2997   1     -1.0289383336674798      11.172012006772791      20.136372349004301
  2998   1      29.631270125504617      37.262493360286655      3.9004240981988838
  2999   1      15.276900673535561      20.064309806103847        11.3767569949199
  3000   1      9.1341632512429385      3.5735188958839563      41.907325763792919
  3001   1       14.23174014490419      23.930670106382532      16.012318478170904
  3002   1      37.089249240995777      26.220182570087005       44.42819731736499
  3003   1      44.485723448953742      37.306520704959489      27.956268131572386
  3004   1      16.605113689052995      40.396058028370454      26.618585193145485
  3005   1      27.223659789802316      27.317858969785796      25.252305177088353
  3006   1      11.818680041616966      17.945395515881934      6.6675077923667017
  3007   1      19.825187038610807      24.648127629370279      13.457835085175359
  3008   1      17.873559869314665      31.811408651465999       6.361001746119828
  3009   1      29.718917091296348      42.269406399348902      9.5435996209453382
  3010   1      17.419609913863777      37.441013870580399      48.092576160576208
  3011   1      21.451324197518289      1.9269397590704058      8.4789096012219218
  3012   1      24.418733809550787      20.008665291293287      41.985214139536531
  3013   1      11.313372149472153      35.391937076270295      35.116361365259223
  3014   1      31.448378321741124     0.59155518986140221      43.616722427844898
  3015   1       25.65312224870074      21.210925232471084      37.340245972320545
  3016   1      45.526751721175749      4.5091892463776384      2.7068946932463698
  3017   1      26.352773006375141      36.905797109618312       29.36204090628565
  3018   1      39.158020575514414      15.342321361759211       8.837601547046237
  3019   1      15.507423017458754      39.681726865951156       12.64707704767484
  3020   1      46.161935053437489      16.561226157872614       19.86433439467682
  3021   1      6.3499188705722558      16.538471573804678       12.62624575119124
  3022   1      35.161160068967149      19.634898331234425      38.229802512149483
  3023   1      27.899679789628689      27.296321746904436      12.372815366320852
  3024   1      25.825989604884342      9.6774870512510365      28.241065495090986
  3025   1      42.980522566071961      30.949578190784369      22.815778285609365
  3026   1      41.126172460577287      26.089380001725271      3.7420298971738588
  3027   1      40.251247202932916      40.227430735923988      41.306777630991455
  3028   1      14.093337520188376      17.248671739967037      40.048607411568817
  3029   1      47.578331161113972      2.0605006070705252      42.552651981081311
  3030   1       44.31503433274532        44.4293031361942       30.51397778632051
  3031   1      15.927449155702588      3.9301550872963129      21.600914674456817
  3032   1      48.782563519172541      30.586330412922759      23.030914395583487
  3033   1      26.483731685999363      18.912758056814731      10.667436105222048
  3034   1       24.88186356207034      4.6738859170239513      4.4430100954779643
  3035   1       21.64306050662983      24.432622022638547        10.8691828059005
  3036   1      38.867474404522355      22.033439304216429      29.865501255522275
  3037   1      27.535826856864997      5.4645198031063282       32.38208497360408
  3038   1      47.603285085492715      25.736970141704195      43.166092257206564
  3039   1      48.660307174593093      21.650643678489715      28.633620747580277
  3040   1      35.695915592618164      33.557336456589105      18.203941611519141
  3041   1      3.0657019547530719      5.3372501804922026      2.0857108970140219
  3042   1      7.1392887027955307      5.6571395681367775      32.353520163489677
  3043   1      9.6880877556936333      2.9451265883841233     0.53113983818349186
  3044   1      45.451236075201493      36.624273551578661      42.105102290948906
  3045   1      21.611567573845775      42.562077505469944      46.283688514253271
  3046   1      31.130191466219422      45.247251640142196      26.074153360968808
  3047   1      10.793155766477437      38.465993349727029       11.75975646339705
  3048   1      7.6528742377280707      19.618945423314646      14.161786872890172
  3049   1      5.5713452527180243      1.1228048499615262     0.47111937894822081
  3050   1      46.099568484774601      39.848106120184681      42.018712122766985
  3051   1      2.3518417707548931      39.200661758556024      19.709998453359361
  3052   1      16.056195213215574      18.875961665228147      44.060904120581547
  3053   1      10.573206865330222      28.637324118190925       4.842046422535998
  3054   1      4.7958765578242799      9.7846843407409878       1.738771654260147
  3055   1       16.06268883847882      3.8219425274824101      5.1551425543456064
  3056   1      31.358171581985907      15.306116120322383      31.917117307670114
  3057   1      25.063752072614026      6.6162604457477938    -0.43160492416699953
  3058   1      38.210260657185565      13.509704262916365      24.888601782193355
  3059   1      24.154437787915619      7.8577674931708392      22.283596583262586
  3060   1      47.760578358286523      29.244519937556024      9.9724450950782817
  3061   1      43.855606836901515      13.011464194561722      9.8162147981854808
  3062   1       10.06402092441545      31.857291838511745       21.41252899525724
  3063   1      41.064474324918287      20.531068826281615      38.095095538400713
  3064   1      15.232915136555189      46.944221774352805      3.9196928053145599
  3065   1      8.1840974890739133      31.704251831897942      16.936612694649256
  3066   1      3.3585802366089519      47.330508164220944      -0.269285540554632
  3067   1      25.504639015204631      31.777787631978086      47.973072119097907
  3068   1      44.730471168794686      25.397663469879511      7.5489348026535001
  3069   1      46.453623135515691       36.56062876922779      17.724472284527934
  3070   1      43.762984766174391      22.710316522868144      41.468106661860922
  3071   1      41.921399830726649      22.819001048128548      9.8187670017788555
  3072   1      11.431419478174126     0.46891108651947166       5.223405609052362
  3073   1      17.364844453527656      27.976612689103717      33.838743488929566
  3074   1      8.8291973861220328      47.661413672416728       3.491001654280927
  3075   1      7.0712554860893002      40.340761336810196      12.597457303187086
  3076   1      17.855564246704919      22.351394835685969      29.595914280405431
  3077   1      39.233309319303267      31.382507916415825      18.106991646050602
  3078   1      13.978991835954041      48.080488093708979        23.6101131453694
  3079   1      40.215554161207642      5.9356935267504207      46.936441710166079
  3080   1      13.064800569930796      49.425393512194539      1.5147939020843288
  3081   1      6.2283318893617734      17.033642445399249      39.779735168969218
  3082   1      26.406835736800517      16.660384817084328      19.026365774464967
  3083   1      8.2222392382296068      36.693022989323154    -0.80779511090810341
  3084   1      21.577447673579567      22.782906143598268      44.862352530287218
  3085   1      42.942182854602414      36.153683037385257      47.389610326902663
  3086   1      28.216108527514525      3.1570843502799519      9.6245465283568112
  3087   1      19.524653905718388      19.115355876775606      22.854065248526584
  3088   1      20.786193496697795      32.389874908885055      35.888370403251223
  3089   1      9.4003664423119648      28.406228593662412      21.802487216869768
  3090   1      49.183195941036686        2.51342059191964      17.387977636167747
  3091   1   -0.079110787859638862      7.0928299136378588      26.241209029950141
  3092   1       44.12327753265847      32.624862377991619      4.1522680417001183
  3093   1      10.340950984787108      3.1239175378015047      45.850719009379603
  3094   1      39.428692546910149      45.453620100322397      43.901193937872023
  3095   1      19.488427380466401      4.8914897337906043      28.506865489607542
  3096   1      15.850470273497153      14.281847707517541      8.6178808715410415
  3097   1    -0.47604111088257212      15.445490923463771      41.958781343187987
  3098   1      1.2824185690109873       36.14587512921166      3.8779772396548733
  3099   1      31.003677031340771      3.2760083949122323      5.3727959602900617
  3100   1       4.301948043301385      29.390634540684083      35.304282514195904
  3101   1       32.96685647786456      30.818944461445337       6.653998927866553
  3102   1      34.234828843419912      24.339406855882153      46.511902706143097
  3103   1       43.78014201005783      17.474116786028965      4.3453165869968604
  3104   1      4.5351952813182246      19.113378028514845      3.0622035993814554
  3105   1      43.401535596593057      1.8999343047490869      2.5025214921272401
  3106   1      30.269377942825692      13.007040638319765      3.9148213457055023
  3107   1      3.8105685411263202      11.230922044461114      45.005967673247063
  3108   1      30.578536457758407      4.9587324520394018      24.910273148166791
  3109   1      43.085958116347982      21.468335995944575      23.338241501513437
  3110   1      18.934808195160858      3.3324731709267756      31.540725607070179
  3111   1      41.070218977996831      10.399269826054061      45.794729852251656
  3112   1      3.1243100320821195      16.243695929110654      9.4889484675612401
  3113   1      19.974995268221516       26.85138825812988      28.708050216241553
  3114   1      45.067859351242333      10.450925970471644      30.323432591507487
  3115   1      22.576514524779988      18.204689339724101      32.940165512667612
  3116   1      10.719463327430418     -1.4610792562763464        34.9793621972278
  3117   1      11.986813031932892      34.806283706825695     -6.6711420150106227
  3118   1      31.453382006168226       31.45679063797855      12.532816459911638
  3119   1       32.16014196015837       33.30750554703593      3.4626670215456841
  3120   1      41.917173988035827      31.215187067985585      27.727250426975967
  3121   1      43.291252941777522      27.556607872409938      45.212535376960297
  3122   1      39.595845902728719      2.1401034293049683      40.971415005810059
  3123   1      14.750065665759506      12.019297406834305      30.072616367764507
  3124   1      45.307508813590211      13.435998508997191      37.699276966252064
  3125   1      20.925532685528786      9.5903914237414281      16.881672069292389
  3126   1      45.738037281997805      22.864295859312193      9.0755708057653592
  3127   1      42.208452165701424      7.9197984281621885      15.239903843349175
  3128   1      3.4773397576993559      37.831489753012505      46.950693234985394
  3129   1      3.7716762130022863      48.695681887508222      35.053601570850667
  3130   1      11.663915166140585      34.049512092583036      38.330908631378534
  3131   1      23.096944075100428      31.083304352333339      3.5542017881840895
  3132   1      18.336579788056262      35.831131158748022      20.405484651426217
  3133   1       27.24450815534486      17.198423128747624      6.7597759992504285
  3134   1      11.904940526376265      25.683854786706245      27.120943645187449
  3135   1      8.9689123830676696       23.40372827728811      39.215327307583202
  3136   1      32.054702652086547      41.684678862658103      25.859075073059497
  3137   1      15.096620167209972      35.002065085030615       15.71725273676465
  3138   1      15.264864048012379      34.500230476093996      30.917699863835917
  3139   1       34.62012619124031      16.487068538906477      48.581551095016025
  3140   1      11.631131738518688      43.187417702814244      21.776238554093297
  3141   1      48.930814478735648      7.7130353344276701      30.408025961048743
  3142   1      44.614545869706056       26.41495251119461      47.986387630048888
  3143   1     0.73079122455425016      30.714437051058994      26.219998900364338
  3144   1      40.103659529606624      45.738618850046223      40.548200267777027
  3145   1      41.043736285727789      1.1833264867664097      11.493458422861018
  3146   1      22.719063262304307      34.805177762032642      36.546179363907449
  3147   1      40.803161438421334      38.319654600912138       15.55526342935867
  3148   1      17.987025830047354      41.351575533524198      38.889111376593171
  3149   1      19.525238039668338      40.722167452591592      13.423428001087304
  3150   1      29.921540702968823       1.107444065830534      46.406779219080597
  3151   1      16.619076527446531      6.8524301837490764      12.560711377063267
  3152   1      11.953010772312997      42.871199419834028      10.700325351729763
  3153   1      6.4539809697076107      45.651372587079152      1.1255601113694693
  3154   1      14.336525994574892      22.263054909404378      44.626558149123355
  3155   1      41.738486978675127      26.813238482968057      33.327481547407693
  3156   1      28.166962607522489       7.522692181694894    0.053243469110722912
  3157   1      20.614324234087032       40.40636930882129      3.7792902929678296
  3158   1      22.647009729278487      30.928494954218507       33.15141286311011
  3159   1      19.745416293428839      45.904556706450187      7.4776752800614403
  3160   1      33.237632261755465      5.1036609289165495      1.7781896051673283
  3161   1      28.946024769285668      43.687818033306328      6.6896978319067175
  3162   1      8.0469806438211258      10.600165169480798      3.0054834220806113
  3163   1      12.094591131789509      46.203636310574709      25.345841093416414
  3164   1      24.105893570405563      37.511267451056192      40.689586183724444
  3165   1      9.9049764292036784      7.2623625012500579      37.838265567323724
  3166   1      24.834548601299396      5.0316770972522571      27.805166211847638
  3167   1      30.385090448829253      24.886972081107704      26.024330578945442
  3168   1      25.329363752159146      38.688898638989635        32.9133040742338
  3169   1      4.5631966750734128      47.544275679894824      3.3465892898225156
  3170   1      30.998387754321922      8.9821286760104719      6.7309912472504942
  3171   1      16.486550515114939      40.070083328322227      21.267809963785339
  3172   1      11.340940490845121      20.908990584497214      45.044214005532581
  3173   1      35.429460873416765      13.291267132541321      37.681749045493973
  3174   1      9.4537433439614453      47.052594158781126      23.445232404603821
  3175   1      20.617489283172858      38.026661423735789      32.472036222569656
  3176   1      41.170550511973218      24.101605163557672      27.080003819810365
  3177   1       34.99796325029584       43.77535252852261      17.272143120534462
  3178   1      9.0117280730568421      44.236523703703632    -0.84639213462293428
  3179   1       19.22648519140111      7.6801854974296138      14.168047931409683
  3180   1     0.21482785379811523       40.75286067336819      32.478062850541299
  3181   1      44.237444393708657      11.722059833616157      46.202037022258281
  3182   1      39.481667666736101      40.611730049045775      3.3908537745418483
  3183   1      12.533036909103316      44.187248770081958      31.816046532906846
  3184   1      53.244661303114889      33.444356378043942      38.265159902591456
  3185   1      40.535616833075558       17.10190366987019      37.835444119845896
  3186   1       22.22022591416782      4.1121224643287402      10.927565237745799
  3187   1      23.499665807232653      45.468798605084494      16.583688928200168
  3188   1      20.567888670351721      10.545515749896019      36.301430814621682
  3189   1      10.738046431233744      16.582892427104643      39.194642023395602
  3190   1      40.957184862532891      26.062124382762708       48.27094712301853
  3191   1      42.919790774420733      15.673787522797031      8.0257493437092826
  3192   1      2.9719106470417067      22.289477019754433      40.406145917498691
  3193   1      25.105791284202734      34.925997765333804      47.523078997441864
  3194   1      35.541188725491459      2.6767776066898037      32.604441250948199
  3195   1      27.632054011668323      10.183008181066384      13.096469153246407
  3196   1      8.6918478909549979       35.61186582030701      10.993430021567677
  3197   1      40.183155709688023      17.752782634213354       5.852888680610536
  3198   1      36.548910572389914      4.3965354996395307       41.91689720950032
  3199   1      42.377601158817086      36.300989312891041      43.726015901481325
  3200   1       24.91976000705079      14.321790040094207      33.827531643841638
  3201   1      15.568263328722644      15.484070882559301      15.771042079270403
  3202   1       13.48381690298263      12.695517666972483       45.45189457148382
  3203   1       39.60998738845916      5.9963964402945491      35.806410949480046
  3204   1      46.595167270647991      31.817654758264027      28.482183968886762
  3205   1      34.378331395123062      43.706834243007691    -0.28800799811781019
  3206   1      45.942157264458054      16.999555155825785      8.3386583749100964
  3207   1      48.712985728136999      46.954602127623502        36.4794904342641
  3208   1      11.888003863978616      22.267436389130712      18.479119014835263
  3209   1      15.621423854801838      21.193905738838506       38.79771669613956
  3210   1      11.567880567351599      46.815665938046131      48.582147383204571
  3211   1      9.8256888885593607      42.784093879633915      38.594889821698473
  3212   1      40.401667273143822      13.563751397636771      5.8485836155129416
  3213   1      37.167000970282835      28.165526067972049      9.2416667610536827
  3214   1      22.319890026420119     0.98446284457685884      37.617408017081154
  3215   1      46.728572147566808      38.077003199631243      30.564702691121703
  3216   1      20.452793563147669      5.8868610661922611      19.781336667362627
  3217   1        15.9364140847601       30.96829737865351      45.598907524164119
  3218   1       6.758512200470248      43.664431308748895       18.26288643045865
  3219   1      1.1181275981929575      40.177407878035908     0.27718290243851157
  3220   1      25.613725247060106      2.0588120930956606      30.992864625166778
  3221   1      29.103974716698364     0.49932264548615396      34.967994307109983
  3222   1        35.8123120262415      18.898960203787798      12.526888850329827
  3223   1      51.523707163017335      28.586104709340418      31.800511053307346
  3224   1      32.943810863970754      11.360510123088709      9.7522949220086854
  3225   1      40.485040079042641     -1.4264221991748043      14.798459364668371
  3226   1      48.835838097301497      20.568868336376156      40.806238432029431
  3227   1      46.884417798074487      2.4753614052983237      35.558082273700748
  3228   1      36.538142986166939      24.486944227326365      31.308286397832877
  3229   1      39.350048529758965      28.131330801282967      46.513936839531624
  3230   1      22.730789409740069      45.092087724543163      43.137592581381341
  3231   1      32.258971032318954       30.61159153314545      23.725964757152372
  3232   1      9.0673987411971773      41.301749997994044      44.375734341293487
  3233   1      6.2093956377474955      27.441314255753237      45.787173838486204
  3234   1      43.052267088574006         34.244058152845      9.1580258537693631
  3235   1      32.576194151546346      49.169699045387468      34.307114613169169
  3236   1     0.13858770439472856      23.340817269539968      31.741324022555148
  3237   1      5.4344667139082778      16.619072671359451      5.4214044290232142
  3238   1      20.340086818698758      20.860237318766067      33.751441195932969
  3239   1      9.3900339038142562      23.469954421620347        20.0595473268185
  3240   1      15.474482849355388       26.89313951168689      10.873214582167696
  3241   1      30.494785952942468      26.159410872593693      5.6712218106902901
  3242   1       34.43478538351421       43.58206296261573      33.405436341006627
  3243   1      8.6229719506473508      21.276454262315642      16.826431674352452
  3244   1      8.7055391370383362      22.877475395430228      13.681686915815639
  3245   1      27.739694686494911      42.179846963114187      16.800961096502299
  3246   1      23.794364862242745      8.4755871059989136      45.293278927865927
  3247   1      45.553886568320948      41.332504490530091      11.288756833342976
  3248   1      14.687145744256673       37.93429481970184        36.5501653945934
  3249   1      37.594414940556156      7.7854123571106237      1.8111104506526849
  3250   1      5.6006766154107082      48.252676044161817      28.625768272980245
  3251   1      20.724310381341986      17.044874816689436      7.7726883696403215
  3252   1      23.210335311728247      13.863738774221773      47.638698461568914
  3253   1      8.3609337844163818      33.979445793257327      19.283095573292609
  3254   1      17.987551139901367        11.6647757245861      22.884431494333636
  3255   1      37.065485316128338      6.5495548859511592      15.336236319028391
  3256   1       4.399785732977918      6.2283359152452489      30.652319938146665
  3257   1      28.558180695342632      13.568274361294417      17.542489444747634
  3258   1      21.694801967929408      15.718417461354974       35.77376240509362
  3259   1      5.6563658717416105       32.79501498200878      14.494289519367197
  3260   1      48.307738528637906      11.177054390676181      31.029744309025894
  3261   1      38.017310087347589      8.0705821965377424      10.099447691710063
  3262   1      1.4866126386323943      13.112213805308183      46.480765720446399
  3263   1       39.98623771255847      4.3855008880710473      6.0893816549592392
  3264   1      18.305131729437853      28.290782198104985      45.903129560326704
  3265   1       7.776203943431498      6.2641350093597854      26.915650062315088
  3266   1      35.870631193137108      46.976993568676548      29.121486837995192
  3267   1     0.76062793582618937      47.474247296815818      50.384174736038474
  3268   1      46.232977850935185      17.530115640991436      51.204348940891855
  3269   1      12.383196305037574      24.065780063039789      46.461893935976775
  3270   1        7.94626861963983      34.815467950981997      41.750549446818823
  3271   1      37.677832992127165      30.982740069124645      36.077406639996724
  3272   1      44.292866520185413      7.0331386510165004      18.204525057260156
  3273   1      6.0475843256263708      46.314152704286073      16.161805397482723
  3274   1      3.0561256768447973      38.731094542046129      37.930377182000782
  3275   1      39.452333599658104      44.300938696805034      34.615689838428295
  3276   1      35.812473166156799      18.253834488979866      42.645886501301042
  3277   1       15.58755785574135      33.207968163279872      24.761837899108777
  3278   1      1.8439300976916959      22.292231287654804      44.733450046091981
  3279   1     0.98608936532218394      28.353411534010423      4.8317682354241498
  3280   1      9.1381109410092414      24.759920720375973      5.1292917785381249
  3281   1      41.488719131349093      24.205555817863917      6.7301693683455168
  3282   1      44.215617079908014      39.871235778222271      47.390137187872568
  3283   1      46.263565256561499      35.950613444300387       23.82430616890435
  3284   1      22.532625951308866      14.991729550178539       31.27296043165008
  3285   1      16.996517770728666      21.673873148854653      35.706470254749114
  3286   1      11.636256448244961      13.010058011545176      36.044642766060363
  3287   1      21.695577351065129      38.093749567323414      13.023280488750352
  3288   1      27.898635041441416      38.453636210199562      18.899822343001855
  3289   1      39.159949687954359      35.801741765974946    -0.43682285246103619
  3290   1      43.467002493139425      16.483370191574725      38.628037817466968
  3291   1      35.133429427126494      28.810673450509352      26.401134705493455
  3292   1      32.468899516440558      21.466318051773332      35.697878239673905
  3293   1      46.989749481081901      13.966186256421189      9.8631473880997032
  3294   1      7.9278299261887408      9.6588218992785446      39.544679815537833
  3295   1      25.867621474787633        22.3302810576028      14.351679892704182
  3296   1      44.408958015828375       7.126356855531272      41.660238331102008
  3297   1      35.929498309829135      37.521602171141716       49.15215544669632
  3298   1      44.247665749200443      40.325367978298132      29.612887925250398
  3299   1      38.226266113286243      6.3514490516541242      28.094617289614021
  3300   1      1.9449952206919814      46.613989416235796      33.313599951123955
  3301   1      32.011360359080214      30.486548647517179      32.886854007529941
  3302   1      19.336348745829177      48.868672857269068      18.409783735941851
  3303   1      18.074624715653314      37.924858680740726      42.296265127898856
  3304   1      12.498014258423945      10.924226375045844      26.888570354759263
  3305   1       20.59181203031962       14.57324652845093      12.183662542445942
  3306   1      23.031251097498998      35.749332080372803      9.7853360690416533
  3307   1      14.711239100273787      13.639865854005219      23.523919745486733
  3308   1      45.224902906043035      28.888981665970377       41.68994138668775
  3309   1      21.308590298128188      13.951255873812999        28.2569065368439
  3310   1     -2.6786431963845185      25.168241607030204      35.120048928111061
  3311   1      9.9977998831812176      18.437021687088944      18.195317763234616
  3312   1      32.694417182365868      24.932510442582412      3.3982289263335148
  3313   1      13.977685399197282      20.882093572820235      34.665163160700111
  3314   1      22.192739968986164      7.2122072736325897      6.4195982007546721
  3315   1      4.1365766059325262      47.452575604535035      42.835347195113791
  3316   1      2.2644220675611191      11.067381920243102      17.922429990556893
  3317   1      46.646569824956799      18.602611815814765      47.060417888874696
  3318   1      1.8856446839937295        46.0631587172902       28.92849940354051
  3319   1      12.923977749489614      15.565559188349344      3.2634323107242165
  3320   1      25.519529026783815      16.186046700389525      47.529532646441524
  3321   1      27.901340274061745      26.030141553823512      32.214017149266034
  3322   1      38.311968823367607      33.703568484964919      6.3810233838887909
  3323   1      14.631930775326383      32.029419902696787       14.57691488459972
  3324   1      14.306712262385757      1.9462815977818966      47.318233088323559
  3325   1      39.804262140619585      37.412255547427144      38.850538834805072
  3326   1      39.470961863206959      20.483159170130435      21.873312932086797
  3327   1      35.590740085088257      13.972390676920362      41.022091771232091
  3328   1      29.280073607449005      7.4393708582434357      12.890004623302065
  3329   1       8.474400459915211      24.944860464565746      45.076695633183306
  3330   1      28.177291274062043      43.072348413136382      41.096055790518598
  3331   1      31.072670653238426      42.730354856902487      16.192025716360146
  3332   1       4.351716253389263      30.168324400620055      47.634535540358669
  3333   1      8.2020771862481503      18.580752230426267      25.492737183222008
  3334   1      39.387664592310891      18.636328654237026      12.234586408485182
  3335   1      22.779289544505502      35.339501946344122      27.869531719972027
  3336   1      16.431548812860687      18.722541200033135      7.8253842113479051
  3337   1      33.766148468651984      2.3453833923800089      16.604772767758259
  3338   1      8.8483872251517752      21.072511487181171      7.7589063998936449
  3339   1      29.704411826495889      36.861097221419776       9.604492498618793
  3340   1      3.1261822078597303      28.712298031454832       21.77327911234649
  3341   1      4.1260210189256163      35.860736395424524      40.279265061232046
  3342   1      42.918244186358599       49.29425569102964      21.085097537635896
  3343   1      2.8206065823094084      42.601816635472069      19.343299545754615
  3344   1       8.683872664606259      39.185726753576319      30.668059151102664
  3345   1      13.049439097060386      5.2818598169740705      27.953810499493066
  3346   1      19.929297086915099      38.323840097722915      6.0588881611096816
  3347   1      18.421193010032702      25.833682801760816      31.709743040259966
  3348   1      39.190049752483738       40.28220847540161      13.621820555701694
  3349   1      15.335246783823564       35.79666232326354       45.19583476499988
  3350   1      38.591662177878831      4.0876582727195281      30.182170465660597
  3351   1      23.652796695956898      45.114713264002589      29.760389379407556
  3352   1      29.156121069278758      1.6721301402293953      31.756368102224542
  3353   1     -0.7870314508149705      6.9517209985586872        48.8801690284429
  3354   1      45.759862462696837      19.573561450368569      26.090813788140114
  3355   1      4.6181654689219025      44.747086305176829      32.441184518743221
  3356   1      37.124331043060472      22.968853274053625       22.97587643843578
  3357   1      40.988534947515774      1.6124678123759819      4.5990756412799252
  3358   1      40.926573103888515      46.513505041811555      27.280460135763427
  3359   1      7.8398712283452801      5.1723512030795815      10.547046864940416
  3360   1      9.4758968929017797      43.185090132002294      30.710429551645035
  3361   1      28.723149485042093      37.548673778689619      13.168113787153249
  3362   1      16.846971744101584      7.5481543275024281      40.681023613493309
  3363   1       9.629709977043083       36.65961181797568      39.422077249230256
  3364   1      12.207585230398845      22.756258068265886       38.36802995668674
  3365   1       41.95127711099348      27.793282481326553      9.0806567753326721
  3366   1      34.594586753652663      39.403006742819983      12.959046654765547
  3367   1      44.696420340613464      8.1451914642836147      36.330961215856718
  3368   1      3.9962342785748288      33.149328058081416      27.421750875473268
  3369   1      19.290451955760489      4.5120756800449771      9.7968226951114321
  3370   1      15.985098476830979      30.418021774051059      20.978392589307031
  3371   1      10.251543506932986      14.237924276509444      19.108044913469492
  3372   1      34.321753806879109      48.846436693411555      42.050917399892775
  3373   1      31.436375794200774      5.1434895991848251      33.712222481226725
  3374   1      22.148511389881385      23.276518480738027      32.289686218313683
  3375   1      45.197296700167108      5.5761277671830074      12.258724883817752
  3376   1      16.926849985661629       28.87399159475526      8.1464617217815025
  3377   1       33.53802031775902      29.924524864398826      10.023420245653236
  3378   1      11.594790833047464      24.746316546290057      40.853161034041065
  3379   1       12.08397423104641      23.376076296412318      33.049546231433148
  3380   1       2.865296946144039      31.340188621296413      15.890910974763395
  3381   1       15.99387102658021      15.456770938962492       12.55485675129855
  3382   1      22.848355851222287      49.155825807425799      30.977677717255563
  3383   1      17.570189812472481      22.794040079193422      1.2266239780257093
  3384   1      13.008862649727689      20.968770161872158      22.112833135624161
  3385   1      1.2927736391354538      19.871987722770179      7.5213309255643868
  3386   1      15.253667582869969      8.8617139009763992      43.280921030455133
  3387   1      27.191869636879058      25.058499193718639      46.883665238457056
  3388   1     0.64838377728355601      35.097409739207151      6.9042657202712716
  3389   1      2.9568608089204975      31.631057466709951      23.991754335144904
  3390   1      6.4919115613792062      4.4359461057383527      20.516662309267232
  3391   1      32.723312247312734      48.015432083746028       38.54884213601995
  3392   1       31.65715206691139      18.866813248291873      4.5755261729299042
  3393   1      24.294642790854393      1.3769810371175546      34.068906403552262
  3394   1      25.870770384362643      36.522658336533759      43.284492354237095
  3395   1      35.159665299237183      29.338161395801905      1.4054017463905235
  3396   1      6.2797693436647712      10.760455325159574      14.200242919696874
  3397   1      10.836476419278783      7.8967414253018831       47.14506660550262
  3398   1      31.866593684861201      34.806672769468584      47.894950306711081
  3399   1      3.2790802404308659      18.525024409924484      24.518142057461439
  3400   1      24.625522952585094      23.127504254378145      25.496468605537572
  3401   1      34.869773429090877      26.101871521579824      42.057564122290387
  3402   1      28.759700542278562      47.861735888274886      27.971729871546561
  3403   1      10.380399255501741      8.3536969797514775      5.7762217414592509
  3404   1      25.241668838314979      42.736765742869729      33.647319914628973
  3405   1      13.604076930017117      28.521093840749923      27.778775904145231
  3406   1      20.607521316599588      40.803480769555371    0.087706038596351926
  3407   1      1.3919413756452019      49.006934795750119      43.481912438215801
  3408   1      28.129120330864389      29.483329237376939      47.929790222364595
  3409   1      18.021216953546794      33.866469951538107      17.385350870753435
  3410   1       9.159735072419501      29.314703973973863      46.365097941005288
  3411   1     0.40301188522377807      4.8581098976746162      33.372495238855379
  3412   1      42.865639893911904      7.7903520411122518       44.76467203814439
  3413   1      8.4075083562609372      28.968176656035215      11.578296726561678
  3414   1      12.652870767234726       14.51875434146352      29.021681054094401
  3415   1      14.699966277945782      25.316315561570004      42.853681153269129
  3416   1       43.35704710723882      11.131783241201664       4.837428968666047
  3417   1      24.187242771831965      34.264655816930961      5.1546933336147838
  3418   1     0.96768276259351282      7.5680759001268125      43.737907930354282
  3419   1      13.158349258530562      1.7063278619586173      42.286438587262381
  3420   1      13.909517884767702      30.570292380423268      23.110631872306445
  3421   1      16.738155673184046      35.963534067593166      33.596460759309686
  3422   1      3.2752745904336851      3.1895354910401039      31.291667141785322
  3423   1      24.155682798357404      44.071219323816422      7.2067519551886523
  3424   1      24.175285275004843      17.946347937838997      21.603684324040771
  3425   1      36.964692420746012      13.652252411885501      5.4535330631306014
  3426   1      28.240194872327528      20.762871909068767      8.0917323913196046
  3427   1      41.496694973033094      33.810477894412479      18.297143045329818
  3428   1      29.110125424719854      22.003309369796725      26.794576709039102
  3429   1      48.165578092906848      25.990203627006718      22.893204326947167
  3430   1      43.444462139090852      8.1118735828460462      25.244891122204557
  3431   1      15.562334787722582      18.026354514411967      33.813600184769385
  3432   1      32.046654675668343      36.034093885078128      42.459291799740356
  3433   1      32.612679521638569      23.179402925520062      23.958489285752233
  3434   1      27.252173295915988      36.104082662813774      37.678553547885045
  3435   1        18.6203747399062      18.268373158537681      5.7461309012612398
  3436   1      13.888925165184487       40.59452893198808       18.55254560724735
  3437   1      35.736583471291318      7.8831464795305592      19.744732975631319
  3438   1      25.080969228201564      28.726239121400987      21.360209341223509
  3439   1      3.1766520848779001      20.948733213604175       29.23942785034183
  3440   1      37.283443160693608      10.490283700004019      4.4621027576651278
  3441   1       23.73897566437795      11.455760349557401      20.868250575285224
  3442   1      11.759369060637429      21.528730865450591      48.482911497353456
  3443   1      17.991992836253829      19.434433368620731      13.251220440596116
  3444   1      44.363201546948872      2.6144965947384016      29.316138510403704
  3445   1      34.433250661556286      3.5096450961395043      5.5983409128414614
  3446   1      31.180458704178029      25.398124934988186      42.112212510427476
  3447   1      27.534245872609205        42.5110613431454      22.548750492508056
  3448   1      27.304590790615695      7.2046031419266212      9.2951800392228208
  3449   1      51.467979147544519      13.454847552646029      2.7977008517039073
  3450   1       36.48665943647778      18.625902060088801      18.514918532792851
  3451   1      15.324548861351525      18.143726474974425      22.340000590763918
  3452   1      17.148483650807794      25.213645238861105       46.40117026338374
  3453   1      29.035617757401244      33.772247666150001      4.5360134510975367
  3454   1      38.476235953117865      34.502227343354996      39.533302358693931
  3455   1      4.2069259691460967      35.231132038138327      24.528117808710885
  3456   1      17.347034912877909      18.043392176196182       38.87046801890633
  3457   1      8.6487157703152402      26.594706489093824      47.995521249617113
  3458   1      7.9808555125222753      2.8133408254379253      17.242054107995951
  3459   1      41.283134004333057      5.2438360471118841      17.541452422103635
  3460   1      27.374934148323064      29.268177301470075      15.318744952662824
  3461   1      30.138054535650667      16.507905791366873      21.046667143640658
  3462   1       34.68298511669331      33.153161781765654      34.258388595984229
  3463   1      1.9845880591367628      26.253520257293047      46.510805966955111
  3464   1      43.031209583205708      23.026911814354797       44.71677997458751
  3465   1       38.07700918932084      18.105284732421662      34.017530941353407
  3466   1      21.284904101751717      13.070378652415069      18.142917162804913
  3467   1      25.897878936928265      1.3759672448400417      4.3641849366811716
  3468   1       41.35094520273568      7.7114135593877213      38.171283975372603
  3469   1      32.577402837536802      13.502053851988833      16.116007206670332
  3470   1      16.039626147041364      9.0661983998027775      35.411075677018388
  3471   1      7.0131057793414966      45.971433720128914      20.798841944736932
  3472   1      48.836511036766424      23.266417963657901      8.5772894733057381
  3473   1      38.963922350160153      8.8907579575645208      33.818347469037924
  3474   1      46.523973793039787      39.329457303396829      34.836014323879958
  3475   1      40.289463152918458      48.095751430793761      19.745660938552579
  3476   1      12.831507302402763      42.068917714642296      7.5401432956969323
  3477   1      1.6473908536652624      14.741724914186152      28.069518666809596
  3478   1      29.011999633972611      4.1623671114019682      41.643364330340866
  3479   1      35.047417019965536      13.615806487336584       23.91251691483831
  3480   1      34.426793860115659      14.939758251233322      18.572130108922916
  3481   1      36.369904706071928      3.0945502217485861      45.444845583192858
  3482   1      25.721138751432971      30.987973054083163      27.924953397846679
  3483   1      20.685790797118472      46.695701091610339      37.734317540287158
  3484   1      21.567989386518647     0.64837728948386086      11.335995180583788
  3485   1      37.726690723675382      19.500133740113547      40.198971508833154
  3486   1      16.588225353370767     0.80321736368239049      31.363927108268385
  3487   1      47.190908362064292      15.211373166835113      25.258747452553262
  3488   1       36.96242388631638      6.8000211415558276      44.680097137346593
  3489   1      39.248133532461488      30.094965633452968       24.24388598411732
  3490   1      44.509147135860161      2.4977329180480354      13.354136715973496
  3491   1      14.269757455149762       28.28725493437291      3.0761628754334418
  3492   1      34.459350268784561      43.101219023132721      12.873304926640621
  3493   1      17.809450095006067      33.482242845594328      14.163821051060898
  3494   1  -0.0042339635030511028      34.313727659299985      34.424308743135342
  3495   1      31.018148151998414     0.78582460198191106      16.358950149102171
  3496   1      14.116670033362604      21.491511625227563      5.5412560998494911
  3497   1      28.361327182938343      18.908764949832843      4.3221339358512969
  3498   1      32.948202423872679      37.604112378156003      18.439389305162614
  3499   1      38.085045787070321      21.102144772121235      35.308639306549175
  3500   1    -0.14145560055641115      9.4854130422968552      23.024710471027085
  3501   1      24.753511174840767     -0.2432403516862586      22.322091469115875
  3502   1      20.582048654637628       28.70513264454743      41.258414981934401
  3503   1      31.674615845545127      28.837504306240795       17.70926360893214
  3504   1      13.103166143464186      16.310613981188279      18.933443586411123
  3505   1      30.491989765415806      9.5282488262292535      46.699553519047065
  3506   1        37.7734969979984      37.226978491501903      3.0311534522966075
  3507   1      12.743065248555959      28.517202298442239       7.693629857463292
  3508   1       36.80773484736644      38.889901497000928      15.885229555913305
  3509   1      4.8866975210137698      21.328489727055928      5.6504225974428595
  3510   1      41.873491682346319      16.372778617677785      32.553344262012217
  3511   1      28.326566748000609      10.764519739676095      37.450399141254863
  3512   1       29.03923165716013      35.704502795302183      46.420679840588654
  3513   1      24.855527921571781      19.466022177461127      25.738342069672342
  3514   1      32.731968059906471      1.4709260107565425      30.995706723643742
  3515   1      21.169850938367414      21.555317551998293      21.635627637709913
  3516   1      19.451458456055505      16.321261224814933      46.440791128179875
  3517   1      24.358508025536963      7.5428906636691613      25.896211225141951
  3518   1      20.202148377986347      9.9837554935973678     0.01171194401882953
  3519   1      11.988703756117152       15.00439095378551      7.7976626215888851
  3520   1       24.21644778099688      18.128416389332738      15.118623754762298
  3521   1      23.745004962905803      18.989921996181057      8.5473062613047599
  3522   1      41.286696165443402      38.725153210587692      31.198518638491567
  3523   1      12.893124163402803      7.6385093645028723      32.991095469776305
  3524   1      31.617129464608738      23.461150292315548     0.55670029727156356
  3525   1      44.059243387905951      3.7299167668387243      18.911258236500426
  3526   1      33.566229375241612       32.24457069687827      46.677934560272078
  3527   1      45.385459453932278       8.176056334667507      8.8993093533597012
  3528   1      17.203610104145465      32.256746201714449      28.561035284964429
  3529   1      21.111215836836308      12.559351808650835      2.5316217242126067
  3530   1      17.871506285873448      45.831547688995862      44.371333012836438
  3531   1      29.915423678223828       42.91381834294252      43.844371496676395
  3532   1      30.969519311515207      16.128309855777147      7.3707139816109271
  3533   1      1.6426711844075623      36.909855869103431      25.512588697108924
  3534   1      22.834273203482599     0.62013268453591597      25.668211691015095
  3535   1      12.833185821933935      8.8291900566416111      18.326451081897606
  3536   1      16.523031665824323      11.047389035970127      8.0047170949855797
  3537   1      6.4503054647278759      48.455986950233303      18.572868514582677
  3538   1      8.4186846088621738      26.460254989744296      15.586389671935645
  3539   1      31.712566069790423      33.002323817253171      29.192268185261618
  3540   1      18.617872443803272      35.855891333155832      25.835782872038948
  3541   1      11.468654001535439      37.567672934272146       4.966028254635682
  3542   1      17.116482320941948      40.002669266372067      6.5657669258196263
  3543   1      37.095818265393802      45.491036703098793      31.890308224359149
  3544   1      22.828604768479689      24.910587857749537      27.579909502020616
  3545   1      24.488555952893396      41.964335176426161      16.096664130084875
  3546   1      11.695962012318436      43.117295688191369      35.828560652637023
  3547   1      18.904546174661363       3.394317479328556      37.477047840058304
  3548   1      25.245865950606252      13.037080978373504      25.275347139350821
  3549   1      27.897331505221352      18.732349760505027      35.000960184743192
  3550   1      10.018500758540879      22.263703947458133      27.981336785881322
  3551   1      48.104705629028651      10.251193428876002      9.8002619817061962
  3552   1      46.911890467772388      49.583320361606596      26.704256277696246
  3553   1      11.642884153038052      19.555576765245984      30.318789103932936
  3554   1     0.75660668362178529     0.73993355232652813      20.365946731630494
  3555   1      21.870886026780692      39.682025632750175       20.44963759918971
  3556   1      49.211793333786396      13.275193667968743      5.0230968558396052
  3557   1      11.979530421093273      28.921670628899328      42.426807829646094
  3558   1      29.152042508354686      24.204409924832863      38.972140261920885
  3559   1      44.894743531719975      45.685651730545025      33.972960819624099
  3560   1      19.285525302364078      16.750428337950378      50.054646236150724
  3561   1      42.608963984780175      39.809334826570982      13.128668496682057
  3562   1      20.555102124072132      11.250472694848405      13.004554350915894
  3563   1      31.899529835100466      0.6364226312632959      26.647103068669264
  3564   1      9.8756814512438407      42.263138245722089      16.835951699401388
  3565   1      42.871653952583095       32.82140897599281     0.41457602180082354
  3566   1      14.591620032470404       3.923605703170828      17.443482395791932
  3567   1      31.641773187796364      41.529563377147163      6.5537162289529851
  3568   1      31.263511484321857      7.7162626949371615     0.77672750985221728
  3569   1      4.9104828740092197      26.983749264464628      27.980572204155262
  3570   1      23.036360467506608      8.3394370114016212      19.255493599765966
  3571   1      42.337372639927679       39.33633800535079      4.5445290588194656
  3572   1      11.012947106072801      43.409052558537503      42.481288044081182
  3573   1      26.529233962775592       13.81357807674134      11.713910995772348
  3574   1      22.273202280864766      6.1730474673243245      37.723711467775551
  3575   1      13.706548971084757      43.967094732315232      4.3956083337592515
  3576   1      18.560517607045384      4.4562703339369678      16.036623760598111
  3577   1      5.3797005169336467      33.010107583494651       51.26907195902178
  3578   1      32.090162577268643      33.972440464750875      16.586814318560563
  3579   1      1.5814907244322101      39.759470099409327      45.458551828449124
  3580   1      4.1724845474666141      3.2857019494598663      26.723218623450123
  3581   1        14.8098616955506      22.523884021547744      48.020908602681757
  3582   1      44.217985662980141      14.115900561780913      16.838390279214412
  3583   1     -1.8041491904229734      27.411403960682758      31.399638127674308
  3584   1      32.224652783745839       50.58208970759523      2.0992328208887958
  3585   1      15.499539088210744      37.170337178836441       19.61406825852977
  3586   1      42.637241921412844      15.133991108383439      24.950264503362291
  3587   1      43.520248923656979      24.495833912043047      31.528179653807992
  3588   1      20.654760691309143      15.677670920111259      4.0484096402626886
  3589   1       19.16106703026313      31.813121651932395      25.970610561103165
  3590   1       40.19352233143222      10.461730999916718      40.901905273036995
  3591   1      32.907923223992903      18.807432879795943      20.004547251237497
  3592   1      36.645629563256428      23.818566283961399      38.548753736531062
  3593   1      14.930868043533078      22.728045986793763      20.041960461946104
  3594   1      20.354431560639561      14.080982300860821      41.956760871415227
  3595   1      4.6537829831571624       8.397710677270501      8.6672011339837542
  3596   1       24.19860968278217      28.566775452694266      11.273647957261014
  3597   1       4.412399231352663      5.0637297779736254      11.363427550341596
  3598   1      9.3587533491272623      19.449763936478849      11.629081082774089
  3599   1      30.828254366438372      6.2560215717099084      38.359370329212126
  3600   1       6.912115476982839       31.09103182407349       44.31991202431422
  3601   1      19.844832878190307      9.4937074139180808      6.7885510069731394
  3602   1      46.485156809750762       3.748658834180933      23.687515539248871
  3603   1      28.798991165812794      46.373883938314769      41.001336977058102
  3604   1      45.856787529325736      22.299880618843666      36.524004403217262
  3605   1      33.201747615343621      41.888398019827505      46.156864337571925
  3606   1      33.686221632791096      12.868477021139078      31.599935552367363
  3607   1      24.107643704118082      20.525077183111197      48.589646015873484
  3608   1      6.2652857633310015      16.675784886074542      48.665831760161289
  3609   1      46.479120351042461      21.868854581960214      51.250729269001603
  3610   1      27.516305895959615      9.8663465096655933      16.636397388361146
  3611   1      46.542490775898067      3.2470362842904543      5.6967495674205448
  3612   1      47.351393003847974      32.735376765514815      40.245538519417757
  3613   1      21.191702972817275       33.97846515332094      4.1732168382582406
  3614   1      5.0690107372211859      15.467535799931094      34.638015003267533
  3615   1       23.43739987826071      35.753195356765175      2.3166840395846648
  3616   1      29.189801231749701      24.287214600056558      8.8301325190682238
  3617   1      20.917445090606371      29.377476620094193      5.9868055096860004
  3618   1      34.714653826479257      21.573668042932105      9.8110422534830413
  3619   1      34.558758650582931      16.638534071003196      4.9709411119297275
  3620   1      10.409480649749122      10.151890174932788      24.441603626832386
  3621   1      34.374116967837161      27.948559895942697      33.923637186422553
  3622   1      42.265981861885585      46.214209901601329      21.689267982924694
  3623   1      18.256328193961746      24.741484193305684      34.689146808693458
  3624   1      46.353646610561441      48.593501794518829      39.359552179868899
  3625   1      27.889541656741496      25.220827160926252      42.947157473760186
  3626   1      33.885472600604629      44.026415408085647      24.383647175187324
  3627   1      33.872371277966266      5.3499126242960955      43.797680135589502
  3628   1      50.148801053973827      41.942537880853706      3.5979045941778232
  3629   1      47.544208689039088      9.7700010597344988      35.584887575484032
  3630   1      35.671330537953672      32.804379209433598      9.9645005776513447
  3631   1      26.250831548541044      18.301597644195326      44.134777052331181
  3632   1      25.678992456633686      3.3887346739550965      1.4889068605407569
  3633   1      27.788982898766012      34.053579731144247      29.282140266586001
  3634   1      39.064086649279545      11.949633814517373      37.515262073494767
  3635   1      12.580107764986909      9.1651856261682472      41.416656527139985
  3636   1      14.341831856420876      35.866794308625636      39.057173009621472
  3637   1       45.70520313090109       13.23559304417469      22.177612039062957
  3638   1      8.6441500857320293      49.158278519622435       28.46051010409435
  3639   1      32.762225374181405      45.683531181101422      20.649003728570772
  3640   1      6.0294769170711726      25.635863696219175       25.39191821291551
  3641   1      41.117328498074926      4.7437645506875539      20.649530048383706
  3642   1      27.979117889270363      11.734727791141069      26.637646799248664
  3643   1      29.923742636983146      21.940058914675717      10.951569330355104
  3644   1      6.5376510305988003        45.5996676253136      25.710033170395008
  3645   1    -0.36847424401321072      18.930690010848522      20.056024197815763
  3646   1      10.494691798364361       8.608316831151722       10.47418151475358
  3647   1      7.1113235824686027       6.811115625815118      4.7597791658808069
  3648   1      35.472527183778588      23.994865426960974      26.396656845100296
  3649   1      13.757814649138307       46.92082446555046       28.73953503911768
  3650   1      36.902747490903074      26.327897230597554      24.490642511560736
  3651   1      43.019200336555429     0.16242360873216816      17.816756126688944
  3652   1      30.692589663653763      22.414258964464739      6.4000299176343631
  3653   1      48.048893731448139      17.150477374913066      14.051323693048351
  3654   1        8.32798829731437       7.005533488644395      18.875856120814717
  3655   1      13.563440732101055        15.5292981119338      42.978423158969804
  3656   1       14.67253271752489      45.134465608509686      35.032444852476303
  3657   1      10.276025836516762      2.0561398708275367      12.092467407654935
  3658   1      40.905473061256814      14.780726933434988      40.797926837546747
  3659   1      28.865695713553404      46.574884095314673      36.903441844172569
  3660   1      11.031132184986864      36.779373877884993      24.979358775086229
  3661   1       6.534656359305365       31.93451031827896      41.196796191777395
  3662   1      5.8685633450605206      10.889391466220456      41.780131656856014
  3663   1      36.098250599651301      41.727269912798597      27.071370339554619
  3664   1      47.232374463887801      32.548523933115717      5.5672003567724619
  3665   1      21.241309411292974      14.022371762127479      38.719921627265485
  3666   1    -0.85814923766737772      43.374449378206108      34.187106866510369
  3667   1      30.446322612048778      12.931525620268269      7.3934318159658172
  3668   1      9.9523280500829596      15.914355862403271      10.497468273932471
  3669   1      43.060690398468509      37.723963174712843      18.834351450422744
  3670   1       27.63117500548978      41.553910971560917      4.0555856447931236
  3671   1      27.647588740903991      30.805567217017533      12.294922782275131
  3672   1      11.836482620621426      2.9302267248101708      20.798987212956099
  3673   1      9.3208167481752557      25.357931518864401      33.238844919142217
  3674   1      5.9186892405425588       26.33337299050384      6.5343599869596014
  3675   1      14.110800574582004      37.273757000761513      42.804356540170346
  3676   1      7.8792291270353667      43.254697134314284      7.8344578416391553
  3677   1       5.595148698241375       29.45161791971033      14.748096764672066
  3678   1      25.116671999438083      2.4464105011241584      10.399263496829391
  3679   1      41.819978394209585   -0.051828317409571292      41.814288452682902
  3680   1      19.941106253234569      0.7592549245067568      34.836606377629593
  3681   1      45.894276170652752      25.944360787010567      27.087721646761384
  3682   1      18.781477831556526      44.433723679692562      11.789768455687568
  3683   1      36.172658827134171        17.6500598472708      24.880405906591996
  3684   1      10.770892753048845      12.723960214494509       3.292438183226607
  3685   1      38.984967537079989      16.501442555664557      43.007579417098647
  3686   1      4.3486301225131889      23.137559975584743      26.957863690108436
  3687   1      24.577221827095489      23.141477099148986      21.438483609010152
  3688   1      32.339333333563829      33.618089950255403      25.752510813144568
  3689   1      44.028211930920442      43.975780019913515      6.4806720140651564
  3690   1      7.9817599505512344      7.5598645453994484      23.845040543503725
  3691   1       39.04988022822792      44.738935223537439      19.820535398620297
  3692   1      4.3926678472170044      45.582476544668047      18.843060392570266
  3693   1      35.290064789898238      28.129510840879554      22.037715030181776
  3694   1      47.600093812267808      37.836159436559385      27.496641154897109
  3695   1      8.5768716546409767      21.950626512617049      3.2697192075769879
  3696   1      4.2911907484503331      34.321787167114238      11.229540849429197
  3697   1      10.372966367045025      4.6956148451227282      35.573339462653429
  3698   1      20.437819924719406        14.3069223830417      24.679031176999707
  3699   1      3.8641919205551303      39.261622922017239      31.892468075339405
  3700   1      23.223290481770345      29.833910494514345      37.438328273719108
  3701   1      15.383448621343829      20.087331400388862      29.702651912411348
  3702   1      32.941724163053436      8.7641995566771609      12.272041592451581
  3703   1      9.2182026861831226      22.590570534262419      31.370605263146743
  3704   1      15.297775665399392      11.487683014138126      49.841649346759318
  3705   1      43.827349075788469      9.2226710140639767      12.535072439738943
  3706   1      9.5465650004077212      46.086835260863744      28.330648087404278
  3707   1      37.581529549865415      51.512773945509345      35.131959385956797
  3708   1      34.764590952765694      5.4274045740352337       17.68811218976931
  3709   1      8.7837405365362553      40.979198034696999      27.591396000989665
  3710   1      35.801732018210942      39.651888609205905      18.883956434224515
  3711   1      31.469113558737885      28.047029726085082      43.844179939692999
  3712   1      42.871530441888034       46.72247470170587      7.7020524423099701
  3713   1      2.4729244926861171      32.596308852528509      20.323598780129128
  3714   1      25.830544984680071      38.973570258678215      21.805069116976945
  3715   1      21.297069190169605      9.4262386477716937      4.0524061519161849
  3716   1      7.3397650754674437      22.446498522857045      34.108487796247665
  3717   1      35.461852558911445      15.989036383071898      29.252283555793777
  3718   1      35.026012740109223      27.499773147593608      6.7113996023750735
  3719   1      10.374746435715027      15.153706341219472      42.213200458721076
  3720   1      17.625633326302239     0.77809787057894364      5.4276471681334266
  3721   1      26.353470184218427      30.621264803150851      6.4470625720226789
  3722   1      15.990453031654962      48.685252274991903      19.954800169664214
  3723   1      18.600113103848837      16.599093192817467      43.341732254249379
  3724   1      13.970780464290801      20.041715574834626      1.9323102748092973
  3725   1      30.117639620195582      42.093695757988534      47.569282159029477
  3726   1      3.7789589963362196      8.1576035125320026      17.197179064930541
  3727   1      35.179589020577467      28.783646802370139      43.967774433176324
  3728   1      35.314379134656541      47.609417984143391      25.633581663399426
  3729   1      24.268527837974624      35.204828714789834      16.498784659922997
  3730   1      31.683924792177525      44.881983558159178      8.4279439416297457
  3731   1      25.887959009933187    -0.41598664367159316      11.855688441947814
  3732   1      1.7171514367504055      35.274586250083054      28.528940676845391
  3733   1      45.676489894902318      16.598979609957439      35.406923068039674
  3734   1      25.598800423288115       23.39277888347047      18.336467007415052
  3735   1      37.986550341817747      47.476802978389259      16.825456504313642
  3736   1      45.477929993248644      8.9305667415491978      1.5487354646547116
  3737   1       7.838797943616397      12.638706563919955      16.305730148789902
  3738   1      43.254546749722032      11.129626092308008      17.815544582751482
  3739   1      44.796411573050854       46.63189810756402      19.667341914957266
  3740   1      39.876600799641395      16.875699734294024       22.94703192582595
  3741   1      6.1369926744159136      24.285555770205995      4.0444930635038707
  3742   1      46.240789098737352      38.277139124611658      5.6840052449811447
  3743   1      17.547350817226697      44.022897167672696      33.632437112807047
  3744   1      4.1040806596506387      7.9588073746009451      41.381244606287673
  3745   1      48.144799539690659      41.853751394479538      46.848939330251895
  3746   1      23.159167247160958      2.9443003789400057      14.351151364364284
  3747   1      7.1561943562200963      39.537309236715011      15.681154319676361
  3748   1      13.829342644258285       37.91367253406186       26.54130077124508
  3749   1      17.705512938184437      9.0513461281995173      3.3179973429211151
  3750   1      6.9751269505152056      33.154329970723154      30.552102554707385
  3751   1      23.124915869116197      38.163595420951935      35.218883211916868
  3752   1      3.6078049064597151      34.325254372792863      5.4659880570637354
  3753   1      36.600450039001608      31.833528125423928      13.833627726008523
  3754   1    -0.97300294294535172      10.893808219440475       3.281852257403306
  3755   1       12.81108963794744      14.408007430667801      12.156121904576006
  3756   1      26.129090742323374      43.524334116739034      38.330627611287916
  3757   1      47.421841482524009      18.870047991914017      5.5726382265679906
  3758   1      46.089276009321964      4.7519364778892568      26.634955844064887
  3759   1      30.089279362268552      5.8538937892129113      46.005482537532963
  3760   1      8.8211857817147781      16.567220705705274      7.2398696268228466
  3761   1      25.014298574429326      14.287582972042788      1.6735041124744643
  3762   1      15.766063390731697      23.761311201574053      32.779337655778491
  3763   1      6.2157335251934196      2.3294491189297957      32.354374775741945
  3764   1       12.48862611496023      4.3589806479059545      3.7582462514382668
  3765   1      14.413766877975512      8.1230092967997933      26.519714542635594
  3766   1      1.7992878143831692      21.995724216869331      13.395614395926817
  3767   1      47.769634181190177      14.670798012693611      17.637449066915774
  3768   1      27.922463152997636      9.0265196733512756      31.590253804463874
  3769   1       29.50046774511145      4.2426121692760672      36.225441839127903
  3770   1      35.478280350218625      36.159231902483761       11.37717930597967
  3771   1      47.752775388015941      26.674237821026264      6.7215837768225919
  3772   1     -3.4478289081783142      27.247744744925111      15.875386862508201
  3773   1      19.977620954235231      0.8370632082687085      48.737416699260066
  3774   1      18.105164656984297      13.853509697129072      18.307321479783074
  3775   1      30.476074411729861      18.228986625630434      24.010100231369663
  3776   1      6.2519544399415032      41.220150281183464      39.545269918215261
  3777   1      13.121683121806173      16.766091794947176      24.426327907272668
  3778   1      38.585848936388786      19.288416790504908      45.176030242609954
  3779   1      19.101138966330183      40.494017799065752      35.726670093892551
  3780   1      42.208309633238819      9.6054110059279214      7.5229554684729569
  3781   1      48.470177571885927      44.767378175545865      39.949467953195118
  3782   1      29.050881031817926      21.068689221569745      18.635889836592273
  3783   1      5.0635904149005242      15.657145012571304       15.63674054278853
  3784   1      3.3737914245327008      40.986490675541845      41.688113880486078
  3785   1      27.911123085436493      5.3257224326156827      2.8246620994655238
  3786   1      19.009929199299645      16.538440741902953      28.545578999466542
  3787   1       25.85333277426373      9.4394734527620017      42.785530134171388
  3788   1      26.217859895282206    0.079320100969722002      40.330706194019491
  3789   1      45.042351799873387      17.063686593192774        15.5096706482238
  3790   1       43.67037816741523      27.707060407120064      5.2593522901328296
  3791   1      11.854256263979924      50.771948743074951      29.064908258079452
  3792   1      5.3020308593614125      28.757374067496691      8.8943700922149702
  3793   1      24.322118267590962      14.448940244478511      21.751013246519424
  3794   1      24.291325181781765      29.063939460293106      25.423308284791151
  3795   1      15.041561586392653      23.944706420486277      3.5001117954465646
  3796   1      49.244365663307519      26.329160991681988      33.260700012836629
  3797   1      19.031227039073347      35.720824953163472      45.720749334909861
  3798   1      8.6518860595811571       33.95776555650454      45.093452189112959
  3799   1      42.410627324789559      47.572586869782178      44.868652346756846
  3800   1      44.630042712801504      30.550137630604386      25.883635900701517
  3801   1      47.668982214323357      10.019680158935611      28.106452701593614
  3802   1      14.617062452676947      37.564027791965614      6.2638710143689966
  3803   1      27.193883676323214       44.20810705906667      9.3611944067590542
  3804   1      24.142375928082917      17.480068621661623      50.674431104346851
  3805   1      39.982374481817978      47.028115144220244      31.537824205136285
  3806   1      20.398678390975629      9.7660490297892206      43.786923162228291
  3807   1      20.634613639778166      19.061337876045574      25.662141316781753
  3808   1      34.305397617664255      8.6222934193507363      43.389865242034055
  3809   1      33.726243276324581      38.791740672768739      37.848676827136146
  3810   1      12.990348845907574      32.985990819264238      33.597857089645736
  3811   1      1.7272470910141531      43.545669044254872      12.289669151132484
  3812   1      43.533816984819119      3.8592571440426244       5.317926609878163
  3813   1      34.963304500407943      8.6857995256820395      16.696698784963015
  3814   1      12.185949423533536      11.855316163212409      48.642618551728027
  3815   1      32.086734216955293      23.024200291215486      28.336328435727282
  3816   1      7.9375834560398246      20.634726584574128      46.691000662083887
  3817   1      38.867913425287057      30.315975486645772      7.1273091111496552
  3818   1      12.573060464915594      28.936462338992929      47.454504365551422
  3819   1      11.022236930182055      7.6177864951149052      20.796294268398217
  3820   1       41.45672108872337      10.451467306215722      35.542934637387759
  3821   1      7.3107178010201546      5.0068924615268884      36.642459295380107
  3822   1      26.171249012030746      33.330876436308863      44.836375880326926
  3823   1      33.761150650158491      42.474893030285024      4.4653450120621807
  3824   1      33.673756423879034       26.14678451793537      24.637395151538009
  3825   1      13.780126811400097      40.340459165887687      3.0844613079651571
  3826   1      1.5895790543540231      23.952972839983516      18.108668775203423
  3827   1      26.218227168944807      28.031964001761015      39.119700965575625
  3828   1       15.10314917461799      25.690842749616472      35.326285823346012
  3829   1      14.473440710130053      35.885588612580598      10.409828728031846
  3830   1      9.6308083281242851      7.1409152591731644      33.601984929540741
  3831   1      12.229624706884572       45.90590339712594      9.7368117568298427
  3832   1      40.665567650602412      21.932683528890042      42.616718551108953
  3833   1      36.458270747795567      34.647536311085126     -1.4247839729570655
  3834   1      15.319557857289281      41.552058468009498      15.696506557080896
  3835   1       13.25095744000758      13.150419461635579      19.747425880173328
  3836   1      6.3550460795048327      3.9356996704349396      29.523289350982171
  3837   1      42.427658243375831      43.026250023281001      47.158582265730224
  3838   1      36.405526634065389      37.043272202325262      38.578353408723309
  3839   1      8.4178176792698363      6.1829830398699777      45.650559422953265
  3840   1      33.460329007805257     -2.3478978442226293      4.0593241817759953
  3841   1      20.644241525314552      41.043405646625637      29.915247082779334
  3842   1      34.083750412074721      38.110543994836938      41.170838563581306
  3843   1      25.318016979239985       41.90594681990698      29.827292698022511
  3844   1       38.18311955713957      35.158769330889477      16.316752218637859
  3845   1      39.456838952599483      9.7284308769004806      14.450864637884935
  3846   1      41.010158613536689      27.761739857303009      12.285216395746758
  3847   1       44.02017062337552      7.5382332915784271      5.5784234070304697
  3848   1      38.491593842241464      21.070066990833169      26.018415449253251
  3849   1      4.9741536744899681      23.291616655458647        13.3514106992554
  3850   1       27.54407460588061      34.641483035638046      16.196905429282467
  3851   1      29.184158614555642      33.329942674287246      10.207275369714722
  3852   1      40.994420009133954      30.176693665277423      35.522613397434803
  3853   1      24.242512384740614      46.748438182732471      33.269439256450305
  3854   1      11.756746047913939      22.223260769100069      12.763884669811638
  3855   1      32.166091999714169      37.545162616553988      11.890916697533017
  3856   1      6.1894767455985331      36.276626516570175      29.781157410141663
  3857   1      6.9286994212771233       9.081405775851449      44.861065851823909
  3858   1      10.407841988275509      12.868299468109146      32.847840554838584
  3859   1      38.048609701205486      9.8095902731053641      21.595089632183328
  3860   1       6.446925666854451      4.6850708766913485      24.175554610677864
  3861   1      37.948734022025064       15.59302513975538      38.729984791427363
  3862   1      37.316469926495039      27.871579895099558       37.60102404119705
  3863   1       2.070275903045617      30.935696183044367      6.6749003421733155
  3864   1      1.6036347480186834      43.759736546299735      31.927397982727641
  3865   1      37.202231010848529      28.254542193684138      31.066627575524763
  3866   1      21.960693681927854      24.936395097486326      24.524024393624174
  3867   1       10.32290032890689      7.7365423112682636      16.223498431745995
  3868   1      33.328156982754457       27.71737144288392      37.686607104187523
  3869   1      44.728676719732917      22.006504269022255    -0.50264482159858148
  3870   1      29.127816762614582      15.235002005151138      45.198782773181911
  3871   1      22.553061983363307      3.8736136836849799       31.56982014845277
  3872   1      6.1982171105351807      37.978927279187246      42.396293283151657
  3873   1      39.011478191095506       36.95253849657631      18.792888231433544
  3874   1      14.946016297790717      31.368011162088091      5.3878624095299985
  3875   1      2.1434868849785365      2.7400277578628347      10.849956131039169
  3876   1      11.538073780031102      37.799078723299097        29.8705404378696
  3877   1      3.0359791274492416      11.293653050692196      29.216759271579612
  3878   1      45.837657647235872      25.456189646512904      19.712870189369891
  3879   1      5.9279781967325551      9.7592052005907579      28.492742901075122
  3880   1      25.313675778558178      35.916658844134588      25.604835896702653
  3881   1      37.237617879277707      22.328842791595012       44.22991857379909
  3882   1        48.8019265794711      37.110706322555522      43.905442087807302
  3883   1      30.380549984418227      27.029163971835047       21.81195609579062
  3884   1      6.4418769931308741       25.25133503833419      35.701514173345927
  3885   1      24.055717525058995      9.8113361094315437     0.50044226783894941
  3886   1      12.190994911246831      35.160989535614867      7.5151930205458726
  3887   1      15.739072407807205      37.496071926472233      29.300540070291753
  3888   1      4.7287685154133579      43.531926158700784      43.444849919779308
  3889   1      47.577423227501654      6.6187877898211687      36.862402126491354
  3890   1      39.330074914906291      1.9803794636678356      22.506165352803166
  3891   1      2.3255701354253859      30.692716618467855      3.1051761104055151
  3892   1      32.858521255914582      23.425727981704451      17.078533472027377
  3893   1       12.57927586890021      24.409058307633668      21.692438543556946
  3894   1      2.9166980699395206       26.40494948749291      40.084716196272502
  3895   1      18.843070695725505      43.431944966474063      1.3169777744686351
  3896   1      12.573492548879587      14.069918556030167      15.520261870914384
  3897   1      16.522952940148425      15.176797061264679       21.21004462570944
  3898   1      18.059523767712495      26.875965652331189      49.161061223447568
  3899   1      33.393771954816614      16.553047450095626      26.556836365326035
  3900   1     -0.1751297539728485      9.0485519544090423      16.582590344152944
  3901   1      34.245818705352548      11.845968253646399      46.354243407515028
  3902   1      30.500246280842369      9.7498648778128967      15.034678594785866
  3903   1      27.871952911031716      13.953311111384725      48.155284091812817
  3904   1      22.216397402066612      25.914167431470851      18.769147586758216
  3905   1      27.417708350835522      39.382581835851802      1.4054250257467007
  3906   1      18.014744704296533      30.508314418733729       43.08800100565167
  3907   1      0.4961578276174084      38.011816459368148      36.225073306389426
  3908   1      40.014901869847655      46.565349229220367      2.2878202495311037
  3909   1      31.536677017360855       21.61261466839197      42.556077054135777
  3910   1      12.096013137972738      28.802960431432918      20.375236511894986
  3911   1      15.793738219972662      3.7295871519882695      11.100889148333355
  3912   1      7.5695946542244377      32.870849794243917      23.883990311287935
  3913   1      7.6275859459262589      29.900611956582207      30.617496099904258
  3914   1       26.26081208046169      16.434464157189179      27.876676064417389
  3915   1      36.923220688137746      36.653473127184526      6.0695627607285383
  3916   1      15.495878337635322      40.606456951827688      44.894778584247319
  3917   1      48.645612857238099      27.446438641372705      25.960860945391396
  3918   1      38.767389997854963      37.006821507827986      13.061354468192834
  3919   1      36.434762260861639      18.660638437977639      21.790990717231871
  3920   1      41.838634276636284      45.796391682734985       18.10158600359436
  3921   1       -2.86934697039265      27.887301868173999      24.240701823520624
  3922   1      48.937281361852726      12.822488985921023      22.984344978998301
  3923   1      30.556784775417508      34.709800940037688      13.744657191707843
  3924   1      35.614700646978335      3.7641293733813259      26.166658235734904
  3925   1      34.297316921960224      36.847121053517007      35.237889785460261
  3926   1      23.451161389494292      20.245570741500451      4.6052044015859082
  3927   1      14.421009252471821      33.490123879074233      21.610812504394779
  3928   1      19.883201887576089      14.887249864140649      15.927766010476375
  3929   1      9.4475719120977963      45.953993923361999       44.58988455725202
  3930   1     0.22707427727978954       29.34168388001838      36.945999318624473
  3931   1      18.610769054531357      23.939899241810597      19.168761354278772
  3932   1      44.741481615445153      44.092510223167167      26.653555354597568
  3933   1      14.542738120375862      30.113491934077128      33.004833700157477
  3934   1      34.987099445792289      32.817875481238694     0.78836884998560242
  3935   1      44.393816637024273       19.61558166292075      38.688959328524362
  3936   1      6.8065887452747038      18.406711441832879      17.428395994092384
  3937   1      41.196143731668677      9.3764696388524218      30.208832609934646
  3938   1      27.531277824794845      35.875732699121244      0.7279655128731416
  3939   1      34.734606415411861      33.612347197178536      6.7999953860892788
  3940   1      24.961855975419766      47.533630425651808      37.481307252759649
  3941   1      12.268118440229788      17.269762772704976      0.5779962470297263
  3942   1      43.971524538340034      13.190919141373449      13.568576763149244
  3943   1        44.2735936510946      1.2986043813120909      24.488767765624424
  3944   1      5.2898088231216587      30.785140340557714      11.643722478043991
  3945   1      25.954925754317834       33.39831592073687      22.178739347415519
  3946   1      15.153888534015149      47.507135370469946      7.3115206861805708
  3947   1      22.058971454099932      35.612819658368387       20.55649220254594
  3948   1      4.4369285652308266      24.673126510646814      16.489148360264512
  3949   1      8.4235215878206713       4.993959413813629      13.789442325384881
  3950   1      29.541620009967772      31.550157623924385       7.194046192724846
  3951   1      21.853843322617369      31.753680552783472      27.996163375924109
  3952   1      48.751057343775251      13.433669185462485      1.1681952086143437
  3953   1      38.263413551810132        35.5940215702228      23.966921363013903
  3954   1       33.38063157056159      20.357940610633225      14.386713428868994
  3955   1      36.846802722265842      41.726989635030677      23.677901733008547
  3956   1      18.058357422151666      14.166985296527773      2.3044210043154321
  3957   1      12.360798214818077      48.496371969940448      13.746724590604558
  3958   1       40.01434452776266      16.652665553833355      47.687523793701516
  3959   1      6.5347518525850212      20.134935107759116      38.351925702722909
  3960   1      26.394497028866745      7.7910847265773473      34.198925379062928
  3961   1      1.7829544235268429      13.512796866838771      10.668276358519909
  3962   1      39.844826537789572      26.092374783114202      17.535344686644102
  3963   1      3.2146360361758743      13.511200016088759      7.6096690272833536
  3964   1      25.588605254020312      13.111959606294764      5.0029888274715848
  3965   1      44.374331882957492     0.71892515874013596      5.3563127067505736
  3966   1      4.0100450088694952      45.432600390272462      35.744496266402585
  3967   1      27.804913364662966      47.809551361493121      14.810052755853597
  3968   1      1.6806056173068455      3.9972794614293017       28.42662553538543
  3969   1      38.457368759626128      31.647419137376723      21.193465556461817
  3970   1      43.982078900243629      23.444707606303041      3.9285443433469527
  3971   1      48.387775608829244      27.842743416526481      17.162255987611303
  3972   1    -0.40462418970635561      16.559223578144405      33.293303337132983
  3973   1      23.481561306990759      44.010536936472157      26.375216846170289
  3974   1       5.233542432442909       25.48713218409527      9.5058736901915779
  3975   1      44.212607537213799      35.047272534263584      31.339817087226635
  3976   1      0.9537042466408695      26.309107730364456      29.937966238034953
  3977   1      31.413780963815942      43.738962691481213      1.3611514619432128
  3978   1      23.849480989769813      28.335978694447824      31.485464025125069
  3979   1      35.686693526495368      23.873530558031177      34.500387039331862
  3980   1      46.420401775843779      7.0725704624522443       23.90353358959527
  3981   1       30.85528802579627      32.925947798807783      19.851507873758287
  3982   1      38.658022428175251      35.568250378159611      9.6955809213993671
  3983   1      23.131040507970059      34.459580650260392      44.804702190392206
  3984   1       35.80572721451081      28.990042806443757      40.748814331604528
  3985   1      27.738338916648299      24.795377376588245      28.044085032847871
  3986   1      14.385015601269071      5.1079910354979843      35.178642630289417
  3987   1      24.669941858531484      16.344807720428737      5.2388773330402989
  3988   1      8.7549372496534286      27.013434528204051       38.41047065410649
  3989   1      38.399767361778864      29.052372118122825      42.824930620557176
  3990   1      11.418865643653298      49.361959857089829      25.135915293615653
  3991   1      38.279773460538294      9.9026149230806215      43.666478742201626
  3992   1      40.863717512865911      24.501466436751819      40.863010119814277
  3993   1       20.07050366854007      42.056375633807477      22.001855273742471
  3994   1       9.530742443357747      24.799547152506076      23.943897208284838
  3995   1      18.288469052046878      36.087042757716269      30.739393643092153
  3996   1      4.2977256824422776      19.871244129461719      13.797090311998938
  3997   1      15.361018551580296      20.995453201459387      14.778643543869974
  3998   1      36.249544314271944        8.52820041612115      7.1160194380849697
  3999   1      43.029843567191868      32.846058261735813      12.264222182680063
  4000   1      26.239590424106968      6.7848332795042117      40.399076784790502
  4001   1      24.103089776160072      21.291981757311344      34.132957270618093
  4002   1      23.606286119112152      25.049810285060325      46.041565420845345
  4003   1      35.600545865945001      49.082962704694488      11.658581003780286
  4004   1      30.462234033968524      39.572706171176279       23.73297002960269
