(written by ASE)

4004 atoms
4 atom types

0.0      48.780000000000001  xlo xhi
0.0      48.780000000000001  ylo yhi
0.0      48.780000000000001  zlo zhi

Atoms # atomic

     1   2      34.586052998796795      88.588330748272028     -3.6946596791199111
     2   2      96.207762535158309      120.72181541498604      33.255659238082856
     3   2      10.100076375908818      118.87802738396687      34.644306465382456
     4   2      2.2362549078758622       18.65525841958495     -30.663578004697285
     5   2      61.898274781223364      56.457204569972099     -15.788741195843597
     6   2      -14.16141695150743      37.511898261197992      48.585687206810725
     7   2      37.268266082894755      56.656375586102634     -1.3751911933835843
     8   2     -16.430413859828317      29.418687780127463    -0.32571541878733923
     9   2      36.923103654760943      15.055475851528875       60.83200838662902
    10   2      39.208275725095248      50.423451735507598     -37.775327943276423
    11   2     -5.7278914452709753     -2.9954430800504301      65.946763122801741
    12   2      33.263262379743843       65.40380091912948     -11.366110387948789
    13   2      41.726080977787063      41.338407280387635      81.733884135219256
    14   2     -11.124073896273806     -18.403615194794941     -13.339948223670319
    15   2      4.4062461230999475      16.592959169680594      41.073343644120698
    16   2      21.316038223109437      14.727629160753276     -11.277214269103196
    17   2      36.998555826622592      61.123252477085323     -33.020197100754331
    18   2      67.816246010232504      25.839544180054933       12.76115616241934
    19   2      17.281142677299865      32.710473014067148     0.28193321321225562
    20   2      87.214560914345114     0.74736710687118602     -10.492721123728396
    21   2      69.359912627988834      79.464139447224596      56.456770796492165
    22   2       47.92635233639772      62.769133704191148      27.638119021459371
    23   2      25.862743746612523      28.755214434714674      94.793770625910511
    24   2     -8.2538537230611908      14.545376149132725      63.179489991325994
    25   2      6.6190652361774971      5.0161685869218795      47.625167049028683
    26   2     -12.228248041274055      9.9992737218237444     -20.384980424944242
    27   2      8.8439091865675508      1.3022109118396161     -1.2279254187267379
    28   2      37.979310191840945      25.253082989734494      6.0907345824081567
    29   2      32.755331177779269     -14.620760065298583       45.15474054416805
    30   2      7.4703414119920373     -20.231143649406505     -10.089382175875988
    31   2      2.4808464839198376      22.519471116470129      3.5617723299523187
    32   2      21.342082452694125      6.5541911624898983      38.114860263450353
    33   2     -23.889465958774522     -10.584230897199935      16.441912576492591
    34   2    0.016452271486178373      57.465774048558096    -0.21706286938390365
    35   2      43.784945151316464       65.62215768412392      71.003207442186095
    36   2     -11.397553815017027     -52.541165360512544      59.539344279505507
    37   2       47.10509634372562      78.339715897620792      -3.709565169469665
    38   2     -21.134719833679938     -3.0185665418045793       -59.5769089253251
    39   2      13.851885859915877      71.505554832299296     -45.941169431658729
    40   2      4.4635948780025441      22.095851285733357      37.859435382337303
    41   2      10.000566458179636       110.7719903006729      33.761590910818633
    42   2     -13.857099331084079      57.175404941930438      2.1163652109882474
    43   2      6.9899465201253888      20.804529132072638      8.7666911891526258
    44   2      45.641693285316833      -4.788319583792422      27.760811094969736
    45   2      87.931313821003442      31.140031857908973      24.938673235263373
    46   2      40.373162089299939      30.135170057544073      13.127032796551767
    47   2      10.245810518369831        18.5732204254839      49.655592039147301
    48   2      21.453303965822922    -0.66352934456170598      23.119596154348027
    49   2     -2.3335902717240691      75.842302987127866     -49.402756199157494
    50   2      3.3510692596820641      10.645969956708036       74.23515723396423
    51   2      30.669513205143186      62.323831092412277      11.351203963089159
    52   2      59.038796534868652      79.606015795254066     -20.806856145121547
    53   2      8.7587641635031517     -2.8684928954638291      22.783526831759069
    54   2      26.459199864425557      9.4640149855481326        37.9295364539758
    55   2      37.483533711817515      75.342089556626746      111.04758726263653
    56   2      84.822615760028299      76.517095869955796      25.768222628333795
    57   2      53.268934659282152      1.3374575951240901      48.514950112541094
    58   2     -4.5384305291677283      12.187272753876965      88.772789164288554
    59   2       33.89395060680971      5.7906971715318969      60.774352291240824
    60   2     -37.692560854583952      19.446573241236042      18.925140014133433
    61   2      28.724110006880707      70.338799317219099      53.602211316164855
    62   2      32.148282070234622      50.591850430828593      44.832936174053387
    63   2     -9.8967775966877003      89.222279830911262      53.982979765831224
    64   2     -47.241977645638251      62.722552959782455     -2.3057087237468155
    65   2      27.449877198953963     -19.032083772815728      52.999258073855188
    66   2       -72.5551528975693      20.434833177437348      38.455459266054213
    67   2      109.89263754651898      41.060145487599776     -10.030738145612036
    68   2      13.494009057306357     -8.3684398106344027       42.44208321773057
    69   2      20.105029027675418      93.609910517962973      88.658100351027201
    70   2       39.23972842525599      32.489305857277117     -10.880849247263834
    71   2      83.627420173118239      56.808634379790135      15.540326434069854
    72   2     -1.8263919832534872     -15.859511395671696       71.18996583216115
    73   2      29.861417239324901      19.883118305030219      85.954579628089391
    74   2      42.112297355506918      17.229707581625465     -12.668655129180653
    75   2      30.425500335278784      33.885949001341821     -7.5086353891490596
    76   2      54.641491381699545     -50.589881792444878     -13.950862835451531
    77   2      123.64575129812486      81.060103846508724      14.688132391469278
    78   2      33.529561655819819      45.840948457366395       23.66162489682651
    79   2      33.272312078851968      57.207315667693891       46.24616793257583
    80   2      17.488577661094585      2.0089803390390917      57.532446212507338
    81   2     -11.684289976211879       95.03969408951717      37.720877737013232
    82   2     -6.3638055601761678     -5.3615651853251789      -7.488102118420751
    83   2      32.440928388764405      39.201625940574822      24.719285162517007
    84   2      31.674632334326052      18.052698191384557      -8.116431035730244
    85   2      66.271878671251557     -29.414019208448856     -55.095138255058053
    86   2     -43.823445528665616      5.8525404488815296      3.6961631280411247
    87   2      25.498116080121697      79.993609749760054      84.848522911521997
    88   2      18.975221880777056     -54.077166538155787        5.42075265788894
    89   2      51.909289712222304      118.63305038826293     -4.8416902327371147
    90   2      26.492571993716176      45.384079907118348     -46.637740282608043
    91   2      60.749896072589287      7.1711183371087994     -23.382421472205753
    92   2      29.408298223473963       64.15053664139495      35.532953051810878
    93   2      78.518238058864455      42.197639624618326      0.3927590354622239
    94   2     -16.185795010153967     -26.421618081138661      26.480441325441749
    95   2      22.903873372726167     -65.410184296688229      40.832146686432111
    96   2      29.918744664765274      11.955401508082701     -17.404546380897976
    97   2     -9.8312941315138325      29.535954455691638       30.65744069068678
    98   2      18.317878912135374      15.406832724552263     -53.645418293039356
    99   2      70.222087350945301      43.110177616581574      91.300006175194596
   100   2      5.4334968340270953      94.963337416152854      64.066781471790108
   101   2    0.016637020729734213      -26.31416049716184      39.843504638597949
   102   2       56.25364001002329      52.473270259035971      2.3473461747475985
   103   2      38.204868589050967      17.883511508406293      39.860782852565841
   104   2      10.778115894591124      -17.78035499759638      88.945785734738578
   105   2      17.114577016648454     0.85230848323260655      1.3392041286947409
   106   2      54.574001493044022      7.6477447980949957      44.590802573321582
   107   2       128.7604692087553      34.144814446680961      9.4690493746925899
   108   2      80.998185118117249      15.689103115201963      57.190443191620098
   109   2      73.399390750455453       39.73563372129464       42.82453742692956
   110   2      49.616412092727174      33.746454989400789     -5.9483072646838862
   111   2      -31.39084873566496      7.5857378217250018      72.656286660995562
   112   2      8.0813815214710605      66.328698333918695      22.385631583133151
   113   2      12.354378290361222     -21.387236688762869     -11.630848875413289
   114   2    -0.48862149829539986     -1.8169947133577251      73.563993312238722
   115   2      27.811311502169989      17.955787946132251      22.538702830716325
   116   2      8.4751840976934307      -17.13664266043418     -3.7102499977705827
   117   2      18.902200470530847      -53.15026262510046      61.059620884682317
   118   2     0.31619060901544965      52.206269587050343     -1.1037279724980031
   119   2     -35.469720040931612      97.025586397162769      86.381932428108954
   120   2     -23.916509837702399      50.261648601487181     -102.25535808443382
   121   2       33.18411313189204     -41.350982842435513     -6.6545423624463398
   122   2     -1.9566797951412607     -26.537602906440927      4.9087044154142125
   123   2      13.732084453915851     -10.040899614011117      27.592857014413255
   124   2     -15.017008063339153      71.392707655370202      70.580159494004462
   125   2      73.099267876163694      21.411843358205498     -14.838243749780641
   126   2      29.578616434499153       13.81159182095135      68.951887887532749
   127   2     -9.7947218649223124    -0.37998539672395187     -15.288163830053291
   128   2     -32.984603548351096    -0.18724849205452027     -14.343005162556656
   129   2     0.22655557773807752      65.225411925324124      13.956745062967361
   130   2       57.98115270922861      53.990468202979926     -25.553330747193932
   131   2      4.4633547732805523      23.672425239031728      28.956206206197688
   132   2      4.7220983590601548     -66.691444789481665      104.41303193088643
   133   2      30.178551933232615       8.009371537033271      51.114593330504682
   134   2      38.365840941159455      63.490848483969984      56.255969214813192
   135   2      39.828362743647219      58.714907028981585     -18.157257853814137
   136   2      -35.64084041747126      31.844459102723519     -53.795513064092738
   137   2     -10.028127070101919      3.9849190955287992      33.092628111489439
   138   2      42.405391461753709      2.8205439410995785      25.102541682435771
   139   2      10.936475883392623        63.7603107460221      39.801548255497572
   140   2      3.1799483817236909      36.342251605233017      46.126704819702816
   141   2     -22.716617424364195      50.726457767338033      61.422177663062527
   142   2      68.344051505991359     -2.4218439443519153      8.4648409463042924
   143   2      48.220585150569129     -38.194031605561989      -11.30936670826452
   144   2     -25.277765204814177      27.573305894234508      62.855970355690822
   145   2       5.156623718523841        97.2083543260634      21.058906386062965
   146   2       18.63272531828024     -8.1465044573315559     -23.077016084715094
   147   2      34.347939160822165      33.218012030604598      26.132953505712816
   148   2       8.197265290360777     -9.4188752519728212     -11.120207449721052
   149   2      36.391159862555661      82.009528813769563      55.811513434722421
   150   2     -9.8371913133763798      45.347047746974987     -1.6895933229025555
   151   2     -13.806545759828511      47.856860134171079     -7.8752501116421652
   152   2      16.592121271865803     -2.9919070252308577     -1.2144697858511673
   153   2       54.79814805075781      26.738630563002484      30.283163365762519
   154   2      60.285027350144382      33.675438203504534       8.178073204744301
   155   2      -27.37312488381135     -5.5814468951445884     -46.841511479512654
   156   2      1.6136592466749444     -6.4686650152870868      50.256202288876075
   157   2      59.227037231050936      29.683527838913918      23.335489552408415
   158   2     -11.695149848845912      29.843409579344733      54.323079997914341
   159   2     -22.231021723635532     -40.320100184124975      30.910985350054478
   160   2      27.657069398028849      82.617056210954345      5.7506887335249681
   161   2      71.951296052109129     -1.9631095969058672      40.605717131270687
   162   2      93.890061442015806      19.923949409712108      37.546372466700923
   163   2      71.213789503832743      89.182644498849697      104.95326576036629
   164   2      34.532580433012875     -6.4470525665140022      13.914000148374429
   165   2     -15.204887439501526      10.464653828067691      61.981812140164841
   166   2     -25.928155332154109     -36.471203308760117     -4.8602847765133523
   167   2     -22.047228458592727      15.312734958826173     -5.9544776691297141
   168   2       65.61070530583676     -59.415051748351097     -6.6811066612278447
   169   2     -1.7756138780811841      34.694239368707947      4.4247294846321372
   170   2     -32.605863177699391     -4.9253644610546843      37.773709776734911
   171   2      27.633261708676603      73.650827044949239      122.88435100300595
   172   2       2.130518707757167     -30.960636960471412     -19.636541367992336
   173   2      59.616160250583256      40.660214884884233        26.0077582149842
   174   2       41.63865380804166      33.701917055303419      42.156830547792246
   175   2      25.878209869796546     -35.496177265557236     -20.108735060784614
   176   2       4.575785356775306      74.951722965219844      36.705981433323707
   177   2      56.114707601738274      59.684214609077777      74.449398507216486
   178   2      22.988958225337178      73.751457863549746      6.3538408147473637
   179   2      36.487694514415303     -10.884667193426674      28.976204865599808
   180   2      70.375564038828543      22.779744188048038      42.408424765523577
   181   2     -9.8187801221222273      19.504677159500154     -20.782417940572987
   182   2     -51.171333423708383      28.278642088112001      40.108377266135292
   183   2      73.180764108022743     -12.123041694108954     -8.3853680838634954
   184   2      9.3475108673508469      26.083790296696346     -14.583962282644054
   185   2      8.6154122129889714      66.369260777374208       15.78825611485272
   186   2     -45.117690272196548     -45.230703876228972     -3.4019193654079802
   187   2      -36.35627948119366      12.174041213324003      69.290428425717991
   188   2       5.346151606346373     -53.730879289795197     -26.552971275653356
   189   2      35.146201255896798      50.708847125719501    -0.69340291818470123
   190   2      54.440750275795644      2.7847318827487673      34.521838018160622
   191   2      66.098673324624414      61.293381085794067     -1.2802285472379931
   192   2      15.409594896545011      42.246900230347627      15.228636586526004
   193   2      47.799853943943532      6.5244990814464376     -2.8594766228910675
   194   2      60.886070363671664      7.1980077926101718      12.790844895220207
   195   2     -3.3065618888167467     -25.930894955141582      24.555139766619984
   196   2      63.380096882700755      16.590677836612759     -6.7530910226915193
   197   2      74.051591886543051      35.302972846947092     -12.581127188684524
   198   2      87.884636726248431      46.247191067973887     -7.2091237537074742
   199   2      60.136374147022856     -17.146699412892122       97.03034147783012
   200   2      8.1615956210021743    -0.44637455604851323      27.177526622053911
   201   2      57.334927901930122      30.087405254942652      62.311560932285808
   202   2       61.43748858809613     -9.3001455632153451     -66.477373625605807
   203   2     0.91609540266930567      37.311235504547355      1.1271759106189145
   204   2      24.215985784992654      76.542819783714975      2.1376987548051329
   205   2     -51.128642056833613      37.082775257375822     -19.555272892336369
   206   2     -24.074981087572645      32.180757947162398      27.760752191614614
   207   2      8.6810462112609788     -5.0658546083078528      14.451335096847112
   208   2     -6.8740256901626218      20.742625297333593      97.299372698919726
   209   2      64.883080197286588      21.843672345746995     -38.789597351211334
   210   2     -16.132937609861891      71.238912544924204      87.913325715831149
   211   2      62.541801257677676      63.743246569163944      26.120022840525841
   212   2      6.9351777675689066     -16.058658717155442      38.299665313008646
   213   2      24.115921326927921      58.876576579382082     -29.887639907653185
   214   2      30.546326959537218      20.403849704479448     -35.576366998630085
   215   2      20.999178752357388      46.967027606324685      36.271389639164163
   216   2     -4.4645241660119428     -45.633265406774612      1.8694506900923666
   217   2      18.975293399281441      101.60699830605809      24.067717111949001
   218   2       24.60737154326144     -15.930550689037348      81.521330569849553
   219   2      27.215467401767476      79.416061720517021      30.425381276143376
   220   2      11.582080019889492      35.201330707155904      30.441901671276646
   221   2      1.3028507539248659      62.321217372003716     -7.7533389638605428
   222   2      2.1419911850861393       50.87371515730851      28.112133119425014
   223   2      96.142499222460884      19.158409721868345     -4.0442129084310743
   224   2     -48.939588340341849       37.79213197204254      90.213899085000961
   225   2     -61.944134749810686      32.247881266334382     -27.138249683325707
   226   2      23.652947188565953      36.287937887440016      7.2422891204230622
   227   2      52.951336073928111      13.943633237167329      26.988330339567167
   228   2      7.9448789484314641     -26.604809007597847      18.515746227610247
   229   2      57.552058938059254      33.624087893245253      52.571773115236873
   230   2      52.480989012430364      27.766537775117961     -29.322692400350824
   231   2      9.1685369945136834     -35.130194048455259      1.5858278925969229
   232   2      -8.533991923757057      38.971132057275327      13.629303963341101
   233   2      48.404320144181305      43.349571720986091     -10.862791981032611
   234   2      2.8096991428124882     -8.7442725028047281      32.124993379902598
   235   2      65.173396426134133      -11.19654029783521      23.553999696431973
   236   2      61.657118504974761      2.7730253858202434      18.795864972585367
   237   2      29.040797196812296      80.830512344528572      33.509476645034908
   238   2      33.558201765532218       7.462493087750909      38.027882051901358
   239   2      92.164532764748444      31.391162584614033      48.716351171105806
   240   2      61.967961121665972     -5.0175137959942457     -37.412845053385212
   241   2      107.31725945222232      30.191674624776155     -13.071209721399967
   242   2      18.576439310064291      -14.37015252561295      77.980617082988587
   243   2      12.177179369264353     -26.916554103038834      64.962613513601937
   244   2     -20.230488652276662      11.298731192803695      110.83532191389139
   245   2     -41.981080902806177      78.975351813774665      75.761501956864421
   246   2      20.730595525521721      4.5572323455880372      11.465342840546452
   247   2      38.077731938736491     -15.020475037738596      42.246999955064702
   248   2      66.824139117047181      37.982475636869644      19.310998323005077
   249   2       26.86490076482151      8.3706890819080186      63.303862389332423
   250   2      24.961813253200482      14.722226303522367      87.119060343713684
   251   2     -9.7155691713889052      9.5660566156311955       40.36522717608004
   252   2      35.100015203545659      98.821524167372971      83.961987670941468
   253   2     -33.656966257650097      34.088366691759951      16.666024571782131
   254   2      23.437389599855354      35.305255657107551      92.984478475730867
   255   2      46.288768187223262     -29.150068802426407      31.144640482863593
   256   2      -10.36766483111791      1.3895605982786041      45.270238169376469
   257   2      54.330468800886308      8.4840310857497698     -48.807379609250489
   258   2      46.693558186624536      44.250506131781577      1.0770031300243779
   259   2      14.511146094321443      18.305020180915058      11.834279696926908
   260   2       38.82258614163414      10.869131904222229      60.690606381654746
   261   2      17.068041654086809      74.633503558930727      0.7222305480223663
   262   2     -7.7062529380880687      61.996988328914242      -6.075262418886493
   263   2      7.8338222022861519      24.299408645244984     -4.9273511899604774
   264   2      45.253644444015386      4.0634109196961585      32.630090261516159
   265   2      30.861205575966626      41.219597172639837     -8.6834318447837227
   266   2      17.844995448826413      56.171771896595786      79.855199809206951
   267   2      13.668263197624166      9.0159443300591526      43.839969451467951
   268   2      107.20246909145249     -6.9233752848272916     -4.2790975668522471
   269   2      8.5724511573500823       11.79533247639778      11.327961303338979
   270   2      50.931763748324869      49.858779041648283      8.7216431486672299
   271   2      5.4994937597500648        8.24294831674022       11.43212244517113
   272   2      32.832734244175491     -2.6503757734357061      10.244590809062576
   273   2      28.816864903581731      5.4925737334709561      11.884603539393378
   274   2       32.29940655889979      -26.25830036420929      93.080972622995617
   275   2     -12.654317651453159      44.922746397056017     -5.1121966986518608
   276   2      55.520807588655359      33.093518510208462      30.399435400968766
   277   2      71.905275164950027       36.95794446417964      69.938059978830083
   278   2      55.210902816397763      16.790886631536537      47.038488441991802
   279   2       21.45738075901949      35.199980252941458      33.840365916650512
   280   2      37.366377699317191     -69.756434858725285      38.999709477963144
   281   2      11.845347122607457     -38.429703724865412      77.496320375454246
   282   2      85.784478270156043      44.637404784849366      2.9096699026263892
   283   2      45.602427630851949      46.108134159450742     -3.8820420276007295
   284   2      25.720362549113808      35.831817211810865     -23.474878326328092
   285   2      43.524323751355411       40.20727230687811      44.150063229018919
   286   2      41.467111703938542     -23.428084839837414      58.395788808390932
   287   2     -15.749538697600068      20.638223421308908      5.9597058863212995
   288   2      6.1870057822221103       85.27414010015616      58.017341910379812
   289   2      1.3957072950521987      4.6115728147953092     -13.833333841052371
   290   2      26.639310623223579     -10.381507725306458       4.729203233293819
   291   2     -31.334940282547912      15.819503383630376      17.266771050403225
   292   2       71.26191418093461     -2.6829354875822582      12.311800447145986
   293   2      76.284325342120766      20.630517491683278      30.076033518778086
   294   2       42.89351355543031     -54.025760991108982      22.774796349010654
   295   2      64.776962070412679      44.802163710031081       51.91943187532452
   296   2     -27.000014643439716      31.028720233489413      52.789610216845858
   297   2       29.33294850540657      94.485937099118516      28.173730282633514
   298   2      77.401833900798124       16.20151996325016     -9.4976631898146238
   299   2      -17.37264914276555      67.475962869952951      32.973605020841198
   300   2     0.83257714135135696      64.439149193711899      2.6009072737922483
   301   2       88.25751439694092     -10.022064123024141      19.055150999244052
   302   2      18.961441261216219      10.518498216949242      69.058741194836159
   303   2      17.832581734192996      23.461141955680233      21.514516370288689
   304   2      26.252263122188175      13.862392026246276      32.731879770789902
   305   2      22.947333605300216       78.78673140105748      21.764253744097378
   306   2      14.484868872663755     -18.823422715953459     -21.433840323977009
   307   2      21.013207764235641      59.289206079584609     -40.579783244512406
   308   2      9.7013564036480595      58.337171125043398     -26.978576749754033
   309   2      45.101270473705661      16.256430738015503     -31.656894074183697
   310   2      19.543307520843218     -46.761123721880814      -33.14880287024328
   311   2     -24.360647694136777     -47.515537428797117      25.366040166525654
   312   2      38.054155857607903     -23.457000744496245      72.240146621279905
   313   2     -3.3769549754377932      17.613835296490368     -45.791569832810595
   314   2     -21.626571394990464      16.743893882847129      12.788160302024236
   315   2      34.410989710032553     -23.366639281651217      60.558060588087052
   316   2    0.031680179592243667      40.531839086581698     -29.139588037386751
   317   2     -39.405562184474618      105.38200886452769      49.947341651740189
   318   2    -0.43188427820392361      6.6387211799397994      40.510086975768431
   319   2      63.535630773600104      50.485451842892303      46.377034013261429
   320   2      42.825383516358833      31.543634051276552      83.145420447345629
   321   2      13.339217811152055      3.1869202040750744      34.579040479612843
   322   2     -49.446548579563697      10.870503084274246     -4.2917036530379322
   323   2      10.749931744446332      25.924665106359278      22.675585724392018
   324   2      27.242942559368839      65.085697666065599      1.7552623011431046
   325   2      35.969857597178866      10.491321500404389      37.464031398936818
   326   2      35.004699854954431      109.24118748674644     -4.4359740170169202
   327   2      16.175387895264432      11.234593946116259     -5.0445006462188751
   328   2      96.292464811048589     -3.7413133950815727      12.888518419079537
   329   2      13.006324443940203      9.0157898177819007      17.670661093892551
   330   2      68.453112120680217      44.824574964549569      16.081426527604137
   331   2     -33.252639834055316       79.61613861184567      3.8342565232743282
   332   2       80.66059967332923     -15.783324606057466      29.331782896743501
   333   2       70.42194900771706        31.4047726492153     -4.1383690235602231
   334   2      16.659060608604555      18.284376210041046      21.926282270301417
   335   2      22.643209364906571       56.55742915163696      32.628411013583033
   336   2      24.448912268764744       17.13168891698054       26.79564529932982
   337   2      39.186010569484402     -6.4666529361587557     -33.041698454199029
   338   2      22.025255817475045      38.510519826937198     -44.528027311826328
   339   2      15.636399977695586     -20.342369137506836      61.422449286902527
   340   2     -2.7155839033546409      40.106133755445974      56.337532471799214
   341   2      36.570660640839698    -0.37164215897913655      52.299404865269622
   342   2      21.473347073301134      22.088388178028517     -48.601099502832241
   343   2     -27.167315384435753      67.157533822576525      35.875610252973281
   344   2      15.916584544569762     0.85782652663789882       42.24581643719867
   345   2      32.096225479277031     -24.711039049459885      8.1234573560197028
   346   2      94.738853044119878     0.70180873144220002     -41.256074381087771
   347   2     -27.733173887144151       60.56474527782629     -25.764427275831999
   348   2     -1.8124432698198203     -27.618249621060748      19.700479425186607
   349   2    -0.80075807468647731      103.69986438263899     -18.526614911515601
   350   2      56.568259475689295      32.271823488415187     -27.029028808754532
   351   2      40.219962547517248      18.277066956860391      44.803285435778399
   352   2      5.9676766546960325      31.238736669928084      17.032052466913189
   353   2        21.4714618354217      18.539505959777397      23.503038569226607
   354   2      24.334553865473886      33.732614820719284      18.431986138220399
   355   2      66.985743662762246      31.736534471422608      59.023062549678798
   356   2      7.3396275926233967     -4.6689809670075855       27.45885347911188
   357   2      34.049281907614372      19.822572476761316      9.8576698019107827
   358   2      21.619416395116328     -16.676823563058186      36.638323896847162
   359   2     -49.217714654886663      9.0688981462882428      14.269260042527614
   360   2      56.807283010564333      12.555683402231896        17.8825151687698
   361   2      -12.64056308444029      53.372147393904903       28.36960552371842
   362   2     -83.470132975856771      37.442167882488995      19.266116118497251
   363   2      31.464516582340362       5.630205916171886      63.278749237574552
   364   2      10.800422787682693      28.642881923493899     -3.4099912313717344
   365   2     -23.989911662958868      61.934488553799184      14.912911909722537
   366   2      44.203980643719198      18.341211828156837      26.804947269486952
   367   2      23.638426957736581     -6.4478086977395392     -9.8816897919744893
   368   2      25.397237693130322      17.135648125109004       35.55490429639481
   369   2      65.893142340858674      69.013438005644304      4.6483304089827113
   370   2     -42.245110682755104      10.410791349066455      54.908986975491565
   371   2      65.137211605479848      33.630642777996144      21.747415906583161
   372   2      13.200099208428885      18.373398759286523     -11.566425461543709
   373   2      13.231772986320525      -25.88216062223411      68.686317782323599
   374   2      29.500733649965582      56.479040417751612     -9.0889380072176262
   375   2      58.504686435338016     -34.237995731236985        126.126011805856
   376   2      6.0664592744196018      69.967656396264388      34.316371712844351
   377   2      14.540263102395885      37.390078816417606     -14.151006853855776
   378   2      -9.254912641141738      41.792410982902105     -4.5493284220229597
   379   2      20.924462169787944      75.024680691611479       21.55721170091164
   380   2      66.332863952550099      46.415479655143173      21.207736836997547
   381   2      5.0521537896477806      20.944541466775675      47.924756253266366
   382   2      76.965219026347171     -20.852216188471047     -15.244017748788639
   383   2     -12.732649894619396      56.949524781586831      32.774253735748324
   384   2     -25.106217893216062     -23.405711483619111      36.710033718991383
   385   2      34.698276704023307     -30.445048069293183      68.664447936835458
   386   2      39.364133562458974      9.6473643061209486     -3.4773032826406394
   387   2      7.3807668626182528      72.022917944156873      53.129172851571539
   388   2       62.37037404949082     -12.931098561220772      -2.062641349534756
   389   2      12.176451080120932      51.639264134565309      72.863233902780294
   390   2      8.5804533167448582      43.799899789235944       9.734695556382956
   391   2      52.353551280267617     -80.145312023658391     -3.2101318703874693
   392   2      39.114854375330758      54.515527394861948      44.714651419646238
   393   2      66.031994874350502      23.387006974539791     -14.817142707392893
   394   2      11.429282622232178      26.410461131855325      41.997245122459844
   395   2      14.388987035417676     -3.3546372853938586       26.30941795228695
   396   2       82.19210663645508      4.1932647404667343     -73.000101247640814
   397   2      69.268649830772034      83.131171419847163      24.151714987082606
   398   2      65.545952927981631      77.596547010223276      30.955734758423585
   399   2      61.810713640375376      33.204144339951227      11.499631912731822
   400   2       14.17335305315593      57.726339860711597     -27.062938615232067
   401   2     -54.157911943708612      29.971410465732735      43.930817706878386
   402   2      64.123654657043303      50.491233695168297      75.794243732466001
   403   2      18.140152982123915      5.2967982749152567      -4.970132288344419
   404   2      26.348747755539755       62.25749941859344      59.001167788090889
   405   2      74.952334938152291      14.141735136179969      53.569475752656707
   406   2      7.4845045887404318     -25.059753994785417      24.031718667119172
   407   2      3.0848852496604167     -24.673105652906653       61.30631676038152
   408   2     -17.441203705448519      25.444600006872911     -30.406483019679769
   409   2      1.0114520129477318      27.397825830166862      55.917799528872777
   410   2      33.980817487080401      46.438370989747227     -19.491469883011209
   411   2      12.991902196550663      11.511002848626848      40.520287387536911
   412   2      15.311964571005104      89.338409967924903      21.336668136770275
   413   2      20.740218564760443     -10.214185452763772      -7.404141622927769
   414   2     -5.5064109483576438      114.01016454850978     -18.068283162716394
   415   2      -13.92925500506853     -29.740614773412734      30.126033437471385
   416   2      78.671340620394318      51.805031608919556     -15.510322490258027
   417   2      2.7432251522491256     -9.8962158620597425       22.99198712552813
   418   2      66.595961723624768     -10.604411856884163     -12.065953849779012
   419   2      121.18625215162783      -37.23668698028299      84.275396454505639
   420   2      9.5022965725476318      41.439616020195615     0.25567802767773667
   421   2     -15.097636079225831      30.649380349897864      13.771486252709627
   422   2     -53.963075339313164     -45.899139616429899      61.285054333099239
   423   2      33.219838618118082      5.2122564399599032     0.51428299369209451
   424   2      21.176678728149806      41.317141118025511      14.972697618367143
   425   2      59.356630214428989      12.640248523368296      25.205705093484365
   426   2       49.91017008009154      26.805643592443705     -18.544667625164138
   427   2      35.709765153051841      29.620663742654795      59.311094727240061
   428   2       -35.3169738382635      13.136813582255927      94.870858577669509
   429   2       54.36737798025009     -10.076352711690184      20.501082921906757
   430   2      67.510351075848774      77.175031378914611      34.852133580517211
   431   2      -6.774471348711292      44.975377222133474      44.379655180560789
   432   2      59.614024486508569      34.779189801410176      -100.6457937470548
   433   2       1.964880933647065      76.512163224545972     -1.4782288334058684
   434   2      46.773531451495515      98.085762865573685      64.128657121856236
   435   2      13.524901467082589       6.245297612335551      8.6834389429370944
   436   2      44.878425173547654      58.338150676731445     -1.2157356561530868
   437   2     -19.161589170397775      25.562647978189553      12.213946847396773
   438   2      55.730096800289971     -37.025861562494903      29.288209822954709
   439   2      45.752398022803838      79.269474831862894       67.31437366879122
   440   2      60.039002489662259       47.91524145728792     -63.546836905699422
   441   2     -31.993929613840557      20.748212922104226      14.762142882731442
   442   2      84.040431990618046       25.64585071165704      82.382358581488432
   443   2       82.83623621482937     -10.643393918220955      60.839511082059865
   444   2      44.052575735414472      12.482512309528103      12.639440669981868
   445   2      29.391700647956188      36.870504074750535      22.596146967636397
   446   2      22.542468320663712      52.165688296371002      84.392040601277941
   447   2      76.153189798519165     -36.174856329858528      -10.86322367333401
   448   2      34.538236965444234       66.10553810392669      5.0964152286074365
   449   2      -64.27374384079414      82.408270725880527      17.085627113970066
   450   2     -2.5859609788957019      38.701394759829192     -14.425515061227188
   451   2      48.731219425863841      33.120169873568472     -38.876435356902505
   452   2     -8.7375832772479995        57.9423914168678      63.924668373570576
   453   2      76.434138801778246      85.848248057569705      91.751515388305805
   454   2     0.59161127333815788      93.028596491915664     -88.284399161196134
   455   2      61.979249084921861      61.007882729492856       51.10081456138586
   456   2       43.47272795123267      51.494249548807908      35.484087585421953
   457   2       41.19478656086762     -14.274680715815279     -17.350517833463531
   458   2      52.265143455116394     -15.312209845931152      35.223891442533755
   459   2      13.096021193139167      65.837731310487655      15.801703446610265
   460   2      10.532184064687538       76.07801667045365      26.029394748140263
   461   2      14.613413991683311      26.675728404329142     -24.892468463689031
   462   2      29.185094964490013      21.403685832045873      73.044601173518146
   463   2      49.035355102366111      80.167392931843011      48.362333886921931
   464   2      47.733086180245806      50.746937327418358      68.251043470890238
   465   2    -0.65341103397039357      85.102083682997119       19.01895882399171
   466   2      5.6022537793320231       44.89156389766611      51.278599296298793
   467   2      48.478292385647556      103.67605877518427      51.826935242953567
   468   2      57.813258573009001     -27.126454486596625     -20.922232414245713
   469   2      1.5868764432931917     -22.640802325303131      39.804466824433554
   470   2      2.9832323607685103      73.284388879935292      33.073944801999531
   471   2      78.243939803384123     -32.928099209765385      78.718683766450752
   472   2      90.041488742024782      23.136354667277704     -21.566014785456158
   473   2      30.406788883405053      99.462235570791634       37.22640951881128
   474   2      31.006856841189446      8.5620180249656457      11.518339698236046
   475   2      56.755560852645722      6.8760694523612882      35.107048522830155
   476   2      32.082492309541514      50.021585603558904      99.364177847710479
   477   2      12.675104788281709      -32.17916605673603       52.55912806699515
   478   2     -32.328275574985156      14.335294723945475      32.407006119636947
   479   2      60.808254342597145      6.0269116477656146     -28.575566595153905
   480   2      94.837125235599032      37.321418997854572      10.258539194063435
   481   2      70.288535337065838      1.9081459256533972     -40.566201241131964
   482   2      51.066294395757595      3.6057749489074551     -24.556067441400991
   483   2      78.507863833315838       -5.30333389113036     -36.437936287275328
   484   2      27.625834528431138      11.780951284654474     -7.0117185773545279
   485   2       78.28191785584653     -28.845139594057443      98.053368993014018
   486   2      122.00874388781436      54.670180673318747      72.834712516754877
   487   2      19.250427322306919     0.42490302116472611      12.164775846849093
   488   2      10.954868149393706      36.553870474776012      1.3936973158723507
   489   2      55.953839362967976      44.929139514368039      18.736659491700276
   490   2      5.3373461336183308      25.326534178869458      -8.310357477489184
   491   2      10.765928591695291      17.199857765888694      44.960677183438868
   492   2     -10.126540669306044      81.086705600631191     -38.942976877369091
   493   2      5.5495376578469955     -29.764966280570064      29.893865210560875
   494   2     -6.8010527106424483       61.29924435106615      1.1855948361656687
   495   2      32.136882414577691      5.3578586280817806      83.671590626726839
   496   2      16.752761896697827     -40.920452972852125      108.70307448347695
   497   2      43.591621517831911      40.956888175828766      37.315380155365055
   498   2     -13.582455507112527     -46.627271001669584      31.059343279691753
   499   2     -2.6763534846518851      14.660563239237735      33.510760361368767
   500   2      11.438750910622566      27.439501284557604      30.174309846256612
   501   2      24.085535474468664     -2.3867224339709567      66.610508879125959
   502   2     -64.034226882829685      17.908303979382485      47.315613739226976
   503   2     -34.070581097091058      26.216203233075944     -3.3140538879547488
   504   2        53.0866888555733     -11.246572148731882     -10.009976441927375
   505   2      33.958375573247444      25.092452429608226     -7.1837288308036751
   506   2      45.712293280853423      31.149615259128424      14.214857868159683
   507   2      27.600417119549135     -6.4187692004033314      19.096075771533627
   508   2      86.389391004003542      45.818000161893153      77.137264391805587
   509   2      33.055705576727455      27.504529913336953     -26.758571543229451
   510   2      35.002160333452331      12.189275950589025     -16.656186012188424
   511   2     -39.229390219380328       9.010329444736259      15.089662728611081
   512   2       44.65661431707322      9.3661763752854093      16.743943953762166
   513   2      63.665123898577633      4.9553071299917715      62.468381017586999
   514   2      25.063354729506102      6.0410954956311311     -11.811595512998776
   515   2     -41.042564025920484      87.224517231656236     -35.232899123386908
   516   2      2.3210902048769184      88.207738990405787      58.006182579006143
   517   2      37.481362294229129      20.084493663887901      8.3044352678542559
   518   2      21.016488312791644      22.627988112096812      10.182257030017288
   519   2      18.448375721865823      55.054008049410676      7.2869878131911845
   520   2      78.632083123128808      106.03795632589458     -24.845087688710958
   521   2      87.441530998689856      -26.25786771045497      79.736333753322171
   522   2      5.0697025386402803      -6.833379814039704     -31.771917660202778
   523   2      43.192235944640622      -17.86758006559743       59.05436959549867
   524   2      15.667993401697322      47.267981617855966      104.15815902916123
   525   2      8.4684584545297934      28.590804879284267      19.271013341552681
   526   2       41.22536459178982      26.537405303543341     -7.6302940752372121
   527   2      21.984956692273023     -33.605612174329096      5.8668829327968242
   528   2     0.34189120887149005      4.8191436730504034      15.903683699932621
   529   2      51.983646401164577      92.864642387540883      26.020523886223426
   530   2      43.450334266921331      111.08502630493737      46.241238401996206
   531   2      -9.760536225264639     -67.819651190220824     0.80892417872113076
   532   2     -30.007651072251402      47.919779409427989      4.7195228958653379
   533   2     -5.5129670385143248      67.421214913262489      7.9921114567534026
   534   2      31.396259593256655      52.482888817479036     -39.734749099160545
   535   2     -23.180079980294348     -26.400008319345918       46.13359990085317
   536   2      68.002463529888985      19.903177229988955      67.651424034225158
   537   2      10.712127187094451      47.689036899264579      10.075497186821508
   538   2       82.84023187020037      11.160774712343972      66.855422431106916
   539   2      26.424944329774789      99.440373104925342      39.106995078403131
   540   2      43.331381043996551      29.875389490392333      70.139859742150591
   541   2      2.6462577383536892       54.94856940151454    -0.15986356805751128
   542   2       18.32935630271874      66.270232606832181      98.878349834050454
   543   2     -7.9861594185328677      36.018811239023073      38.832543813963703
   544   2      79.255071621601942      38.512523212032534      61.633100821743284
   545   2      26.689274837520312      32.957000424617512      42.247011518399532
   546   2      56.929849059464885      4.5546411681997681      12.985196902945638
   547   2      50.670039235683447     0.49305017148540886     -11.845822042573563
   548   2      27.580293600365369      -14.56489999592557      29.289379754732206
   549   2      28.070525075629742     -17.452286775934585      49.107104609891508
   550   2     -2.9894175274495871      13.506380509136193      49.856541382369009
   551   2      92.580008903637236     -57.356045429604421      20.594684414709469
   552   2     -19.452333189165344     -14.920786658360544      25.584250703818714
   553   2       17.59205958848365      1.7195132474316881      32.420139676418344
   554   2      31.180865179255054      59.636766962226631     -9.6025324097698768
   555   2       32.28259500539292     -12.544146139978155     -21.163134198006372
   556   2     -28.881736947800601      10.902422604640865      83.777599004848327
   557   2     -6.7192130086271247      46.025223019347528      -17.70059529085923
   558   2      61.376282270418493     -5.9826276282010413     -69.087570216436447
   559   2     -2.8215778509980982      -19.39141742506078      104.87523730143299
   560   2      15.015589058441886      15.916425174545919     -2.8757617172534622
   561   2      33.275892386868748       31.60827679582891     -13.429980708686486
   562   2      71.004238228306463      39.035535454205835      37.550735893166134
   563   2       7.260455832170452      76.757145694659926      23.869322075041577
   564   2     -33.495498866030964      52.762654698037657     -9.6933292151384922
   565   2      49.992701952395464     -35.457995499601019      80.890907510016504
   566   2      22.384474412449073     -38.300826369139223       87.29793770250437
   567   2     -7.2898851587854621     -62.880125889503752      61.676321000938735
   568   2      9.3263240315354334     -2.8384362757398369     -3.9196934364712916
   569   2      18.691495450818344       19.21321516744063      11.356224923295633
   570   2      26.339377035315444      57.258603915500643      58.939360353912981
   571   2       17.39154803074695      45.400722364405937      42.708846857521706
   572   2      41.466068241323846       44.34868281081792      5.1464242363871717
   573   4      18.908583864794316      52.347055962244205      4.3780879790910578
   574   4      39.552572809197493      4.8801952198028653      26.195038431890126
   575   4     -1.9826274323493731      35.706019253556683      25.720274247898473
   576   4      13.994596462567696      22.158057694834909      37.278206757652363
   577   4      -5.762242730404421       28.07883216563333      51.383873460522082
   578   4      -8.452248707802557      22.056213658252592      54.835798486088997
   579   4      53.933162309730896      42.830296419005897      30.689992393979463
   580   4      20.543515884053377      18.855615570854596      27.746211364696414
   581   4      12.241620542979565      12.009454306772334      14.532868999366112
   582   4       21.64582811636777      15.426400571076231      41.584752767429841
   583   4      29.304891509665968      23.823086937637413       77.56181015563007
   584   4        26.3961419290296      5.6272552866619732      33.556391199791769
   585   4      16.019101871288797      24.046569159114323      26.930766490484281
   586   4      2.5464536414055008      8.6202039572815021      53.274691488527353
   587   4      34.499669967194293      22.199865285784583      32.895799469433932
   588   4      37.183746427101326      21.938793900956121      11.654072596161862
   589   4      39.231466658313373      16.111279988110251      20.854531610049744
   590   4      35.492407956296695      26.795948365282786    -0.22694844498546549
   591   4      10.068302184761123      10.410155462450305      4.1400484517297311
   592   4      25.098997889244405      27.981369711812885      28.562038686482445
   593   4     -1.9438557906784748      30.526101570421815      37.238630321150822
   594   4      58.194506288246892      34.728337803669689     -6.9191363012116351
   595   4      38.381284271683612      37.892874507687594      44.111125165964225
   596   4      -3.973484456011759      27.481344120120543       36.41670639757757
   597   4      33.015581436704046      53.828448459325081      30.664575925579832
   598   4      9.1460809389130375      50.198785573227745      21.463934898010695
   599   4      38.676552481703801      34.887806233618036     -14.025306938406535
   600   4      7.1161536697507746      31.393219458447106        48.7981427666126
   601   4      35.510557066060947      20.602953569654986      40.733116448006079
   602   4     -5.4765807072987931      30.941637045524853      30.577980781893718
   603   4      42.336597254448691      24.737114981941428      72.120745403596544
   604   4      29.102768269773552      30.587556609072134      7.9458456245971343
   605   4      35.873310703699062     0.11856005349085268      27.253437760436956
   606   4      7.8232016290492554      10.752926712119107     -2.8026540141351592
   607   4      2.5546270127228623      24.946418328421586      43.745969094473885
   608   4      22.248963322290219       47.86373461245374      27.840758276076475
   609   4       37.33552934828873      -2.204586533820839      14.599003688591631
   610   4      53.720972445127074       52.78227171259293       37.97229656586066
   611   4      29.605218265089853     -8.7180966535996625     -4.7432969147134756
   612   4       14.95447130814151      38.426650757649419      13.933951325535652
   613   4      20.746788352899653       22.77498669031548      15.174937910682601
   614   4      13.578274092958544       2.864005566456449      30.731669390613536
   615   4      55.438739372990241      40.450513246036827      41.592537686609973
   616   4       7.517125449759134      34.654838209889341      25.394425814670733
   617   4      8.4597539558053896      43.490906734633967      40.401554865643881
   618   4      5.6382447931890578      11.515921214802587      15.024847418900737
   619   4      45.266018208076716       34.63132712091241      17.282381315039029
   620   4      26.305565781449268      1.2562375330336306       17.57089895771669
   621   4      25.392149165880372      42.751763747794961      29.776911768739733
   622   4       1.041082420752403      18.010963725279758       41.92302065484165
   623   4      18.482309111734875      21.857171402460921      45.090592193256768
   624   4      3.8834533954078521      15.688002941563676      36.616186227962046
   625   4      32.576588081209643      38.566420218381836      15.550916340670216
   626   4      21.165230433145819      36.199523348907448      17.503933476996458
   627   4      40.738993463138392      12.559300614811693      21.286748145693817
   628   4      20.820160329202544      24.970470743292861      33.974427906519985
   629   4      10.363490023459116      31.687858747806015      17.683589467605401
   630   4      14.461641694141576      5.7467357225691398      46.448705063726059
   631   4      46.016203457478127       33.88968924482495      44.821438832176199
   632   4      22.712419916389017     0.83606909262562001      14.339737068028491
   633   4      20.777119146291657      30.897883310177509      31.161758755487746
   634   4      42.005755797584357      38.185642462476274      9.5407892736822273
   635   4      11.284273940703114      14.359837669977313      7.9243990179423589
   636   4      27.267307460875514      24.877673633619882      40.057151302387645
   637   4      37.138581314152368      42.191209630650029      56.923222544883686
   638   4      6.1515235054834223      18.635339312418587      19.717984050427784
   639   4      27.808538433259361      14.046671429169296      46.743036742305456
   640   4     0.26580743090324804      15.864463085039946      44.076495226272172
   641   4      30.399687655593816     -1.2979634908339879      40.789063726283551
   642   4     -7.2662862284405216      28.886162445634319      37.708661148591723
   643   4      36.262221830674704      14.623803038038382      36.007828959904089
   644   4     -3.8519736190027101      3.6619942684071152      16.704252756900591
   645   4      41.599752642842176      19.541659069353404      3.5611752313021823
   646   4      20.612997166803556      37.907668053638027      13.196248050087947
   647   4      11.662205464551123      40.606027932167642      19.643608584368131
   648   4      29.936621119524006      25.646438698984987      35.751744241940592
   649   4      18.285481608049619       25.46409757709559      25.587744389122125
   650   4       24.91525726944101      7.6288573447512675     -4.9121482105976062
   651   4      46.176024744761747       7.212305859258711      35.159630757014568
   652   4      53.600276698131424       1.291887211488598      25.091466749337556
   653   4      11.419944144971565      44.639335412822945    -0.86697119022220548
   654   4      36.808955547522245      8.4184016497838314      43.426979196459811
   655   4      33.879215117782408      51.963424573076011      38.973966843648263
   656   4      34.336449667494925     -1.9248609842640509     0.58383846359721936
   657   4     -6.2163467185420922      9.1226130334343623      11.833274007332509
   658   4      45.486330981090461      -0.379842195999118      48.354849091886507
   659   4     -5.2115627539522338      20.078052993157261      44.893383679068798
   660   4      11.435219768899561      22.713576614150725     -8.7597363756064777
   661   4      38.444634860148525      6.7450190183736094      36.437749413935506
   662   4      31.417417944825463       31.26191895301411      20.156729648798059
   663   4      35.894988937775189        4.77115253738289      18.919902048131899
   664   4      40.278767274969219       51.22441565600203       41.64622330057589
   665   4      31.972226738223981       38.47551898921126      57.825298632952467
   666   4      24.233096014826351      50.860745561650738       29.32080104470511
   667   4      8.8744519948780756       7.384205916334202      57.925197263093857
   668   4      9.5426077753485288      46.965791645429142      37.429622223590741
   669   4      2.3668323926798012      44.609925526215825      18.623605584977568
   670   4       7.865547155592612      28.342220576574025      43.055941269112367
   671   4      29.338926917695346      51.190189723072372      24.477549021597461
   672   4      38.432143464688338      4.1503815319949302      49.250422507503821
   673   4      26.955458814544428      27.206406843373038      37.229151595415281
   674   4     -5.0597614310390586      23.218138838599206      7.2917627538479124
   675   4      22.644382561253021      18.692131653579896      10.066951740521782
   676   4      48.773765183713664      59.195823582489233      29.484659521477848
   677   4      48.549720328612707      25.177123375691213      18.083831674032144
   678   4      51.730223939030793      45.066198011848634      5.7322300046610559
   679   4      22.645224636137335      2.0690907161819143      18.085879862849868
   680   4      46.988055099338482      28.953239387161506      22.679087561667419
   681   4     -8.1442831163894045      9.6769192918155849      18.809195052577056
   682   4      12.805054595163373      46.380043543012789      50.923114162910053
   683   4      54.032547024323733      37.137744905539272      24.936213263633952
   684   4      1.7162789277710822       20.59071529524546      35.401673045111025
   685   4      30.588259978668997      24.445981330529236       22.67701856574422
   686   4      18.941018638508183      39.234233027888273      6.8465247923037857
   687   4      43.808019420897189      37.506100861531387      36.603387902481664
   688   4      34.102310768781081     -2.0965913405228211      16.531475865596928
   689   4      2.6513214696932712      18.893840077542965      38.574630041997665
   690   4      32.001972904011282      22.370253759951797      35.530251099715237
   691   4      17.955885156134833      40.428559481210293      12.639459981708685
   692   4      14.813101874729369      34.540053476593691      27.924062510295023
   693   4       22.89390585887617       20.93962581709653       29.67210103155243
   694   4      46.815024251345719      41.380955003507736      41.127454733202562
   695   4      32.976451349869336      14.217605954371662     -6.9748619826562841
   696   4      24.005012227977829      33.143471679440985      10.190440794731575
   697   4      31.483115961225678      48.181929981169546      33.586905613136004
   698   4      49.250704901615116    -0.27762689312165822      11.826746487601353
   699   4      26.421531203175675       59.48793461077836     -3.4347661532879661
   700   4      21.428171513813847      8.5882195458422341      13.971023785498451
   701   4      40.714946547580091      16.163171361238717      9.9838315003942419
   702   4      20.272660230724576      33.505798652065891      20.051498723611402
   703   4      51.590276998510028       28.29581178576267      12.694512938869542
   704   4      32.506688474357382      24.992968327301369     -1.5743927885094902
   705   4      37.735251276530718     -3.7365896546348689       32.15370081872473
   706   4     -3.9703145957860455      24.659072203737733      39.116272034418508
   707   4      49.410498145556268     -1.6288805388271634      28.489176899717062
   708   4     -6.0089411673354816      19.275122335493347     -7.2620242037941951
   709   4       10.11484371216295      16.815654359722902      35.327720174232446
   710   4      47.250899218808129      19.330273183723392      23.291297883501045
   711   4      11.801094880487252      44.534082986432281        7.47664568339294
   712   4      -12.34188674652245      15.312813147699181      18.330955192203543
   713   4      19.560499673726266    -0.21997267181354682       41.58787760978359
   714   4      20.474486532886562      14.749737189431244      47.738591650569731
   715   4      14.892293736069362         12.386477929686      17.264108726350941
   716   4      61.334276813072648      39.955075926819681        6.15069692573016
   717   4      18.885449821200734      6.2982528436424019      15.037675074349943
   718   4      13.120974622383311      20.210069673008071      7.0297663512425963
   719   4      30.482229571692027      40.730736823362982      20.872306666395978
   720   4      49.195459938898239      14.810380779807439      18.452642346440804
   721   4      48.474861536547792      26.333992577008456      13.335218826594474
   722   4      19.037543127008053      16.735611862098313     -15.000549224941054
   723   4       21.63157403009874       8.244228815144897      21.389529637093954
   724   4      7.9612478434691569      25.942401193184359      16.617093632286991
   725   4      2.5839661371162248      10.909504677758681      1.4747784319747843
   726   4      14.012201052390671      40.414939993434764      9.2660125994774951
   727   4      21.001704249222581      2.9387976023022184      1.1600798610426415
   728   4      62.280728351452389      45.551291510099396      44.767322860782947
   729   4      18.698973702631324       29.13414544825104      47.389047637975672
   730   4      11.343250918390034       23.40736817768822      31.152565666645899
   731   4      19.107854895218427      23.684384245446978      7.0157377112879695
   732   4      32.502569314879196      26.307149002621912      38.505427128268174
   733   4      12.664454273752215      15.533183355352385   -0.084878389578311009
   734   4      44.184300191531726      32.791026643826505      55.420337256220293
   735   4      7.6115093780390106      22.818453193635484      31.765337529555016
   736   4      23.837841331091923      3.8245783364038215     -1.1485607627053507
   737   4      34.371761727287392      36.300274731618181      22.968641655008597
   738   4      30.075925551405771      19.515908726441534      8.8158233546477192
   739   4     -6.8227557077887084      19.926266435453403      30.067175789058606
   740   4      15.738794989800668       1.213169871160523        15.6039979272267
   741   4      49.248136270441236      43.809610995624546     -2.8517796953277741
   742   4      10.758973885246935      19.097132175662665     -7.5890685853172943
   743   4      35.349484425006693      12.300736758284268      8.1118525541713176
   744   4      29.017172058333916      47.367500718957345      11.700222702074372
   745   4      49.041762121504405      38.396997141340925      5.4868166381221739
   746   4      52.809074295831387      37.777492219834095      42.654943150774983
   747   4      1.9899563208487159      35.908301575843979      7.9702955170413725
   748   4        14.7452751528606      36.958085774309261      10.413980683951294
   749   4     -13.903247642984629      1.2925754468972339      17.879144668425791
   750   4      4.7061370118482078      20.773602348930208      26.078904447788869
   751   4      30.588329358881026      9.7042909874891699      20.593793056761815
   752   4      12.262663278478511      5.1764170295023098      49.513665471597051
   753   4      7.8158610065753216     0.22069168620049343     -16.583071807465462
   754   4      41.679349470260263      3.0649661632395806      28.874830715070257
   755   4      10.157973996853164      20.658258050852893      4.7265711436947431
   756   4      5.8057625745614994       27.82174714472173      14.469561192417844
   757   4      45.049506015326799      44.003334771101549      33.745780415373105
   758   4      42.201293258670219      12.930408158500335      32.722192134376598
   759   4      34.824017102484277      35.955365060857794      9.0328417914949011
   760   4      8.0354437507403738      48.642544614306892      12.653900041510479
   761   4     0.07027569477633501      15.012267887727326       36.84836642173407
   762   4        15.1968064565879       21.66211090166221      24.362883465170064
   763   4      16.690503738295398      29.449240423016221      44.111830330280405
   764   4      38.503129246302329      13.262424638600452      38.736644908139368
   765   4      29.232230169250084      38.346808093013472      27.150437939939248
   766   4      3.8320924986945197       29.98556619884884      37.403826613537582
   767   4      15.649501893582572      62.702652648342671      38.840793166156956
   768   4      32.930804458024824      11.747874065664959      28.554512586914885
   769   4      34.485276955979032      28.368758469277147      35.971389476146236
   770   4      30.015539176299647      52.354041553763857     -1.3217113731234855
   771   4      43.841851505807149      40.813779132285184      4.3542942409899466
   772   4      33.599270660234296       41.87800206296636      58.386517353621734
   773   4      45.434769624343289      20.093144046663117      16.408885430834733
   774   4       16.69983101625958      9.6075912125524567      7.7292433307870079
   775   4      22.564683018276948      44.127984142431622      5.6066807085286285
   776   4     0.85064938401591728       39.15364351081854      36.066372237226744
   777   4      23.707602853310487       13.33251259252958      25.475211569247421
   778   4      14.572845011792188      30.173045885654759      34.051299188126805
   779   4      31.141794987568531      15.077290708563616    -0.49474939116696254
   780   4      10.994226014609985     -11.426399886340716       10.98006419290869
   781   4      41.601690971470589      35.359552196569517      16.877624889722249
   782   4     0.60063221048123705      8.7116638525853514      20.529425400815473
   783   4      48.540244694080627      9.4922637261012781      8.9211484268066741
   784   4      31.826673573973277      17.160113688785469       11.36122398801802
   785   4    -0.86124101636475237      33.637360689267588      38.920510868000129
   786   4      27.421481012791499      17.245171199263403      32.772177324719351
   787   4      47.372115967033118      23.533191007827082       28.42427336676306
   788   4      29.401989770116426      53.499978029419559      5.7305866214652319
   789   4      30.705424465733248      44.992349658084365      31.639740395255366
   790   4        36.5047923157721      38.830087023837017      16.203783761959819
   791   4      20.331119183335179      34.030856632151057      58.435433262738016
   792   4      3.2295089122835998       17.50859070773501      11.701190781780328
   793   4      41.812529527389501      56.472873236155245      27.061276277202246
   794   4      12.458304590087437      30.673480042820579       14.63981445849449
   795   4      38.101326164018786      1.6254162830464591      24.986883595833863
   796   4      36.030928001020712      26.200409974597601       51.91452938850383
   797   4      29.902284217934632      44.684203605188223      52.499870400577493
   798   4      42.918540340212509      51.795119857919367      8.4648567919620508
   799   4      9.2139831761364963      16.426537845547898      19.264587152957233
   800   4      11.620431059066295       4.613894496445492      28.041168230254367
   801   4       48.42972907101408      40.474163240597598      29.795051888747984
   802   4      23.140315809731518       35.61129866430008      14.491308389020068
   803   4      17.189024683897898      32.852002072845792      25.439873840915023
   804   4      15.073631722507836      24.289634451303616      30.623127346704237
   805   4      47.153516667306747      40.109439422706238      2.5540352022014319
   806   4      32.910776558169189      7.1226483587576919      19.371132479637108
   807   4      8.6292220233924866      12.661992626046668      38.017055890212411
   808   4      62.974187093524193      24.726462414737405      12.640086001036376
   809   4      41.147883269876814      47.803688822910203      20.728696272939963
   810   4      17.396256379918871      15.578813359108647       12.74462036399906
   811   4      19.071378223813621      30.966807217358117      22.783126068923558
   812   4     -11.552695544104083      27.513759330908272       43.06155960623741
   813   4      39.544672408796508      54.779760153876232      29.534135234348675
   814   4      4.6342614711048453      23.871086267896278      55.753220610840181
   815   4      18.117137645817998     -7.3301369985733915      -7.333627263361036
   816   4      12.321158806037268      47.587780594531239       42.09665683066082
   817   4       24.15093383977494      53.684040794204002      8.8018586737377866
   818   4      27.878562066422525     -1.7839123904057459      18.205802527787014
   819   4      12.072610853516414      40.581875122766533      12.511361619918109
   820   4       3.843942555606807      27.477049933126619      25.875856600490327
   821   4       3.865936985437803      31.599160123859829      46.896447669573647
   822   4      23.661059953707518      42.314574246483573      45.736433247487653
   823   4      17.731909684430139      41.484305536839763      9.7097913182926856
   824   4      18.147230245214875      16.446067332745336      5.0709188258790272
   825   4      19.555112293143239       27.04533376841648       8.792108075753795
   826   4       33.98601415557151     -7.9912289824600933     -0.1090789522375698
   827   4     -7.9517914779290413     -2.2618516163187965      13.004845501381347
   828   4      36.881570869121504      16.616671742807288      26.444655614427926
   829   4      51.915506888846089      31.723130183295527      20.237402808530256
   830   4      27.207775937158765      56.970787683813228    -0.61575699868271283
   831   4      44.550855580885631      6.7738399831885561       2.530586596840962
   832   4      31.826760176021583       34.13437968701929     0.40804238805153414
   833   4     -5.6151308218791209      56.327508608919594     -4.1728927591072065
   834   4      14.560021184544089      19.271531125436749      18.686149750602262
   835   4      20.479426842499343       16.57586607734072       19.93734842061362
   836   4      24.612416622841835      26.067391475375231      41.874409270932738
   837   4      19.223354117851311      29.624965123583021      14.899312897031301
   838   4     -8.5878773156998598      39.788512859007803      29.806406920112828
   839   4       39.62725008421841      12.794846605526571      26.054642714758465
   840   4      24.343181099661951     -1.9152536936227598      7.9731699286283355
   841   4      20.136418528498165     -6.2039893098384207      35.403008071061123
   842   4      15.502511637261767     -2.1878637238496621        13.9704746811062
   843   4      14.519043659214748      41.390630630463882      25.138045610711149
   844   4      13.754069125922868      27.113635398924625      52.369254436723686
   845   4      35.373740820473721      29.831454220079763      32.644967676752771
   846   4      51.546714205346852      45.990415148517428    -0.57007780421282883
   847   4      17.025191169668357      12.321984369852894      23.483737588784486
   848   4      13.547346273871179      7.3754945796200699      39.956870177008952
   849   4      49.607814320686103      12.175284194574534      21.078362682016522
   850   4    -0.11558827430491768      16.609940460134986      32.100309025992544
   851   4       8.714058347261977      30.681215165223513      55.490427685679521
   852   4     -11.324599286567281    -0.73907677350694345      22.079479216341863
   853   4      7.0696407023109202      18.331390205221009      11.946711043913236
   854   4      51.035841292922314      52.076492544185605      40.602473542202922
   855   4      39.672464189128924      32.046582451459024      46.245485755604456
   856   4      13.853170324494943      -4.608381065443715     -16.646702190372466
   857   4     -15.345023651054154      26.661927682483334      15.226036520472503
   858   4      10.826930134487627      19.368791968807319      13.031871415823183
   859   4     -2.0578170171981354      15.720682131215922      24.503826724883481
   860   4      46.002587162064835      34.591402830699543      48.555254020645151
   861   4      51.955223068427394      4.4300561686979307      31.085881480617399
   862   4      61.230811296471558      43.191071462046487      4.0197793458474083
   863   4      34.258668815944525      42.272308316882054        26.7414448428699
   864   4      21.241380572002807      23.417766696849849      18.788249268501659
   865   4      9.5568354229090033      44.769349819281885       51.15760452289819
   866   4      31.431428117190791      30.488423876485832       43.66962473841825
   867   4      47.062044239525079      24.416315610174824      8.8169264929908771
   868   4      21.335659172806611    -0.81587742905247385     0.92555933160912052
   869   4      42.189609745273977      38.678513134068027      50.043265204624831
   870   4      15.150572551628947      35.887754397811065      30.668631602173491
   871   4      31.805338823029544        28.5298854431386       8.833291257779516
   872   4       25.67654420120591      22.616669900484005      42.355846436691586
   873   4      44.572295816671662       25.87202423682302     -4.3500995840906995
   874   4       34.27538141908984      12.666768427090298     -0.6558663909023883
   875   4      38.460845352035797      21.223838040863953      -2.039371169976993
   876   4       42.93534639593517      37.836092728944529      31.178394541306357
   877   4      12.600101734314766      36.271834644789919     -5.8896044778577741
   878   4      10.030005483539837      37.421215119806035       7.245179760247213
   879   4      7.5265947895716598      37.785093470138563      3.1883926321296348
   880   4      34.676622024180006     -4.7498173349238666     -1.9535124898669818
   881   4      37.629819253891185      33.045978619774573      3.2769970543791453
   882   4      23.757068033559356      28.443856898990514      39.107840073379585
   883   4      47.733419996661496      1.1364981169012258      35.212985431791992
   884   4      46.119743903032635      43.949118552573509       19.89611765523167
   885   4      10.735492781259641      17.840350618521796      25.421664459714279
   886   4      4.1770497806843583      48.654083721839726        12.6051674300328
   887   4      25.288214774710738      29.353273022136264      17.440998554161769
   888   4    -0.41637377132080478      40.762558753014922      12.548445897240281
   889   4      27.689279002640657     -4.4808946594114509      15.701721294937066
   890   4      10.824887917964674      5.2199519403989738      16.585753832567736
   891   4     -13.228724028502763      52.556685343226455      15.367680236199925
   892   4      44.569071378913826      5.5391043446585613      28.134226132782363
   893   4     -10.350591456070061      50.162654880690816      14.934602582134811
   894   4       11.59719787854549      5.5857588211227824      37.268998495384352
   895   4      22.751371738992507      11.176264477669674      11.501726060754674
   896   4      4.0462612387304961      33.553890671545481      10.397275985166916
   897   4      19.578735375038963      29.499217307985013      41.583609345504328
   898   4     -0.1380673507543384      22.061739043532032       15.81673385383654
   899   4      3.3416735380953324      17.664312004898221      33.455322216865504
   900   4       12.56964577085154      33.730799481054447      19.957580984759375
   901   4      24.888773269059243     0.16094212374119801      48.665215314006794
   902   4      37.617115711016197      14.262309735751279      23.694162833349672
   903   4      34.445694790494322      16.104756689469578      32.864698410463149
   904   4      44.482490852607214      16.738587504393802       40.36128619931997
   905   4      5.3816563666877029      24.863438923836185      49.637068060151286
   906   4     -2.8649978489035051     -3.1691866482077109      56.411649627483875
   907   4      18.015055695586689     -11.929495410618436      15.626454483704073
   908   4      3.1824965236972247      2.6548821175005806      18.728136755609043
   909   4      29.336725254393446      10.797535926757972      35.420849248505426
   910   4      45.636649170137474       62.99806937245507      43.102191172154136
   911   4      18.667537984067891     -1.3777868163858997      31.992803412475862
   912   4      22.129792082407779      5.7282294096902664     -6.4531981041708253
   913   4      5.5786542832944717      15.397985573100064      31.191783562694361
   914   4      6.7744646049294239      14.030904376280759     -4.4332330029583211
   915   4      2.5481242181408383      55.030248271382114      13.261738722561415
   916   4       40.77958867167952      25.681711706964716      30.861640611902814
   917   4      39.781279781798283      31.553938990488177      20.984240198679259
   918   4      44.037730897036312     -1.7416548187774761      40.873351060110494
   919   4      8.3208871402964206      20.972867192239704     -2.6221303215837324
   920   4      28.670024870635146       11.37718990202087       7.518387241517507
   921   4      20.424920333044238      44.592180023647224      27.459981159941819
   922   4      8.1362298330204865      36.755016792040259      31.937015930800904
   923   4      33.310208022749997      8.3454120562544674      22.945749115294948
   924   4      14.750086566527015      18.668438189678032      48.856926413488466
   925   4      23.729137588779995      4.3856416692569766      2.4296953418054508
   926   4      22.900470666605301      3.9213532333244334     -9.3760508513432228
   927   4      42.980785374687223      45.627494905597089      47.539343035730134
   928   4       9.135678186460682      40.477159193177386      22.527185413845654
   929   4      29.488326128492272      7.8328532092003709      33.480433492042785
   930   4       31.81908733841604      43.678478071050179      6.8529782047919667
   931   4      37.903794776526297      11.443806981876717    -0.26250028707950623
   932   4      17.455033535292991     -4.7184730611652883      33.282366686955513
   933   4      28.960367514710672      11.442257654365019       52.40482177179792
   934   4      37.391190694560926      40.116449556668236      1.4090873620644129
   935   4      17.382801183707738       29.82206806913149      38.603842228553326
   936   4     -4.1578232064215559      35.623226551798467      39.553584384119077
   937   4      17.986168760407349      37.193327748057314       32.96376083376046
   938   4      18.202062723709687      29.283778776489886      26.010134184132145
   939   4      30.142056087657878       18.02157403225447      19.268747450203804
   940   4      15.356806790864825      9.0248158927245328    -0.59692161789170317
   941   4      28.731869356717187      26.780614065505123      28.649782700140129
   942   4      16.458524451308676       9.011486280138957      16.278070372120773
   943   4      30.795975522734846      34.349396048917917      37.064850957153041
   944   4     0.15687955141490889      18.421806142619204      54.262320537704277
   945   4      33.460939901409027      15.565427991685617      14.473830962040715
   946   4      -6.277632995233045      49.821879824702172      38.868944850920741
   947   4      35.168432196590778      42.728798003032125      39.585012717209644
   948   4      28.869162586068754       47.37718409703794      24.807893603420926
   949   4     -9.1762527414416777      20.313989916911275      35.859002933868751
   950   4      16.220987801373376      10.316731688522212      33.669387528642375
   951   4      9.5866688425480824     -5.3782468652441739      36.992469038514663
   952   4      25.083572719461735      47.680818676993219      35.233199780556426
   953   4      41.147969659702781       25.86406277248652      14.876372011701934
   954   4      34.252914667053638      15.794237529183246      50.202588004670865
   955   4      25.110624232215507      17.005613208796493      15.828143070955962
   956   4      24.357119182270445      27.367645685686721      24.784395188194516
   957   4      38.676282454041626      17.166592278744378      52.395773729927114
   958   4        27.6449769626227      19.408838872490392      41.889721594941221
   959   4      57.272021206680591      29.299022537817269     -16.867820625985708
   960   4      20.144701425028629       8.981934089760669     -6.6341669091235502
   961   4      10.814902223441537      38.405855193551638      45.500288625748077
   962   4      17.984739928671676      1.9528867906441296      36.328022521577807
   963   4        36.8075059782159      33.089572364612565      14.450874176523069
   964   4      67.367205798794117      47.667860370474635       28.35147786575363
   965   4      14.452125956753557      31.612750990643573      8.1592971328314547
   966   4      34.492599078756186      51.761323495261905      7.0735433712945817
   967   4      46.199808891093575      27.553428110203733      10.798350834304191
   968   4      28.894857714584557      23.260208968780017      16.088220854489855
   969   4      19.825658756116265      20.624804952291761      39.120537792269282
   970   4      8.1433979191365964      23.091276985123496      37.868351888567396
   971   4     -4.9642597971168225      22.751885564638496     -6.4818915862914954
   972   4      19.338647356855464      4.9323629824079651      34.142508100535949
   973   4     0.76357245806237295      30.564954289244554      39.723274730647908
   974   4     -5.8715117862703128      33.389034550173051      19.816658602025473
   975   4      35.101479673727937     -1.1207691997005385     -3.0209330030887642
   976   4      13.352140885492512      1.9461043313065445      8.6377644643081073
   977   4      60.572640645924778     -3.9147015707913506      39.449063048948986
   978   4      33.475964519429454      45.435866266200939      52.760750917143852
   979   4      40.464119810540666      -8.242962289379097      22.455284292869017
   980   4      5.2579948277846356      43.035837209111783      7.9214503028561181
   981   4      19.276345451278395       6.437384011664431        27.5727950369449
   982   4      2.0048338549546254      27.526990680042328      35.201505967892778
   983   4      28.855361669710998      5.4203400539319331       36.21782105822443
   984   4      41.679586700652322      10.166316196303875      24.139024949944275
   985   4     -3.3698360317235281      32.477593123468239     -7.4381082009317092
   986   4      47.846213376570901       23.45796914763822       12.38813480341569
   987   4      43.196969263975767      8.2517449799461193      21.324003466887337
   988   4       35.50190657809722      20.055889552300496      25.516339876169276
   989   4      17.300859024641554      21.661110537806813      48.721441890595877
   990   4      28.643037614993926      35.117972625759045      51.090481206397477
   991   4      32.306886172146513      9.1695541454995233      35.308623625419685
   992   4      46.725087444158646      2.1710148405733052      23.240542128432182
   993   4      11.453607925651713      21.448652027695399       24.37492711125525
   994   4      50.531203018144979       33.03611170649247       30.90985017633519
   995   4      7.4962074590581533      15.503698160118033      -11.08570725952084
   996   4      30.322247668262584      5.2131314279625034      44.140649174502691
   997   4      25.258386855552075       25.24615898157386      48.668032642740854
   998   4      27.834961741760555      53.153440842004258       16.04925651127293
   999   4      9.8209311734787157      7.2794650872816442      30.275009215696652
  1000   4      27.668924421254083      52.696252363971773      8.1747058903094807
  1001   4      22.060385943442846      6.6585177203627302     -2.7152370009702613
  1002   4      18.482047191928213      37.325015845844703      10.077066828964737
  1003   4       25.40494002731279      36.636661614010499      32.576929033935357
  1004   4      21.355918181852942      13.121194617210868      18.480191063393054
  1005   4      25.930360656859698       34.82811583948326      21.475860485094373
  1006   4      6.4158510744544612      37.039917390329784      17.052979681920508
  1007   4      2.6818128435018518      11.400176574904322      7.2015378409071715
  1008   4      49.367488208244133     -4.7413764457715617      21.952092724461409
  1009   4      4.0167855736186198      26.367018218434577      9.6450912339097759
  1010   4      22.138731961025432      11.356876942192882      4.5592525073192993
  1011   4      11.341679411607018      34.654323796967368       26.40149504271017
  1012   4      28.067662948542555      10.462686983773059      17.582514022545361
  1013   4      22.758023790376665      3.0350814077064863      21.860420784620153
  1014   4      42.022985406884274     -3.9374637725374857     -21.894182930344328
  1015   4     -2.2504119720958684      37.751073952296331      22.588469549082564
  1016   4      73.695916327282148     -27.724418453851872      23.932319561398288
  1017   4      2.4193087340461301      9.7161349789574381       41.63596810243893
  1018   4      19.209315171419355      3.1946729857696594     -8.9047509978628412
  1019   4      42.761422745930076      1.5415591640539139      32.141689221806779
  1020   4      6.4508513274612209      2.7933449693018759       6.131992260600442
  1021   4      12.174547044728547      26.696398146057042     0.19316968677595533
  1022   4      21.618037303553479      29.231981094236559      27.848634231754705
  1023   4      38.974269627050937      55.570117450204272      17.837424696784865
  1024   4     -5.0500595460814619      6.2807524406615789      14.089205692217837
  1025   4      26.675398120185715      8.0398548420984639      26.729730652837915
  1026   4      24.567006291371975      19.496196712870681      1.4222204685812208
  1027   4      11.789985956720651      -6.840025458650679      34.534690761677936
  1028   4      27.657819970472623      32.276335421748101      11.080439076555825
  1029   4      14.536418381525229      37.218707248418376      38.069703752788286
  1030   4      10.784240317559357      45.667049753871012      26.796684223999435
  1031   4      3.1848118547345896      14.147264297606021       9.742278822340646
  1032   4      15.432878840327335      4.2419538071774374      22.053310886867589
  1033   4       48.59420832979584      52.010586726263696      43.547631471915942
  1034   4     -7.3686870830713564      17.608399335701368      18.042408339114633
  1035   4      9.8031993669483946      38.392667278972986      41.878749281022735
  1036   4      44.523075899748605      8.6299109296270302     -10.533972377991599
  1037   4      27.056731593386591      5.1272435825044562      45.938997249867981
  1038   4     -1.2757604593889038      18.139641999096085      35.248841165925505
  1039   4      32.220965088516479      18.332568255455804      51.733769319877318
  1040   4      19.198935596038918     -12.481569278709006      44.925248981736701
  1041   4      32.994255719385251      24.169360157295817       52.99211991901614
  1042   4      14.715094904742712      26.940667501387122      19.675716746477452
  1043   4      8.6181768353216359      10.034734602035435       32.69674218637288
  1044   4      6.7414018116249599      25.457343908825607       19.43838715988657
  1045   4      42.480263380723194     -5.5331445728516329      13.718693654150472
  1046   4      56.933135032195231      52.414750380055018     -5.0034727901715685
  1047   4      28.005751362182352      27.303696056181657     0.97151256441330391
  1048   4      26.947499156284959      23.629985123547037       36.71759739676525
  1049   4      44.047787136416062      13.119485042277509      53.768076486125551
  1050   4      38.902614432325045       28.38135481706945      8.9688263491142433
  1051   4      45.736681185779219      38.414187713142155      48.636326078085467
  1052   4      5.2844983405168069     -1.4758216691083563     -3.1879366659302688
  1053   4    -0.81328867081845124       23.28102213113289      1.0837282058234601
  1054   4      13.414413265308099      14.942810358500644      30.555372124370376
  1055   4     -12.813869387914094      57.560573561152481      9.4746370890124378
  1056   4      13.498765916042206      9.8013580878030453      5.5833850006597308
  1057   4      5.6224434165948827       16.98096876031596      2.1613594721657887
  1058   4      31.197879451087168       14.79299772668692      3.0990000918737204
  1059   4      25.755731827868637      32.462452960430845      46.029672982664131
  1060   4     -1.3182043437964019      26.788516705889304      33.838116638645239
  1061   4      46.593199866244724      7.4009032300331796      22.889617586283705
  1062   4       54.85696153767099     -7.9180276261860785      24.842959105396908
  1063   4      6.5625234738888967      36.130806968501815      35.347265172128537
  1064   4      51.206635968023036      30.129503823495536      28.294503352028968
  1065   4     -12.406955248323897      19.614134149639863      44.035520384713351
  1066   4      26.675168392498783     -9.7685166291287064      12.087626753572414
  1067   4      24.506646743180148      23.061347569609463      51.650494142903717
  1068   4      40.547230395617383    -0.77102333248336297      4.1929322918170548
  1069   4      24.966869796765035      17.362138912391035       53.23266257593248
  1070   4      13.938849357321722      10.996307127956491      25.346731551009743
  1071   4      20.291090078026748      28.172533252016631      50.752050041909811
  1072   4       7.225152587176801      10.379466964763143      35.459747583864932
  1073   4      23.471579482897678      11.784046885340359      31.601141578505668
  1074   4      36.207460118699991      3.6158341506886118      22.479052009636465
  1075   4      17.994384940402504       43.18257400805858      19.501997255796635
  1076   4      21.443492590440993      44.363018786183417      20.452533857056178
  1077   4      4.8928580340843819      38.724671896547015     0.50978012964338371
  1078   4      28.880141040946931      24.314620180532447      47.548356264566515
  1079   4     -2.7021859436924154      34.812440388072531      13.445867715559249
  1080   4       18.07781013929565     0.69391731742305007       45.06255372981289
  1081   4      14.317544792147755      22.814152374429298      42.553416440661827
  1082   4      34.130188134399177      39.998378101989715      37.120277089165889
  1083   4      54.454705236992574      7.2762564138764905       24.26335367764279
  1084   4      25.396454875894594      40.231546827263728      50.296964003420861
  1085   4     -5.6228493909577422       25.30054641013556      33.805177234768124
  1086   4      29.804496358440669      16.237741063053992      25.864951947232736
  1087   4       38.88522825548592      42.367066586791097      38.820284794913988
  1088   4      23.483124717030687       39.80400836076074      11.521480601186465
  1089   4      29.500503339487732      33.014550043460964      14.018333477348907
  1090   4      44.461361170281201      16.069362040326169      10.743780349678358
  1091   4      35.017372139739898      30.195760404462629      28.827104232246111
  1092   4      -1.425876405443858      12.685969587414037      15.960746762911988
  1093   4      23.943672809975837      41.649439375499362      19.395389929932829
  1094   4      30.336656150554539      40.637745072023037      55.193055208657732
  1095   4      14.482011177738153      29.508150786355866       41.09131152620094
  1096   4      25.797789872190265      26.086411904031152      11.088933424853016
  1097   4      28.411452415318664      21.752412956518093      44.774347876224688
  1098   4      39.491374974251265      13.963702852098885     -2.6405523069193513
  1099   4      36.436622657512459      55.300402606682852      24.528865108783108
  1100   4      28.654462847078459      27.129095135456271      8.8945529014315774
  1101   4      10.480794446116244      10.609832203350962      7.7485087712551737
  1102   4      46.386638936205898       27.22191727804065       16.19033631825689
  1103   4      27.369068912972573      34.019026021039743      38.631189475304396
  1104   4      43.914868897735126      28.059425110304296      13.389069710583462
  1105   4      32.327821969840393      28.001448024288067      33.793711800146646
  1106   4     -1.3478138324764055      16.230438184865942      47.634652204119249
  1107   4      54.308004878998297      31.031061746133027      12.771925808279384
  1108   4      33.351646066252641       37.56119300471039      31.462259842778352
  1109   4      51.298737804388203      20.641000761380347      13.992766683788291
  1110   4       21.73061674583143      37.759983350932579      26.766448419495834
  1111   4      6.6736266157441291      26.015527895307702      11.136403180801882
  1112   4      47.891552835812888     -2.6052673117542713      17.425352299747349
  1113   4      11.159089714930525      44.026113172535389      18.626393086691138
  1114   4      35.640137566931863       49.46075741386209      9.9293588649710465
  1115   4      17.568098959982311      15.224331766908168      25.770638392401988
  1116   4      3.7726962637648871      12.002977545675757     -12.894700565659413
  1117   4      50.028942434947908      29.620224188013001      4.0374991492298422
  1118   4      61.037276484978221      50.076801609778904       1.148849312480128
  1119   4      36.922961083422848      22.583850387412888       26.45968765118408
  1120   4      33.010534259521386      54.260522981632313      4.5437197306670294
  1121   4      14.177322617556745      33.683823321201594      1.3366290250575519
  1122   4      21.670704936303963     -5.0748314830713506      24.224423064786848
  1123   4      15.418005376583567     0.45888941743319023      22.706319387623001
  1124   4      35.146424059473375      36.226423143546199      43.224320361099529
  1125   4      21.097419369730787     -13.786726531976436        38.6965190073877
  1126   4      5.9555932347756366       41.53195725153639      11.962872537510187
  1127   4     -14.009984063328819     -1.6777576720075578      20.172846694321972
  1128   4      37.206678034477456      28.745613413285575      22.155804014043856
  1129   4      2.7802825035441447      37.972091621661633      17.553334291983671
  1130   4      17.643428387099778       41.73845864828651     0.63010407584697459
  1131   4      41.297253655317597      37.575029838561846      33.768519316624918
  1132   4       36.88149361064287      22.458992434481228      19.287720711742462
  1133   4       26.87551006191709     -1.3530521086917402      42.340773083563931
  1134   4      27.519955590144161      41.502205402943666      37.248487097188118
  1135   4    -0.96824871178214178      18.019176984098777      38.804728866111731
  1136   4      1.5190784388768976      14.259947288122516       24.21479584594665
  1137   4      8.5615185745691047      13.691390106187727      21.892081088326151
  1138   4       46.88877557757742      5.0750953661693501      25.505368197477363
  1139   4      39.549504839792291        34.9953887884799      26.518014094638414
  1140   4       21.23926875299318     -13.673777491326414        51.2130089817989
  1141   4     0.25258524715093855      2.8803756120665005      5.8156461503758017
  1142   4      23.999142010503235      31.474354095062086      55.500745372100049
  1143   4      51.481014008364653     -3.0747841507650353      37.205976780902617
  1144   4      37.760136414775019      35.452754608217781      17.249114919423668
  1145   3      32.854423418556678      7.5517013928133458      35.818348984615149
  1146   3      40.547482727469387      11.398138665560957      25.285101663171968
  1147   3      35.680646733507842      10.568786775471565      8.6936678254686139
  1148   3      34.445436245052846      53.276695573716921      29.825110598081597
  1149   3      26.219528863408094      26.629753642319749      49.602219459847326
  1150   3      25.204185119708782      25.450455666688953      40.188014064503314
  1151   3      45.436125878864722      7.9398696008657019     -12.062107805101336
  1152   3      8.1456801982438289      11.151581901095664       36.81565910060268
  1153   3       52.74548405216904        29.8527671832192      12.777022420282515
  1154   3      15.368734560910612      32.775526062029193      2.3255338534358976
  1155   3    -0.96376782281966389      17.738575228707344      33.307302122414264
  1156   3      12.789227799450998      37.057243762619976      10.644082829886996
  1157   3     -3.5289361635643215      26.078142375723179     -11.331354262871256
  1158   3      1.8564281478416604      15.213358411832822      36.699991742401195
  1159   3      40.735716574858117      40.961199034492651      31.009166415667984
  1160   3     0.36666014826090904      19.155627890890663      -13.32298267235276
  1161   3      12.181651645193671      41.649710001251407      5.5393451777815752
  1162   3      6.3323311754337617      26.807476965967663      61.557800492914538
  1163   3      30.801380528793182      53.235130168673571     -2.8522665106963276
  1164   3      17.145384329210117      4.5911907871149591      22.652430973331832
  1165   3      44.445374296362054      18.236540974290399       41.49240368461556
  1166   3       12.11315579227859      10.058872511369525      7.0023335395604613
  1167   3      46.407943834506007      26.057366585802448      9.7255047312354179
  1168   3      15.363179989701624      51.092353576081308      22.405790827986841
  1169   3     -1.1595332355952064      43.882052812044591      21.186362113627538
  1170   3      54.981770709221394      38.270479463962651      1.9421402570983681
  1171   3      27.111980344004049      53.997468604566343      35.266644568792671
  1172   3      20.377700407705554      48.383793195391256      28.303879443418374
  1173   3      43.429883380368885      6.6289179184834426      26.962652320641464
  1174   3      24.902220720383497      18.886106314730618      3.2330665643474759
  1175   3      40.107898906193881      14.362677701650359      20.923551659696361
  1176   3      2.8581115460072346      26.040719727888778      34.745483002665807
  1177   3       36.85972390056542        20.6844611083852      26.852906709978804
  1178   3      49.327085286901557      1.8437458298460327      35.507982783193448
  1179   3     0.83004331704033552      20.665559464886861      14.878753684840875
  1180   3      31.671333547442519     -10.454536828293236      59.586949455206252
  1181   3     -5.0816537375882973      26.654662943686983      35.037170551568089
  1182   3     -6.3785131616001429        19.4281090983105      43.413441497809039
  1183   3      35.320338549785077      15.415014543406118      34.394423885679629
  1184   3      20.991034724849474     0.95098358073500588      13.925382549950712
  1185   3        6.17769860357817      48.594780948507037      12.629727628845886
  1186   3      22.672771444736433      1.5882307269409293      16.190504785394221
  1187   3      44.850356557908263      26.997358344154826      12.036777937895531
  1188   3      18.932107802574205      35.565048575450071      9.6462532848635067
  1189   3      17.770574713904065       29.44238734008691      45.658505732412031
  1190   3      13.723108072473323      12.320964548494112      15.651298798452547
  1191   3       21.79376458881984       35.44049286976432      15.893022806496866
  1192   3     0.31917115049710459      13.494728044360691      19.795983169924071
  1193   3      16.293843814371275      35.208566541721879      29.350858226991157
  1194   3      46.915433601100887      24.955340165985838      12.925291482685989
  1195   3       24.69974650802358      24.215708051321503      50.083582481557883
  1196   3      3.0715058445625103      28.686723293550667      27.109379450734423
  1197   3      1.7274124625128031      16.927481835684588      32.734488149448225
  1198   3      38.779676570680721      5.2981148852024473      27.967873867413125
  1199   3      28.405070059588368      4.3385560579552491      47.184166030846185
  1200   3      7.2352437593928682      13.649784656540566      37.154970208116161
  1201   3      34.737307508150145    -0.34244308526775585      16.706137398148233
  1202   3       22.26398538113633      3.1792469425008729    -0.18741545659067416
  1203   3      24.468933729417557      35.212415239013673      20.593360895456424
  1204   3      11.313908346415497      19.719492785914458      25.182607285210743
  1205   3      9.6785235564456844      17.628758242439758      18.038528415383869
  1206   3      37.244818246489586      13.959703817245364      37.551370309313668
  1207   3      13.388568695789779      17.372060102212185     0.24136982731144255
  1208   3      47.997031062615427      8.1514192733422917      21.652110649071883
  1209   3      8.5200911059035551      16.395503649703414     -12.288487879623496
  1210   3      4.6812256421976315      25.169135892647596      10.947649548689919
  1211   3      12.707488234880422      22.281870122897125     -10.107087373048495
  1212   3      19.427219470011401     -12.542033650215947      16.870044400003678
  1213   3       18.67071494405106      29.919161654771507      39.876901372834517
  1214   3      42.472046815604124      51.386571426479307      30.665197504325995
  1215   3      2.2684850074029548      48.519232256977773      12.478503224508939
  1216   3      55.887043118513468      26.846355590474079      18.139109037875929
  1217   3      28.819479984850712      9.3855585153610157      34.147652747908694
  1218   3      39.904993536280749      24.166098883213614       31.26694752960891
  1219   3      7.5175075392333914        27.2875095700545      15.358577967056892
  1220   3      22.701797509127573      2.4995744843835594      20.110686912309365
  1221   3      59.054056763801313      44.186162815887378      40.442510377572667
  1222   3      9.0771648849572983      8.6486858284979533      31.445083056664625
  1223   3      2.6722265027596626      19.169879604612163      34.375899109562567
  1224   3      49.725884470871861      3.1708126932027847      42.086389140022554
  1225   3      29.896480966969914      4.2698541971372013      35.386941171761563
  1226   3      47.415135142538425      26.639578901543956      17.662267985602782
  1227   3      20.652505451507039      39.251031284793434      6.4324426795817429
  1228   3     -2.9297269454268409       34.66393558324296      15.261991387349104
  1229   3      40.411260908141017      20.825693161271762      30.244445129110311
  1230   3      27.546985866455117      26.444751776816638      38.884678244733934
  1231   3     -1.4836276622869402      14.989058775725933      43.373913915852619
  1232   3       32.96921141862655      14.554227681968083      51.285004103093605
  1233   3      33.019158691711851      25.067327661045727      39.666261046103045
  1234   3      36.136775762638266      18.332709710773049       25.83032374208998
  1235   3      15.196979662875524      24.095939070599886      28.711660353943337
  1236   3     0.16382631360171918      27.586925151864296     -14.226035027521757
  1237   3      25.880398096726843      52.795360162122833       8.630860601410129
  1238   3      10.574363756406996      37.639883062969005      9.0599504339683392
  1239   3     -4.3845762928396743      4.9260223643169736      15.399328753018679
  1240   3      18.911641604363162     -10.623274540135291      8.4839047424398366
  1241   3       19.65867019120039      43.508347080037161      20.244332110711433
  1242   3      32.816944486909939      29.205457793849956      35.376179012379779
  1243   3      9.5235471854001279      23.232637662838943      31.511634877898928
  1244   3      3.3048309686267037      15.771658074862463      10.831238905783676
  1245   3      35.168130219194872     -3.0456877632735608     -3.1537580258436799
  1246   3      34.461507433429503     -9.2164117251434057       -1.32663317416689
  1247   3      22.486392459446787      42.857796486771655      19.844274219982164
  1248   3    -0.33847965502642535       15.10174000037278      24.364067236530182
  1249   3      12.292370938489158     -3.5946003710791277       46.14124516427615
  1250   3      49.333345630513698      32.436126230514816      39.350740975447501
  1251   3      30.722663783300362      24.147467788485955     -1.3585727321132326
  1252   3    -0.16975522159562054      23.859416263325713      16.867984813471281
  1253   3      27.041130455920793      23.532156689923973      41.425448894056501
  1254   3      39.948553881356396      27.095307054308154      9.4860984947800215
  1255   3      4.2277097516957385      44.031440509300452      6.8210067285801674
  1256   3      29.153768157082549      0.6074801525572161      24.390110484173189
  1257   3      24.925684407533023      27.582208159673502         26.561242451978
  1258   3      9.6526103947416555      10.693694577829609      5.9693467357282932
  1259   3      35.759785521680385     -8.1172115899968187     0.92107306616996587
  1260   3      26.323146038378912      48.090112603781847       18.14156122814283
  1261   3      12.792455230813697      26.928483778216915      1.9077393314927795
  1262   3      37.024290216514444      42.566686807782084      39.026195007751667
  1263   3      29.468611203275149      9.7333509756030914      3.6175577464578788
  1264   3      27.764292314440016     -5.6748412121263936      16.934741594444791
  1265   3      23.938134108569798      27.729754007680739      40.781835142593899
  1266   3      30.596979875166021      27.366553067964684        8.17189634374086
  1267   3      7.2300950250502876      36.515000480890428      33.679280148551172
  1268   3      31.251451488922541      53.912951649953762      5.0812439366953903
  1269   3      3.4823279855039018      31.377924628576153     -12.401307340451892
  1270   3     -5.3894541847964188      31.682430014560893      19.568273167681838
  1271   3    -0.27960657758210217      14.966362398007449       32.78147357053286
  1272   3      9.6424249149291477      8.8631849721037135      57.080685904774384
  1273   3      41.384701127269466     -4.0665907402527299      13.193995429933075
  1274   3      40.691781649202568      53.265315540506691      29.877691909790496
  1275   3     -1.0312393244501215      16.090915216458939      45.884931711490651
  1276   3      16.434546104945262      1.1967399878170408      44.467869046341626
  1277   3      31.804381563280096       45.04365019797433       52.00141377185377
  1278   3      13.952246279892785      11.768408342111774      18.666124204472695
  1279   3      31.119634012454689      18.344398018174765      9.9333497396307404
  1280   3      28.347577522865716      22.973497162288982      46.306171057527408
  1281   3      30.645729365489895      9.6668040172185954      36.217300643756126
  1282   3      52.727181577047496     -2.1262721028789477     -1.8291337207575307
  1283   3      2.1768172344537207      11.470797931101956      41.638006373527411
  1284   3      23.547197215333593       45.49277328916115      7.2148743409170013
  1285   3      31.522845032417671      8.4228476410736395      19.490851953804295
  1286   3      15.762246396563299      29.838204608122776      39.658484787084106
  1287   3      45.306690486839479      28.022670474921341      14.661125247504183
  1288   3      41.557331170588725      38.376044769178321      30.062554948906591
  1289   3      18.051278131417234     -3.2733201739770883      32.344997379772551
  1290   3      51.379923612809975      19.244123797356973      12.801875291320718
  1291   3       26.20148431496153      35.215069339534089      33.245666027729207
  1292   3      5.4381707296866155     -17.609619869966146      47.946960190698313
  1293   3      49.363552702734523      24.734428883556294      12.699870307762897
  1294   3      8.0246693762794106      39.098445108615536      41.658362177875652
  1295   3      10.668140623710427     -5.5761159531324473      35.332623762401823
  1296   3      19.649605979275197      15.717652133550081      5.4495365552105604
  1297   3      37.892877222952777      5.5900133335722408      25.359628461963919
  1298   3      22.362727981811673      5.5659706196725018     -8.4031414991556481
  1299   3      27.263796232785065      12.304024284528584       46.38746891834402
  1300   3      48.060401768673998      39.423709743546077      4.0305269824911054
  1301   3      24.342044151152837      4.4547513693341818     0.68738431226564634
  1302   3       14.86283160723754      37.523446405321678       12.32275760233477
  1303   3      28.299836488393453      31.307879491178987      9.5209557513196543
  1304   3      19.799362822029998      29.402532658956304      27.016480292659679
  1305   3      11.178707987670959     -5.1090225878894202      37.924044896010088
  1306   3      55.946602506153404      20.644123796303976     -1.3434599771248863
  1307   3      45.971226609036208      6.3264806255095074      24.435076433855315
  1308   3      49.923599605579717      10.328617625806498      8.0063712949952617
  1309   3     -13.422620426363016      51.679097912722114      18.767138978938217
  1310   3      39.475811021039412    -0.92675865520797651      21.415659723355006
  1311   3      34.684423712447874      38.705365546779909      15.897714864892336
  1312   3      44.035662138401079     -1.6484865666482771      48.084572522022384
  1313   3      10.274486393367837      44.159247156471913      0.6428442097897189
  1314   3      7.0540611392013144      36.551206719783131      25.226987215259697
  1315   3      30.824000232756145       30.14226090347081      8.6872828831326121
  1316   3      2.9480563273801152      12.594508099357936      8.6303166771586692
  1317   3      28.612188278901822      5.6404775607468638      44.793656350141255
  1318   3      11.502001544395037      4.5880036526269645       18.05884652877641
  1319   3     -14.548278766790071      46.326820567345422      18.351302563770229
  1320   3      7.5375369813086852      12.529170289935108     -3.5559053127861393
  1321   3      9.9249782851646913       15.43391540662185      34.315128508603138
  1322   3       14.66612661361774      38.770375536826535      9.7242804455843714
  1323   3      26.642405195579016      32.173153416893399       47.47206517284701
  1324   3      32.374060395874686       13.73097441714417    -0.90801289735998492
  1325   3      30.728967505230983      39.648175050551728      56.676159093673505
  1326   3       13.10375570504473      19.028757122547887       17.79675332671372
  1327   3      18.392138371224775     -9.0288635584235521     -6.8769652586995687
  1328   3      22.309345243982317      31.387883343193128      55.126370883446882
  1329   3      13.416598158935836      23.657461248955116       30.82203046783939
  1330   3      38.620080116859661      51.901035410658231      25.987483569396105
  1331   3       12.53704872770761      48.261559522208543      50.214337002032821
  1332   3      16.336928352489107      39.755637276639085      13.072919130503484
  1333   3      30.940617155361068      38.330619167117064      26.602232121300641
  1334   3      42.827731600266581      26.894871363044864      14.289826630565511
  1335   3      2.9482133886264137      30.126121174571296      46.729560694566246
  1336   3      -4.279555081375281      40.774236163463122      5.9684378184723395
  1337   3      44.572179238001254       37.16111733937862      38.345109800251528
  1338   3     -5.6076380656577545      28.124672194653595      37.394044020338022
  1339   3      31.052457395782181       46.52321787654224      32.837986183368599
  1340   3      7.6785912990255962      24.483810232759861      18.044915241781769
  1341   3      2.8297254533730221      20.107881655359236      36.899013157733236
  1342   3      12.309580414668881      45.133062672961117      27.565656583399317
  1343   3      19.191818419644417      50.152813470395074     -8.0681637857574984
  1344   3      34.888430134542368       7.571861184328406      23.693168028629238
  1345   3      21.053856039430666       34.74773142561228       18.54724993649593
  1346   3      40.281052965639141      16.741322212538517      19.284021691772146
  1347   3      18.965844878818832     -5.3134664633452511      34.352683571074806
  1348   3      46.321564882612705      34.225457773576487       46.72839040873081
  1349   3       14.88877772870735      8.2189234595668204      16.546594237290531
  1350   3      52.352659942204063      52.297070548043372      39.139898830340535
  1351   3      30.575583824537901      14.618729436437935      50.080039427018797
  1352   3     -3.3458937888180467     -8.1878165624234995      3.2878812786590785
  1353   3      12.521035019707824      45.664056457998875      49.056424741012336
  1354   3      46.563280830068521      38.497586257470701      50.373562925107713
  1355   3      33.724659056120721      27.256868053634513      37.410584146174827
  1356   3      24.873797344941121      38.669583351695486      12.161832477074888
  1357   3      13.780013487717637      35.307104436015202      29.398184302936322
  1358   3      13.083769390551753       41.74424260718358      26.105416061914429
  1359   3     -3.2561990405757384      23.483884838891992      57.232230671007898
  1360   3      36.298717671601523     -1.1590701667786456      28.405332835713299
  1361   3       21.72336175506021      33.356345555708494      38.807040081474547
  1362   3      11.207550134109725      20.792382006461079     -8.3018670288413308
  1363   3      3.9517258560068211       13.79108370530524      36.158835733168019
  1364   3      24.944266069036633      24.403595167070737      42.709126022626393
  1365   3      35.360874140965592      30.118705686160546      30.545627488793862
  1366   3     -2.6648780952041107      27.554310825456376     -13.835649564897869
  1367   3      -4.287013138440277      23.684403359016514      40.639839530893212
  1368   3      8.6849876357879445      29.727159955977267      43.861680323437106
  1369   3      47.818919241336118      23.771184299825691      10.412104414627949
  1370   3      61.949054275499158      44.502249111219093       2.866268504042226
  1371   3      8.5199490948573349      15.212678050248995      20.939735909121602
  1372   3      28.805273185971277       25.18821871909482      27.447650312428397
  1373   3      23.348594041382999      28.781046434739181      28.424871575658241
  1374   3      -13.16772903411821    -0.90782934768845114      21.773836835667524
  1375   3       38.39376013916084      10.072461470323491     -1.2497790233017025
  1376   3      32.921747096120157      24.269441643696037     -3.1189834747945486
  1377   3      9.1666051445557954       19.03487533928579      12.354707767718018
  1378   3      11.717137435750889      32.514513078953861      18.823996353184658
  1379   3     -5.6520409591422887      48.289193868875358      39.940909603686748
  1380   3      33.782564434673503      17.285295697337514      2.6235584115252499
  1381   3      60.961477596982249      44.170866922483988      5.7769697363700727
  1382   3      12.954666162710133      22.748085054669364      41.326901980716265
  1383   3      32.925967302943818      42.997352082135649      8.2605852534070578
  1384   3      42.407809693599432      37.164315446108816      35.064062237647711
  1385   3      5.7136093288742975      15.933396771566958      37.141271265402935
  1386   3      15.034277298580562       7.415774785636807     -1.5940893660831199
  1387   3      21.399477158738389      43.994525419618881      22.299042807517758
  1388   3      17.350220412073064      48.240573196262297      32.825837792169551
  1389   3     -1.7601079111297719      18.496915933498617      37.093018747046884
  1390   3      36.982875699319003      36.948076237869046      16.636664251208913
  1391   3      29.275718622021536      24.051314216363597      23.838415883842796
  1392   3      16.662858917400321      37.190036716146075      10.361801383000062
  1393   3      19.901545779841602      32.522567235836085      57.663248493186515
  1394   3     -1.6722817943974202      32.855830103118109      40.623022859327463
  1395   3      13.479052140997913      5.4662960358021762       47.99056835294715
  1396   3       40.89115676683133      55.767963366738144      28.700129686966861
  1397   3     -16.190212087226989      25.931265757450358      16.546270870687838
  1398   3      2.2728809253541615      18.219033063471013      40.410813870755604
  1399   3      10.980678761391948      46.253921244385033       2.424778577820133
  1400   3      21.255961195755955      7.4468732608742689     -6.5722841006749793
  1401   3      32.736804012444786      16.136609515920934     0.40415672062100871
  1402   3      46.962726922558289      21.085034203588204      16.064549925071635
  1403   3      43.565538784113102      35.250917316099255      16.705735021304157
  1404   3      29.381684441041106      6.9272292903183681     -13.641794536714619
  1405   3      -7.466338246106945      50.339661775699007      40.340551683070167
  1406   3      16.061808764514385      20.219268928437597   -0.060376926082343248
  1407   3     -3.0011278536645229        28.9241238282846      37.379365353635706
  1408   3      17.579667855494829      7.4304910430115916      15.719763463837866
  1409   3      53.651088227874332      32.274843260221452       11.55454259775243
  1410   3      15.823030449151313      15.419538211396684      25.981399660684126
  1411   3      50.460237313762569      44.901240764657999     -2.0893549622067549
  1412   3       28.35423897844494      20.172442173853963      43.402657918514336
  1413   3      31.048054892026553      24.068336110516263      35.311316965679495
  1414   3      34.757263723021417      47.901454105989487      -1.189302548812244
  1415   3      33.441387864667604      21.702080142294196       34.48014892704321
  1416   3        29.5138363857012      14.261112861681077       47.62537054371991
  1417   3      17.442091384180177      1.3241281116884063       34.74596208485999
  1418   3      39.284741473505733      14.028496596541348      24.669327506751344
  1419   3      34.748384469332656      2.2647660797824756      16.145778107686496
  1420   3      12.450395589238976      40.161977367615833      8.1641990337380115
  1421   3      7.8841530869322929      11.456675397620733      34.054924431975429
  1422   3      44.867853122792482      7.7947229069208168      22.216885913931886
  1423   3      13.722192746849695       15.04976931238998     -1.3467563091506842
  1424   3      16.757769361586078      24.371535628687106      25.105158071461169
  1425   3      25.152131596876288      27.781606474963574       38.14373973645781
  1426   3      12.899851904596801     -5.7683622660955685      33.377954737486341
  1427   3      18.302078027410804     -1.5931358451984146      30.066822195310031
  1428   3      -6.733915184588791      22.745709085765053      55.282957689532424
  1429   3      18.237445715239648      42.124635592535043      11.489066020275807
  1430   3       37.21104306660137      2.8900059390734842      14.941819853683326
  1431   3      59.426328848676697      43.683051833441809      3.5819448651450809
  1432   3      21.511999846523125      43.488982281780181      4.3393191616551894
  1433   3      7.0175861348080764       40.53764123455511      12.891726788422433
  1434   3     -13.197706833763631     -2.3384644221972906      15.237487865340631
  1435   3      21.251205681619005      30.133170941168373      29.434944936763902
  1436   3      34.343895153428171     -3.4838895506933798     -0.4836761387764279
  1437   3      37.385046178954269      6.1389287392572314      18.634438535549414
  1438   3      38.093045970342551      15.436185999699015      22.346178912980957
  1439   3      49.313041038951567       10.52825921937918      20.032780321727685
  1440   3       12.60828109746514      3.8633865622015122       29.48465106494104
  1441   3      43.236745373967047       53.14133308219207      28.516753970054044
  1442   3      27.456958361456049      53.395892165996791      6.3924774479277984
  1443   3      37.754305724597714      15.490371491891237      19.518058458114258
  1444   3      34.332374397247136      25.899974388500873     -1.2127733875033104
  1445   3      12.241713155757617      46.057238662577902      40.995505069243499
  1446   3     -11.201681252144661    -0.30442861571619939       14.77417967503126
  1447   3      39.594581648455069      35.335651126122443      16.839550990593022
  1448   3      49.845028000452082       13.55378533067754       22.53450140718083
  1449   3      18.094360712525376      39.746706905119531       10.72440143713817
  1450   3      68.109362984843955      28.547890838227818     0.42007134746913793
  1451   3      24.544587762104243      1.9410472083011032    -0.35680936312386979
  1452   3      26.199916686565196      39.930183143929767      51.893588197368224
  1453   3      19.845730265514305      37.499456821094192      11.501982236066747
  1454   3    -0.76073002589051131      30.056646319270225      38.688652449075853
  1455   3      31.643175012441773      21.521679742829782      37.031263594093261
  1456   3      33.923004494737832       27.17147220255163      34.600066289633055
  1457   3      59.920817078842241      35.084273654283649     -6.0514841412159459
  1458   3     -12.067043024866321      19.637425918247558      39.887279820835779
  1459   3      50.376666181294297      44.185805277699465      20.369352850540444
  1460   3      10.054359050201805      38.597561932926283      43.786234704955319
  1461   3      26.570220895332472      33.188753522623372      37.296955697492237
  1462   3      17.667310890407769      21.634347495597137      46.830536661551434
  1463   3      34.032881653523731      46.274586197257733      51.094551643501667
  1464   3      15.896681053937231      10.869528755591887      16.720555841862868
  1465   3      6.4380888849426201      29.355029440057127      13.777353734478433
  1466   3     -2.9657544834245413      33.233147864337361     -5.7288276382974255
  1467   3      18.283336524806234      20.263195421691702      44.361665167985386
  1468   3      21.810486765597908      54.568052570225774      -4.442960713363119
  1469   3      31.025902819121185      27.083988747819276     -13.972142321531175
  1470   3      49.318482424896033     0.48211754043380983      10.212697580675258
  1471   3     -5.6174007899106364       7.685631994265739      12.876298861903541
  1472   3      31.303706824319413      8.3519684195333088      33.805134709051032
  1473   3      11.740300482461526       20.40310645018068      5.7084989281433982
  1474   3      29.852984099813284      53.243094750716743      7.4660831438594029
  1475   3      15.071446310848691      9.8409717906886662      55.629762840211001
  1476   3      18.324900829683529      32.427973619682611      23.810125608999378
  1477   3      26.733933742402659       24.48864135592682    -0.86412298697061229
  1478   3      67.876508992750558      46.029555417406129      27.593797192794263
  1479   3      36.021790822289603      11.896444403029662      48.250458679614312
  1480   3      10.790214790042976      46.235506822635784      38.716720003768927
  1481   3      38.363445172562656       30.15724197192927      21.874757866434148
  1482   3     -15.257044179285247      56.263587692037305      21.102857697622458
  1483   3      23.812357324446772      6.6284812666286568     -6.1857193931534189
  1484   3        31.1093844526767       16.72217870047632      51.951326663794688
  1485   3      30.441840355557169      44.176486862916647      54.242638023581641
  1486   3      13.389838961752545      32.601012287169006      9.1324905497393409
  1487   3      3.4801761286097874      2.0104209914419786      26.010606189199358
  1488   3      43.810907668126205      44.931630153348607      46.161415085933641
  1489   3      10.546817630407105      47.377061053664889      36.065858754815793
  1490   3      57.679611252595265      28.119775860476469     -15.594237673424686
  1491   3      27.122013719827802      26.766097512629244      9.8554407229048469
  1492   3      35.077890301306027      1.8034053865612889      57.410112936589925
  1493   3       2.145306302397493      29.995480126218766      38.667159399333144
  1494   3      33.829585506278072      53.080659906757049      5.7966044695865051
  1495   3     -5.2834654546848929      21.874277634070971      -4.878355379081774
  1496   3       27.96377925692709      32.951130904553878      12.996267372152332
  1497   3      33.496308207915604      37.245653664857237      57.533397027864631
  1498   3       12.60616753654365       6.443285370937069      38.555879244413887
  1499   3      22.003573793956797       19.87170432538375      28.321025149388479
  1500   3      10.596306645609948     -8.2350161130996806      21.193997349286757
  1501   3      48.023867246783517      13.904143173657189      17.251072047597177
  1502   3      25.973453261384154       16.20203325371763      52.434209387866943
  1503   3      21.514941370728081      43.609619160037575       26.22026584302359
  1504   3      10.870240537776622       12.60894180168753      7.5866385348419705
  1505   3      25.510153067582458      58.128924736204262     -4.2437353555385133
  1506   3      9.0714341106384353      36.584353007198672     -7.0733937136204421
  1507   3       35.56032692532365      4.9337419652871253      23.663171967610797
  1508   3      22.142889718806106      24.253312358599715      34.861250083641984
  1509   3      43.936734145518514      38.432612029161497      49.527273134182344
  1510   3      18.730505150536157      52.451673495966496      35.367067346117928
  1511   3      45.751459757881726      36.583364538505762      48.408490377499895
  1512   3     -3.6494852536552718      15.506030148624292      41.573757563537235
  1513   3       1.182791563749497      16.108114611193589      42.358558582502333
  1514   3      4.3336455726234773       25.16965622566498      57.040952910131246
  1515   3      40.207509702248714      18.187473632946592      3.7723041599369735
  1516   3      28.503950773655919        26.8656726603616      36.319598999131927
  1517   3      38.474191168895814      12.859639808336837     -1.5252254910003575
  1518   3      35.990105882206684      25.639876060394233      49.976463421475223
  1519   3     -4.3266250205627674      33.908137167318849      40.613774328198176
  1520   3      20.371745945885852       7.354564372848353       15.19048091222823
  1521   3     -7.7996785497089114        32.8134137410173      20.539836774733363
  1522   3      7.7963530154300438      8.9510156893443646      34.098654311888474
  1523   3      28.574998083830135     -1.3520485252718479      41.416352842892344
  1524   3      40.406802911726871      11.191560078846861       20.10335526074941
  1525   3      11.853818328566842      36.869070447412021      44.741224363932126
  1526   3       24.63911908214013      1.8506661364456436      18.078214782589399
  1527   3      41.742588628920075      34.242606121888109      18.413818713319905
  1528   3      13.176546429764462      34.469889537177195      26.844762166041139
  1529   3     -11.111091404028741      20.108612187693844      45.285508519441741
  1530   3      22.155883884347642      33.780388823783163       10.22651036148573
  1531   3       28.94424871110332      11.570748801926317      5.6503431782587263
  1532   3        36.7293031562848      37.070207066646368      43.733710669640274
  1533   3      13.155731025699051     -8.9372640856985441      20.203112771342088
  1534   3      27.775331342819658      6.7235829700880476      33.086334797677381
  1535   3      4.4202908259215254      16.268120877396168      32.186453709073099
  1536   3      22.955757596083643      5.4782360226856905     -1.5443215768169198
  1537   3      36.487722106316554      4.2275197517710623      20.700866461616766
  1538   3      7.9215412469312501      21.935427349329395      33.313303389561597
  1539   3      28.038383313829037      10.774776861081767      36.666592910979141
  1540   3      15.577198120191607      29.665891432062612      42.533482886544498
  1541   3      22.028648251211798        36.6156394449918      13.298641645369655
  1542   3      31.553824615329241      9.1916183028791139      22.104805480194443
  1543   3       33.07134771206654      44.495505182925179      54.477913424739555
  1544   3      28.750374595111047      25.861433959579671     0.15343314148453668
  1545   3      15.325351953409243      38.213337554410785      36.823402675046658
  1546   3      26.423454983567488      20.821130367354847      41.768452776339885
  1547   3    -0.40469087417600313      16.151021955101914      38.270099948071731
  1548   3      54.290482035706589      38.987391548123163      24.772053384921385
  1549   3      12.120006817557529      52.138466234408547     0.78766497733865493
  1550   3      23.908422185359107      32.405650405599573      57.309232000717273
  1551   3       13.14287995094174      12.496960357982974      25.586297666573788
  1552   3      21.117540905706701      23.133619252453745      16.910796071220528
  1553   3      43.613453796251719       2.529825495498057      33.318902167716587
  1554   3      41.782587113108733      36.560106762772541        32.2528055065765
  1555   3     -12.263567174980839      20.768526227950151      42.517207856784431
  1556   3      21.978771911741731     -9.7671113667233485      12.155186158586465
  1557   3      18.552740653653505      2.4870344310701715      38.302875926003644
  1558   3       15.00057012968054      22.570775870681008      25.883238365216517
  1559   3      26.519050826040427      16.196835018101069       33.87954440051378
  1560   3      33.024983245691864       40.14697435067982      57.864406258153785
  1561   3      22.585565660724658      2.9370528329218852      51.268925320370428
  1562   3     -9.6624732459895863      50.398246974051524      13.314649952154904
  1563   3      37.513559173010009      49.081949146412526      23.526441219747376
  1564   3      51.972351522917705       27.56108691863815      11.081762528383774
  1565   3      3.1500843559946272      28.544192246528045      36.400630340251162
  1566   3      7.5526362499700612      49.404316088539353      21.374065895706455
  1567   3      15.543602218356389     -4.9278608214614854      33.042875860133435
  1568   3      20.802907817269809      1.0892288414657667       1.139771299185937
  1569   3      17.502586986355468      13.657746962970899      24.612464438197701
  1570   3      42.830709270562501      58.136373970438633      22.701277915467827
  1571   3      8.7549203383634371      42.709779622593928       38.68420203217309
  1572   3      9.3575263433993943      17.831843299436915      24.349228354165152
  1573   3      16.228259662654104     -15.031270100160054      26.888704589947316
  1574   3        3.99529301871158      27.507292480709754      13.987131536412889
  1575   3     -1.8111595447977646      32.313026165558348       37.86420386891519
  1576   3      9.0346697676106444      14.471504147909819      38.526153604444289
  1577   3     -6.9779259035410455      8.8676166297838606      20.091745713287519
  1578   3      34.738300516879946      14.128328182569584     0.45383369280647706
  1579   3      37.567818819606181     0.37942979310454972       26.32026913566575
  1580   3      46.937597306452354      2.3235647119309992      21.477810685396179
  1581   3      11.058270783917804       38.83090296005247      6.3752670004386927
  1582   3       16.44470027315398      37.482845482810227      14.689295483349916
  1583   3      21.435768759660288      10.023334281932888      21.503401045143733
  1584   3      44.272777569929808      24.473241392393501      -5.522323743796778
  1585   3     0.76207996615716644      18.674342940024459      38.241723634748183
  1586   3      11.188592550793809     -9.6438550381280663      11.643377165671104
  1587   3      2.4682867606201362      9.6828058795909318      2.8766709844549765
  1588   3      18.847938644716791     0.30748883299947344      43.306559297480469
  1589   3      3.1563357144505928      17.408373007366809      -11.25044729039916
  1590   3      47.862604389171125      26.776334102346819      15.085015307081331
  1591   3      41.259601386923286      11.747286104899052      22.879726526549419
  1592   3     -7.9128466818210521      3.7940117157389039      27.260211267714524
  1593   3      32.705983183330353      16.300616460245994      12.895247652729381
  1594   3      2.9844431863842988      34.879814433693006      9.2514770275565379
  1595   3      44.444454087173867      39.141995355451705      36.138156979688823
  1596   3      20.829083934922011      14.910543618556483      19.225428610050706
  1597   3      30.967830764764194      25.763870083214165      37.501972002815933
  1598   3      47.155883219266443      66.301999499273663      23.810393913478798
  1599   3     -5.4531798605007964      21.040144228861948      41.344449452188861
  1600   3      50.113503350286507      27.196811683952873      13.335479957733675
  1601   3     -2.4922742544437742      34.841602026203908      39.027447884331359
  1602   3      57.632185827665175     -3.6476425149530569      36.971385947975158
  1603   3    -0.64416533538174181      16.278553643555515       35.62268666915967
  1604   3      5.4300439764578421       11.13168790823085     -13.064542710516974
  1605   3      47.072951278317497      3.7477376916124996      24.232585693662841
  1606   3      23.198832859361474       49.69246796592644      28.297093661507397
  1607   3      11.816554497924491      9.9028768744764708      4.3880753062677273
  1608   3      21.153122460494949      3.1983793917058327      39.739957196041829
  1609   3      21.663191956826235      46.045687146568156      27.445127694719307
  1610   3      44.547964239368753      34.186509144649257      18.960405731702675
  1611   3      27.168766758609966      23.566403559889569      38.707198042865677
  1612   3      26.124991253112604      55.271410777344457     -4.0846382571261683
  1613   3      34.465471669320706      25.184215710904308      52.486737186347661
  1614   3      34.365524083317958      5.6264567770218479       19.27415686562777
  1615   3      33.973263036447541      23.783598194960266        32.3368207828821
  1616   3      28.742906335364264       24.25031933765985      36.549027748183931
  1617   3      5.8459745317733622      27.083428208592913      9.8161478195140308
  1618   3      56.609319540220106      41.910648029618756       41.15047669112667
  1619   3       29.15389710969297      34.232939852939239      38.003836556617038
  1620   3      5.2348453120181562      39.153816089174626     -6.5738217867623892
  1621   3      38.138724236097133      7.8426125324754965     -4.3365071130226047
  1622   3      25.486132218505936      4.2910199823488773     -1.9692389051352832
  1623   3      40.467679176314746      56.982656274434369      17.652741405206122
  1624   3      15.880522433833505      41.307505320945644      9.5418265564019933
  1625   3      47.322100085587287      39.187869699806704      30.036246338871212
  1626   3       37.24578780151402       25.13427406109415      3.8323156252006201
  1627   3      32.608306593932028      37.981868575574936      13.912576603196907
  1628   3      26.823539321799011      58.385584559126542      46.934981689319329
  1629   3     -6.5309948197777707      25.424193140555403      32.231493467137263
  1630   3       36.92618669282264      15.511741914207267      24.904728665369102
  1631   3      25.880332229582582      32.588975144047303      10.685471069701704
  1632   3      18.811762782458253      29.758737440596789      24.225758757256727
  1633   3      53.427206333336137      37.563639969092378      17.634007272045643
  1634   3      1.5881240205158034      15.957346453142842      45.299663579970435
  1635   3     -6.3172394928783735      38.892684416242446       32.74429608196774
  1636   3      41.907643050839816       8.700779258918919      25.439841352967466
  1637   3     -13.883732857648853    0.083608620820025792      19.363408543235309
  1638   3     -13.293631326593559      22.107041301528618      25.413818855166607
  1639   3     -1.8840995605586093      44.997865151103731       18.55811851855238
  1640   3      34.252419098439475     -6.1438623526205749    -0.67989160247229519
  1641   3      19.424920295113097      39.499123371308755      13.309476951650579
  1642   3      15.655537099056929      11.647184237144625      24.736320477160533
  1643   3     -2.7715523828498223      17.314609356293939     -9.2900720971873323
  1644   3      15.550018898213787    -0.54446114908597409      14.940931467563734
  1645   3      15.960757932400426      12.052803718666055      33.348990712105106
  1646   3      23.514963145962014      7.6029586390577357     -3.6045909413304122
  1647   3      27.031706549503664      6.6611705666628653     -1.5407961761819018
  1648   3      17.500168331172585      25.182701297638769       27.33739218008812
  1649   3      35.497008331850878      29.464395042352919      34.608254423781084
  1650   3      27.991423356125914      -2.666256389094082      16.660511175244757
  1651   3      25.329806242893095      42.580899478166039      19.874310266167733
  1652   3      45.463172496750239      4.5701824661337529      26.721077495616544
  1653   3      12.222646391222971      46.638538761252761      43.751465786428277
  1654   3      30.146117820828731      34.687313237093974      1.2034477396695331
  1655   3      22.261225960612943      9.8372882096307279      12.741471098614145
  1656   3        42.4821180864488      15.965264707127208       10.31017316920229
  1657   3      13.158300453760067      40.861327584489018      10.836642489135661
  1658   3      23.134569206064839    -0.52166744089844386     0.45030007159007851
  1659   3      34.620735249201083      41.291547579534473      38.337786032668589
  1660   3      24.641527381568757      12.766231003965622      30.713963126988283
  1661   3      19.739160660633875      32.333017866606582       21.38923901230314
  1662   3      20.254945931241593      12.034501978935415      19.224272326513411
  1663   3     -13.012451082006669      4.7629816331541894      16.924326786787077
  1664   3      29.153235148247489      10.086902057062577      18.945291143476059
  1665   3      26.916595523254177      27.014972397926652      28.626194837330537
  1666   3      50.556625159991846      31.626397049433869      29.761521351873014
  1667   3      26.151521959189836      25.355331023238577     -11.846134970254301
  1668   3      19.214186329726591     -11.789883769237923      14.166824137999068
  1669   3     -8.9262104122982198      36.243674059915769      34.226455337228167
  1670   3      24.726495793912108      21.372767223261462      50.845323946534975
  1671   3      19.938360803126606      52.050548733592535      2.9097632998212313
  1672   3      10.700589906754095      5.9380631554704548      29.032436510628695
  1673   3      47.691696446311376      27.445521401652961       12.00313082425177
  1674   3      7.6063738504266967     -8.1933738583614861      23.891119385796511
  1675   3      35.377939481939961      41.902224163698598      57.680663834815974
  1676   3      13.404177509121382      39.578146455170682      13.307211180752001
  1677   3      17.672213218636568      31.192621120363633      26.160306639052546
  1678   3       9.332644863486653      34.765906826241263      25.969424526269563
  1679   3       1.009746787202912      37.194858950644807      6.7419611096580878
  1680   3      3.7619749065752268      16.512025355265251     -13.836167084016806
  1681   3      18.158166792883492       29.54722778508393      42.749489299687745
  1682   3      39.088039506007974       46.61448061302135      13.585647543380849
  1683   3      22.740395809504829      4.5363796177936662       -11.1217372760615
  1684   3      11.658656712819807      37.701230496368694      42.038992871369963
  1685   3      0.7808140627474025      45.250443443428189      17.905973847701521
  1686   3       24.47659565014381       36.67397958781148      14.887246450320651
  1687   3     -7.7793500564676581      20.728236562072244      53.670377762087938
  1688   3      16.626706682104619       36.57203595050246      31.774845190256613
  1689   3      31.268802665529492       15.68938344309427      10.578749982761794
  1690   3       33.66661036252826      29.150210716390394      32.754163604384928
  1691   3      37.589677499394561      3.0255452043582416      23.422962011064275
  1692   3    -0.06599186984256511      17.694056431924459      43.716617791931007
  1693   3      26.974462052520703       51.56699944983594      16.639125007043258
  1694   3     -3.5572567606014411      19.461350583145617       44.62908437888921
  1695   3      9.7807730626263112      22.706459942498444      38.723401987204973
  1696   3      5.2816612032852381      17.880519096207387      11.800880632717774
  1697   3      18.412090896931772      27.336389740858344       25.77775694586505
  1698   3      32.202241217543161      51.744914530407335        38.5962824965899
  1699   3      60.915231773672872      42.508282639421459      19.370132052075476
  1700   3      37.409108338237175      34.221105390589223      15.744519866107147
  1701   3    -0.39476242129947076      17.929769360003153     -8.1020712754425386
  1702   3      11.378269585603814      31.259640927427171      16.121377353308322
  1703   3      2.4304052004547123      9.9766076846375622      5.7197346796086128
  1704   3       47.75508937446525      39.958066246340636      41.231152962384641
  1705   3      13.360313414868765      21.314629453897417      24.039709418194782
  1706   3      31.724403203352917      41.853312781593331      54.923776921004176
  1707   3      29.123545573184529      25.285012303048486      29.896184900604478
  1708   3      48.006886955278929      22.738870895740387      14.245820683556692
  1709   3      18.570750342545278      40.752929018816033      8.1743568551803012
  1710   3      26.836733309198411      22.619838709338321      44.008748010377623
  1711   3      28.305341563284863      28.925912016097733      8.3163185753417785
  1712   3      33.036417718963989      19.096426650638964      4.3283704985677272
  1713   3      40.497611568061203       6.636612138346174      26.181694464075033
  1714   3     -1.9296984338650049      36.772187778064051      24.046332757957217
  1715   3      19.442768427333686      25.368412207124635      56.645644132166588
  1716   3      56.482534050284194      17.577285080987096      19.918631857322065
  1717   1      50.807245418773483      1.0281335432503536      39.976384007663505
  1718   1      8.7025095581060281      27.033248267905893      10.629885429517842
  1719   1       10.48676037484201      7.4644757598590576      66.271443592697111
  1720   1      29.031721179615868      22.711320777828981      49.280663897361769
  1721   1      32.742383551230951      6.8346814768350095      16.807599629378664
  1722   1      43.027945370453551      1.6857893187752091      27.439768068101817
  1723   1      28.611147115371761      15.738336697381788      23.909042342720781
  1724   1      64.575357142467851      42.500917692683466      18.602619208857547
  1725   1      14.820551211412837      45.512711554170636       30.47799958422792
  1726   1      47.013458972112531      50.300456013747301      43.164727943392499
  1727   1      13.430426488132861      5.9544332032051104       35.72622080993677
  1728   1       32.92371346641157      42.973144137208664      40.563720225331707
  1729   1       26.83128695011596      1.0697395380380341      41.536868965138773
  1730   1      23.108081764643309      13.155237794447114      20.057858572414929
  1731   1      41.673607481170258      45.544330609858392      21.088556422487642
  1732   1      25.701164745060598      2.9069809102291324       27.76503064918068
  1733   1      68.880482094283565      44.359114394674933       37.21134055533836
  1734   1      46.483040195801536      26.883208270929096     -5.4573360822970027
  1735   1      23.232373553163907      1.9099360303789414      31.485360250973656
  1736   1      26.816920692940091      23.999346048128729      11.087654668875333
  1737   1      -19.12812160957446       42.60107246287447      7.7516069586022986
  1738   1      16.721705258056097      21.895019473635511      51.258299414764046
  1739   1     -12.973028782539009      36.738990536112965      31.236200488084844
  1740   1      23.867201577709402      46.657534007832652      33.511555965542364
  1741   1      37.286708881021454      12.450802725609602      55.516037573105173
  1742   1      14.055841736165078      29.790284557307146      16.032722508864676
  1743   1      12.817578427512611      28.402805486180096      34.163273082924903
  1744   1      3.5809048929333169      18.604410110575987      9.6680629405420877
  1745   1      37.034675208092786      11.714276128097408      39.863177145872967
  1746   1      16.275048391364177      26.066169942880069      21.312324701650713
  1747   1      29.544641684508242     -28.614753169128413      40.532649128711469
  1748   1         23.773179728071      14.693206954901529      27.506445283630857
  1749   1      42.278935639027743      10.648758392054905      13.885463589174508
  1750   1      5.8358068092524258      34.924903491671778      16.467417512551723
  1751   1      19.515661236270571      27.374130127715926     -7.8490746246540937
  1752   1      1.5485706705261124      25.805515466779156      9.5255541332804778
  1753   1        5.36712882201999      6.0667139258967531      39.004665424851765
  1754   1      25.586806313513719      39.916556872518811      18.566336484840431
  1755   1      33.063778326494173      17.448092622404463      15.735987157783146
  1756   1      15.987987239243466      41.545411413970669      42.614640615127122
  1757   1      14.287438872445126      9.6093353200329794     -14.057919087206631
  1758   1      4.2979070407461037      26.752528590827218    0.025788329077489902
  1759   1      54.926447864373245       39.76981684839209     -9.5188491318526278
  1760   1      36.590160515941527      7.8342031609476228      37.837338072800193
  1761   1       39.62512331909987      5.3898551388697999      16.184345375475996
  1762   1      6.1666600748468081     -12.999703594119296      30.810591766798424
  1763   1      38.692505629453201      8.6121330633900381      19.853748684504748
  1764   1      8.2151168652803381      13.806079092632357     -6.2861572858088177
  1765   1      23.416526712867167      24.041179132734275      18.787372529625003
  1766   1      49.222120198275313      16.641635263452148      16.699992724570524
  1767   1      23.254507316682627      52.968171874986673      29.244831595921127
  1768   1      44.924930719299702      28.316109839260328      45.943545180573956
  1769   1     -4.8707514618752628     0.34899394810996154      37.243928807613976
  1770   1     -28.075867707900471      43.969875178695951       29.66891964161124
  1771   1      20.062971861162399      31.870020783430945     -6.8189044853915997
  1772   1      -4.988360067148065      15.317183038932781     -10.261206344989999
  1773   1      46.369591696405706     -9.0852592168058663      23.902573306383523
  1774   1      12.212286237249339      37.941240588017685     -1.1835044430549408
  1775   1      11.538613107637874      74.271744140131034      32.514864159703862
  1776   1     -1.8226905487982819      35.671198003114611       21.31087137110617
  1777   1      12.717247694076164      43.691197296546655     -5.1481692148830156
  1778   1        11.6460238156412      14.121231173217589      13.918293173200588
  1779   1       22.07114192580422    -0.27703640418933556      18.519764267760166
  1780   1      8.0690101457429879      11.848632030430139      48.012395306764709
  1781   1     -5.5913830663352737       8.601172454673959      2.1789951368767997
  1782   1      49.779539648009283      41.897299634069029     -1.6310469561993173
  1783   1     -4.5955238651562818      35.345705080624001      44.672164897306438
  1784   1      4.7888647454465003      43.830302035969098      28.507926011946736
  1785   1      22.023903925038017      28.018950621921761      25.434370573599548
  1786   1       25.02827231671899      35.202863035176371      9.7434511114212548
  1787   1      34.482146954096862     -8.0594632923766323      11.652434190719209
  1788   1     -11.658994230861504      37.795125046689044      49.723801507402193
  1789   1      2.5882675232176355      54.328569507710981      40.986374011482525
  1790   1     -6.3531388904808805      -7.750339785220973      50.241660142013806
  1791   1      13.188592954147206      20.333569454942303      49.600415580273044
  1792   1      34.761810806729834      8.6915582662185003      18.694051311423035
  1793   1      19.192571359324091      30.137283682902311      51.706961770518213
  1794   1      34.588036316133213      67.450183856966746      42.281878555843285
  1795   1      47.176172878127751      29.528366247493736       16.44143732575321
  1796   1        37.2232914300508      9.9217065681779015      50.290165278438316
  1797   1      34.797569413717397      32.597230710877326      28.862679451997778
  1798   1      21.281795030806446      54.530951058701397       35.33710711248024
  1799   1      4.4765931541995219     -6.5248050377927278      13.564241776916649
  1800   1      14.833542375029971      39.716080593382756      16.060474557385529
  1801   1      39.220099929409166      34.293600377287774       2.199444262084985
  1802   1      13.497631535453323      30.369484990393254      12.391793282308413
  1803   1      29.916346046134557      46.811125787905688      19.238505163042813
  1804   1      10.512291702503363      56.140232353429077      36.257158464744023
  1805   1      10.642981231401537       34.32350557609665      -8.881762455180791
  1806   1      47.093405991589059       53.56646305570893     -6.2186189232922509
  1807   1      18.336615073410801      39.041310706569128     -32.431639150747934
  1808   1      41.322963179810621     -2.9008673630717858      24.932328005310431
  1809   1      30.105273498547298      12.839296562437356      36.882841393049198
  1810   1      19.971743727195943      29.285070021528607       58.53243784924998
  1811   1      19.362811186749397      33.575845272536199      11.843787179267508
  1812   1       39.22144822631865      3.7753597659511473      51.394572803128241
  1813   1      32.613284166225156      13.920734998025965      29.202870391952661
  1814   1      23.106908112955949      39.727674061932262      50.960180099527413
  1815   1     -16.064050802416958      35.361502580596948      30.591140626812614
  1816   1      21.205890657430611      39.632580892983526      28.071219078326191
  1817   1     -7.4742549202677386      57.364820973543843      43.513831963665012
  1818   1      34.530937423765124      32.125176567470952      32.782189865809102
  1819   1      3.1536032646530803      5.6961779328571982      11.027886778392276
  1820   1    0.082144936914089889      18.797115621291336      30.583601843841208
  1821   1      35.892736249807243      9.4955397472588245     -3.2525898894353191
  1822   1      35.384113022848361      54.949725495459134      3.7317564168207475
  1823   1      47.186122995691051      52.536963881664917      45.702574034773093
  1824   1      22.537826843948938       19.36150098469248       31.33983478022385
  1825   1       -29.2028351919942      56.721991984129055      12.626653757158852
  1826   1       5.440045555881019     0.85437080402495091       6.921607799959558
  1827   1       47.77546987029087      23.997867849841384      26.193351825826678
  1828   1      48.176230177811661      34.109321354247221      24.720950019119144
  1829   1      13.443258574521275      46.315554449187722      56.620593610295025
  1830   1     -17.413319208160235      16.597456563533068     -2.3735596713645948
  1831   1      2.0982965564997276      37.533732582681431      37.301609429733233
  1832   1       25.78646039256682      37.058876661673473      22.789513107399038
  1833   1      17.703825051147266      1.4282775689526812      14.007667158106402
  1834   1      68.335193647315364      44.925732206432805      24.551911474606463
  1835   1      51.843579410778865     -13.625035407849222      6.0273382086253404
  1836   1      41.405800327282357      36.668759567069344      14.731284477282529
  1837   1      41.267362098739987     -1.7903861781363324      6.3074529311086796
  1838   1     -3.0345910613397824      22.920060446167806      37.886305048510934
  1839   1      41.558357921040205      33.359974040394434      15.492984043987692
  1840   1      13.418556395557291      46.117247491114455      33.573494454375698
  1841   1      39.251254512954347      10.985879585974404      17.346333833334786
  1842   1      4.9265578132430923      8.6356464131949089      4.3107793339050824
  1843   1      4.8175664206292517      6.0223572594032957      13.641960477129306
  1844   1      35.813841979972501      28.886102518067428      20.311797804291782
  1845   1      15.397483402290229      44.304550574317091      45.385263943545809
  1846   1      10.149006773394563      29.045065723612087      56.197914641080331
  1847   1      55.458092182608894      19.776203091543056      17.708329820099632
  1848   1      41.331275275820637      14.426171120039214     -1.1008449388383894
  1849   1      47.504182341830983      13.610884452946662      47.678113829891394
  1850   1      51.703715217919765      37.008399540517907       25.01933840442085
  1851   1      42.758619807504658      54.185642499385402       51.79146282689014
  1852   1      5.1960103522182699     -12.283125751115469      44.250201272732468
  1853   1      1.4807196047200253     -6.3774332256669295      18.023040116558647
  1854   1      41.917136395740997      40.211497671038146      8.3224711313186539
  1855   1     -4.8289686088997579     -2.4614733972439664      27.088715301378819
  1856   1      40.308430016575919      1.4956017517817786      16.257408948428974
  1857   1      31.361627666271641      14.491027560436333      15.083010191708698
  1858   1      20.985297430118944       28.86450941995481     -2.1522363311723769
  1859   1       43.24536922838319      43.265830344512239       25.63552254986277
  1860   1      5.0120108413650533      10.867412266401585      1.3272181692882039
  1861   1      51.229378013568578      3.2719669962612663      33.211665738762861
  1862   1      28.123789535507989      37.084978693252744      25.472051131061598
  1863   1      6.7838012396410514      33.779256981033491      35.098595057728431
  1864   1      32.434488006304093       26.60737384718168      31.908239619033761
  1865   1      43.029282062191946       18.73571343990729      39.026976399063152
  1866   1      23.063371045460567      40.133320141324219      20.992890331540647
  1867   1      8.4749444944853902      29.497989233043096      21.886943943508889
  1868   1      28.294288134880897      40.729577119748271      39.457123283111393
  1869   1      33.721945263529044     -16.846909192896963       19.71870860705387
  1870   1     -9.9149808524087426      6.5330893163419326      49.612026980293464
  1871   1      30.899679135678515      33.475463636327127      20.502818336685536
  1872   1      42.161708975419344      25.118394339856202      29.131909159855905
  1873   1      20.930193287488319       9.583926306917121      5.3937628297063789
  1874   1      47.502294617806747      39.836295370846031      10.369208232621974
  1875   1     -4.9020632972855882      5.1763142499630597      57.340568390879106
  1876   1      40.606603272553009      13.983974474123924      9.2491621278477645
  1877   1      26.874366734839604      54.748375133634227      25.321798379201283
  1878   1      26.626590410250184      11.401389328905674      3.7928204371586469
  1879   1      20.962804987306665      23.384896315455602      21.199196770041649
  1880   1      25.262161669386792      44.820407268610388      15.991208793988024
  1881   1      41.050039408587445      52.436942283411412      7.3028386707820374
  1882   1      20.926404983230128      75.899389871714973      28.582839680033096
  1883   1      16.151504570837943       20.40553430222797      12.320730913979514
  1884   1      14.651438922110149      59.153001714479998      27.466882605447182
  1885   1      3.5925413071966874      28.151524927473996      8.1873063186714301
  1886   1      20.280676347807685      1.8784709262508497      5.6361794428547372
  1887   1      30.891935654615168      41.609059060125894      18.775038712792899
  1888   1      48.807862727788262      36.696453411511769       3.733774184505612
  1889   1     0.41704119488374208      28.356316587179528     -7.8847206946670267
  1890   1      27.509726265201202     -12.737353097841723      20.025124323948003
  1891   1      4.5108650565781874      16.527041931179006      29.109970019056714
  1892   1     -7.9301752002547188      28.940587376687951      35.471838273695582
  1893   1      7.1954824493434462       39.63298593048895      4.3723283345843909
  1894   1      37.904246247824339     -2.7605045387042821      23.216095116435099
  1895   1      24.372482064921616      30.728283976567329      4.4390243078575402
  1896   1      24.143578798643301      27.325908071175082      17.285459078367992
  1897   1       40.33358299883767      5.5688681074440156      19.302333462583945
  1898   1       48.28992464270987      47.759654333931309      19.101289745666488
  1899   1      46.869380021253114      9.1829056263752697      73.188705783798767
  1900   1      21.396686127763129      13.804363409033167      25.050731031737506
  1901   1      3.4835300087750767      22.295495710678182      35.028568232881717
  1902   1      37.584304583770077      5.0512329510885712     -1.6200951685525189
  1903   1      12.080017935458798      2.8000279633968832      10.314153878002461
  1904   1      28.590310670778315      12.588825046420975      33.781294339893719
  1905   1      38.835065657182824      42.703245343337628      41.264410911205097
  1906   1      24.568431334038042     -5.7489300638272889      43.574000863924496
  1907   1      39.257751194889593      16.289567967375184      1.5481172337012576
  1908   1      36.580144386075247      22.358060558175751      9.3582602527887513
  1909   1     -13.643087506590104      28.027985967198106      16.239320807256156
  1910   1      47.035112701920156      42.446884112526561      29.746169457758239
  1911   1     -4.6014220134051032      20.833336273675336      14.654579742485321
  1912   1      10.891386235109151      11.872860420425047      16.618125812696295
  1913   1     -4.2895469251529343       21.74348580127899      17.796540722138449
  1914   1       34.43954860133919      41.826580259839027      29.073548837893895
  1915   1       28.03081757405128      6.2608768744584022      8.9983709691439149
  1916   1      18.620824465181492      10.779418650029593      41.871122602728903
  1917   1      17.364350126975292     -1.0175569533813598         40.729884450415
  1918   1     -9.3370865809802002       15.18161130518402      53.535140013259387
  1919   1      22.015783899917189      17.998648060331718      25.848088787181393
  1920   1     -7.1109902233875184      15.414157112319131       16.63513431464947
  1921   1      6.4939912945279596      24.849990262754122     -1.2629819877159987
  1922   1      27.505228424556634      3.9328688556738944       32.31352954068943
  1923   1      45.943290607937897      32.272953858621655      5.0828379127913941
  1924   1      37.536009272788675      27.967456655351953      2.3046414677454856
  1925   1      58.514464247110951    0.057360104700247182      31.019868133943259
  1926   1      -2.860576678661225     -7.8252361266044996     0.36690842292012832
  1927   1      9.2275059627769185     -6.3381981133506962      18.490043782619829
  1928   1      31.627150643910028      60.235083348315634      34.112560747793616
  1929   1      16.243772883190619      36.505585313231016      17.520740883853826
  1930   1      4.0310308696998565      40.351925960604135      1.9334815081227612
  1931   1      29.884715884766646     -20.739118548318345     -21.689551980239685
  1932   1      49.242965711979288       46.45953158630833      22.300344137537216
  1933   1      45.681141360237888      41.715687923035546      33.643013380685701
  1934   1      36.055575029238199      16.696364076390026      37.001191009399001
  1935   1     -3.1718394728879105      47.004581318313704      16.976605882288233
  1936   1      27.998286678776648       13.43433849937087     -18.697337907512438
  1937   1     0.19024640599834763      34.296506047009792      56.350730348766469
  1938   1      10.290507448565597      38.856972779362003      23.963119780587842
  1939   1      10.790104444849712      34.778836594496795      10.537837971668861
  1940   1      15.547633692591262      6.8201567363802766      38.737720419413932
  1941   1      24.680110667378031    -0.72156594055480694     -2.2377271379390669
  1942   1     -19.970835335883294      12.645249721243028      17.099939890604428
  1943   1      23.842482374748972      10.811555111938922      6.0572684883508066
  1944   1       34.13662685493442      22.280739167477837      3.4578720345179517
  1945   1      19.662062391383198      23.087946286083003       33.18140323983117
  1946   1      23.127943508667066      30.422718621007096      17.298142952813588
  1947   1      5.7565902300719314       33.76616100635551        8.67808548627759
  1948   1      23.771133638892241      2.9822193435377264      62.534155811419581
  1949   1      10.915665621982793      54.383022632650885      2.6725182337896207
  1950   1     -5.1570023451440754     -3.9022649232691062      56.168185548887365
  1951   1      30.806202124225276      31.940205621925326      37.054031430571605
  1952   1        60.6692604600916      24.878246103073149      12.754598324017168
  1953   1       38.57890468778163      38.314642460343691      41.865295242420864
  1954   1      33.756212218781307       55.95525009168589     -17.228906169647601
  1955   1      41.405625745888393      1.1450458602867075      19.963908634441641
  1956   1      47.269974072018044      2.0651984632181617      33.108550805962082
  1957   1      2.7150068159043124     -18.820394594677669      21.725390894434607
  1958   1      19.599958305140117       7.994141257388657      25.806999502857522
  1959   1      34.414464160807512      59.057924278251157      22.242655671400531
  1960   1      3.7702103773172073       25.44670703278938      30.895472129310175
  1961   1     -3.4553594838198718      30.505972416974558      29.589065677745531
  1962   1    -0.58727062199490554      67.308493398623085       7.694216212894605
  1963   1      10.511610949987595      4.0037325170880687      35.537496242098896
  1964   1      9.6405611965440698     -2.9267819464786213      17.879662722567513
  1965   1      31.703861231424202      2.3194108807334257      24.967187220420094
  1966   1      13.227884832714276      46.514887752953463      13.360632336973058
  1967   1     -5.3780508854781992      9.7862723029344885     -8.7018629423023164
  1968   1       16.56059234347418      17.242779619324136      43.852497703089178
  1969   1      6.6106505460772755      71.420595862589451      39.651384991855323
  1970   1      22.442313286010496      15.430300012582686      46.675098620587441
  1971   1      55.281228041583908      53.549753575952771      36.166255078391849
  1972   1      20.403727288403029      13.782587199194818      42.867241545348534
  1973   1      16.347496781016964      31.804861065754796      34.257248041199098
  1974   1       23.31529610525125      3.5216256846840208     -6.5794288933617455
  1975   1       18.96796971870122      19.220363732602429      29.259628055506127
  1976   1      44.016361581665215      51.155891396445845      6.5538275519521472
  1977   1      13.598356759500655      5.3719557355575951      41.303497000132765
  1978   1      35.620014405641193      36.367483441492972      55.634595997811019
  1979   1      33.117010053983662      56.021299901854121       6.046969798613488
  1980   1      17.812855117887224    -0.56437579427616724      7.9500795320680018
  1981   1      16.900671633229432      27.177080997429485      43.660737048874928
  1982   1      -1.146717918434609      24.901671216168516       35.28646132037349
  1983   1      30.380741706231621      21.118731812734229      34.159059511217649
  1984   1     -2.6766929746047419       15.05071807664752      22.425018348889129
  1985   1   -0.027332361785213494       16.17773133998876      54.196523279558249
  1986   1      23.416131480773796      26.732584706463385      22.592854243365196
  1987   1      26.085583639530476      17.865606445578891      42.918775707225649
  1988   1      38.945138372994677      28.098073695317382      55.387917585408623
  1989   1      11.195724444233338      28.708715693210753      14.218665932431612
  1990   1      12.420146119999023      13.263215833122286      29.158766294807975
  1991   1       16.68704423588192      13.303033767161084      18.522237653743201
  1992   1      30.254932437079002       38.42066658387909      42.443862661119169
  1993   1      28.903121678138085      19.967588807107063      19.244642928323547
  1994   1      46.180853749392888      53.786444263291358      51.586117069077574
  1995   1      24.368159250925487      47.415120740841751      26.952474193587339
  1996   1      11.631162077415643      23.602801944533379       23.26823779741224
  1997   1      25.266999708992682      28.649669348756028      30.828723570464987
  1998   1     -1.1756892599974651      13.400981190983751      35.499027687464633
  1999   1      14.624897805082369      36.081604287017903      8.2878746570090325
  2000   1      39.931529690579509      7.5486518066834067      37.953469132253424
  2001   1      2.7855612634348965      25.980340268601154      27.426227879684625
  2002   1      13.383672369370498     -11.804726985909543      14.824518901245652
  2003   1      44.421726568128491      44.138719921878192      14.679876268783786
  2004   1      66.097799166291125      49.210575599116829      17.326329064249467
  2005   1      28.342056999804608       39.87463445709858      20.208639750501693
  2006   1       62.95857529786354      18.965530406267789     -2.1620915826292384
  2007   1      51.214821405836595      16.240253247225475      23.492327091408178
  2008   1      5.5835760236742731      27.024163834543486      20.991408749957646
  2009   1       17.20936978035742      30.833061566166609      21.302204409201757
  2010   1      50.825055867398333      27.398432301243588      53.284718774129679
  2011   1      46.125024095715844      13.689886872581488      54.385778752516693
  2012   1      42.184484274377304      29.355504591421809       29.35064672065435
  2013   1     -3.7371272420244637      5.4090973124457369       12.29765252110732
  2014   1      12.942101913783521       2.907080289525362      26.604602408907319
  2015   1      22.845715254849534      22.073433404541031      14.667161505456106
  2016   1      36.496023396127228     -7.6455644666142177       15.58079450530863
  2017   1      38.513275629865134      29.073632841404596      41.972214042214738
  2018   1     -7.7608420548865444      40.513936451978964      27.815473865863559
  2019   1    -0.91320794456823307      2.7708547556389655      7.9648967604041649
  2020   1      48.691062146830198     0.40937946995414276      27.179776069547181
  2021   1      20.899269168925027      16.137078107986223      49.622406498543995
  2022   1      21.828831332675854      8.5215822021531782      47.429754034316176
  2023   1      6.2786981767374028      40.223613114088849    -0.54332894871766579
  2024   1      5.0238365242805978     -19.434990593822882      24.650163078353067
  2025   1      36.167000509270743      34.938541205879375      52.159804887380609
  2026   1      26.607431064015607      41.730702314070236      31.304326320106618
  2027   1       6.586780335734356      9.8328275525259627      31.329915105630995
  2028   1      38.229079517701351      24.217927406472324      18.809102264617373
  2029   1      45.117182340440763      19.218796294339072      22.035017758491332
  2030   1      12.887745226008551      31.826852504253605      34.148948615448305
  2031   1      18.298474771358251       41.57764072641217      36.648754276402215
  2032   1      49.519189992826917      23.679588935219911      29.277264360537679
  2033   1      48.487809739471409       30.31832854242549      35.666103718274641
  2034   1       2.871203153989216      57.738652842123976     -4.9325857992667697
  2035   1      7.7024764165529165     -6.5697428347155702      36.066556265858381
  2036   1      41.259963990471505      36.412334028980247      27.371982631902597
  2037   1      22.597481456654059      13.681906698614608      40.278684161045604
  2038   1      17.608361402359765      26.760580432730706      10.106027994189605
  2039   1      9.2740812165951443        26.6683979189377      44.474973071919955
  2040   1      48.853694653988583     -10.453934708717656      22.244495098756715
  2041   1      49.664553955640258      17.441824631084902      11.355101980838361
  2042   1      55.456626154855471      43.344006518914469      24.754548760040933
  2043   1      38.438972375876254      26.965251064226869      21.250968725952561
  2044   1      18.691916624305655       13.94422313337267      27.342089748580285
  2045   1     -9.3133488749454045      12.087145578668672      50.250162136357737
  2046   1      29.372526691116452     0.20849608238645354      39.171667214938424
  2047   1      16.045869144370762      7.1359135359036694      8.4059699441368316
  2048   1      12.976952673141547       4.027737122475715      7.3310063473286338
  2049   1      -13.98145264045349      9.7312931086092931      42.426526637894618
  2050   1      11.178108677457727      3.2759660022910246      15.325323179242909
  2051   1      19.367529472225215      56.151402976370541      21.464691173757409
  2052   1      6.5771679550771953      19.686498285903312      27.073962054729282
  2053   1      20.221267708101564      22.105182244347098       12.71313049313358
  2054   1      52.983950809796958      3.7580997836450565      16.970329183950749
  2055   1      33.439697167913955      19.740120450970128      24.360334898144842
  2056   1      44.361590652064535      28.319740737816335      9.2430857358856588
  2057   1      32.988916315818692      29.582627377963988      59.639268237108276
  2058   1      40.546322716413236      21.032220296405132     -3.3789674942033274
  2059   1      9.6150737030984139      12.152356221049381      20.106786354290051
  2060   1      26.682660305921463      35.718567879310193      3.7111461027212465
  2061   1      12.118522137628768      20.849213327834317      36.244768101320403
  2062   1      22.417211914820399      61.766695239441489      13.056209762141748
  2063   1      49.265938536128523      69.663533235972011      54.033630959939771
  2064   1      26.570932331485295      16.319918113247233      30.636685291696416
  2065   1      40.477384143521121      52.706556215799807     -0.5575763351781613
  2066   1      24.689642294096434      17.643276581374387      10.508151739567877
  2067   1      52.570997441868379      51.367459645963834      42.215781600188535
  2068   1      23.790973253982937      -6.088186612378311       24.21918988963731
  2069   1      59.434159044576845      42.422394174084786      11.703911535688936
  2070   1       57.10468866007853     -2.6107948742617277      25.347591420481162
  2071   1      15.057567646855162      6.5272100751822695      21.233423365831325
  2072   1      46.249192506187114      47.478538129813636      40.412056049471083
  2073   1     -6.2078535862066246      7.8570887667732254      9.9590980512667642
  2074   1      10.579765529997966   -0.048039867915055531      12.650048212456943
  2075   1       17.46971657488935      45.754950993882453      5.2666752725596773
  2076   1      11.283436335964431      69.813106199584368      11.526722222221668
  2077   1      36.357266643296455      12.893585888552158       18.73604749215907
  2078   1      18.227646409682375       7.553628363754747     -6.5983375096831134
  2079   1      27.121527990959326      13.244248640598045      56.229820716926035
  2080   1      14.143258019310771       14.67190630328059       50.54972139906355
  2081   1      64.054138125940298      36.425576725790471      26.629283339425179
  2082   1      2.7923481766026628      44.014147855628018      23.283704755937034
  2083   1       -5.13298992395793      34.089248752751054       48.44340915995091
  2084   1      29.032857835832395      7.9881989517100154      26.672642905227082
  2085   1      27.730240567290579      29.459688511505995      37.160114161832752
  2086   1      44.553343337543517      21.004921993720405      7.0890224168203426
  2087   1      19.678968373440547      16.541865331626514      36.192008246515037
  2088   1     -15.410944476023726      10.398649474109702      37.438265207036977
  2089   1     0.97996333822056347      13.797828039356123      10.422065844872638
  2090   1     0.34691399196286071       6.050587569350431      12.668206872809591
  2091   1      44.750181564811157      9.8882019170355253      11.572556788421123
  2092   1      11.700532920350232      34.659758794170301    -0.35248450463287789
  2093   1      3.5295671789983794      4.3547888035234452      20.245940772953517
  2094   1      20.235527512005781      33.954354022523439      53.058929285676903
  2095   1      15.174611968691805      3.2788988366038625      9.5891670876355359
  2096   1      17.873730384184974      18.359827477271931      6.5450118340762229
  2097   1      18.122829080623728      55.717300434179009       34.79152690975468
  2098   1       32.79100109182977      40.378712790579151      35.344283974129837
  2099   1      40.665048318006406      66.032377677159758      22.326417070861105
  2100   1      59.240063593852547       54.60210746995979      48.146326541209973
  2101   1      46.314466106227641      38.975436639483938      20.306860827124922
  2102   1      42.759230089617205      18.225057115569438      50.536368481123404
  2103   1      33.786616174474283      61.472302333735563      9.7538133594132432
  2104   1      7.8806564391813074      5.5069520926860731      59.143777041272763
  2105   1      -13.93127311669352      10.772061290475087      15.557631615826212
  2106   1      47.560178156598894      18.530590778888769    -0.99118144994600121
  2107   1      7.6391789643886385      1.6412812070947387      4.2849173198607193
  2108   1      9.9993085756066762       10.61862969672322       45.37534494203571
  2109   1      -1.861236170020123      11.234456034569128       8.953658608500259
  2110   1        21.6817435994842     -7.3538808153418858      37.011717539703007
  2111   1      40.370388321534556       20.46697705999965      56.598447752612088
  2112   1      19.008128703175085      25.189710787206749      35.525046685185096
  2113   1      9.3023689578383024      38.926060938372416      50.643344266909004
  2114   1      3.9293072389061092      24.857165592139879      2.6425066572456104
  2115   1      39.243888382376738     -9.4926530184471236      23.992404214779409
  2116   1      14.278988446941678      47.413255871803507      46.037480593160893
  2117   1      23.078184129219977       36.43515083115787      31.805152266505488
  2118   1      28.988987359558113      25.659433992447791      16.113415338674258
  2119   1      38.735969710978843      22.658759788710309      28.191281955713666
  2120   1     -10.468557515196846      34.159358122931174      12.959649977991694
  2121   1      1.0482212488634139      24.695021359148097      20.053558036521714
  2122   1      12.238612289529442      25.498747084917603      53.332894946481908
  2123   1      48.284064624988936     -4.6430390160538959      24.144451098765106
  2124   1      26.419530852659989      43.425544018509875      38.550229292572986
  2125   1       50.35886956373843      33.191472054659819      21.073518653712107
  2126   1      7.9571196549642371      18.030098176117981      9.6936327000284965
  2127   1     -3.9085688662903446      6.6625394918370553     -2.8513033340901459
  2128   1      47.245117787466945     -1.7976739825506334      49.097455361483448
  2129   1      29.683517247324286      23.163524166241032       13.73163041584092
  2130   1      7.7727474095380442      17.421240183774366     0.81975451641141273
  2131   1      36.656193457239077      27.059026698772655      36.290562743392734
  2132   1      9.9840884777099248     -5.4286631219027939      27.064453561145445
  2133   1      1.2156018629098202     -4.5160925976777992      35.932940474110531
  2134   1       42.72075004537821      48.176867498818609      22.340529645504443
  2135   1      6.8805486045773128      42.650851540737868      6.4251383123322112
  2136   1      50.438434787184534      10.938365985634013      35.737274784378933
  2137   1      61.858164853808347      45.306794453572273       18.63427868664148
  2138   1      27.310957916355004      43.394140423094541      28.495702214715298
  2139   1      43.411778185536448     -4.9970309543851616     -16.844744263406543
  2140   1     -21.869550435911854      30.238867774864627      11.994321237213866
  2141   1      35.535438060455924      41.186000516022304      41.337244746811322
  2142   1      27.294533285731475       43.22270006972667      13.616024272303296
  2143   1      1.4478354010987533      31.421280733992692      26.734076130049537
  2144   1      23.149927969300037      10.265861604665336      2.8077659311107399
  2145   1      8.5567711197599401       29.83980706180747      -1.273801580750352
  2146   1      27.161291455835226     -7.8431527522039035      48.971480403491732
  2147   1      45.224511825852616      37.293565272898121      -16.57580619375458
  2148   1      18.538529144357952      31.493060125379223      30.461686276061023
  2149   1      31.481188530943275      24.372889787375644       2.494497599758875
  2150   1      41.221013996688043      27.972996724314406      4.0258594761536157
  2151   1      21.355043573529979       26.17284036779856      1.4774991358049152
  2152   1      19.129868071165482      3.5290906261710679    -0.03051421556075487
  2153   1      20.448770408624362      16.940611320829468      42.963907449689522
  2154   1       51.20857826506542      18.409822076541733      54.714044114362537
  2155   1      34.955823229168359      29.019557751503644    -0.60678365650457144
  2156   1      37.395632244913067      30.475324754169513      28.201370575632044
  2157   1      44.199959642284291      54.835664588867637      49.079166630220442
  2158   1      17.143851468594924      10.197540418069817      35.814906255224365
  2159   1      16.026243086932666      52.209824746865912       36.48286878316474
  2160   1      17.566462162393769      43.964345869029735      40.390267780174035
  2161   1       31.12773974844799      23.246477544212123      16.866532417378821
  2162   1      25.174894819180295       44.84554484306183      30.433219183303681
  2163   1       10.99822921121641      47.967320834941603      75.488291207651741
  2164   1       40.54614227510492     -16.783991451053243    -0.29397312689896532
  2165   1      14.740554140453444      -6.023694092314348       4.559318079221593
  2166   1       6.046960421480331      38.411052143211712      35.977947177443568
  2167   1      42.918404829767248      76.053740872578047     -5.3469035959038571
  2168   1     -4.6619980900360858      2.5962987441710279      39.527868888789627
  2169   1      16.471401482437969      27.880868993732729      18.546804719060532
  2170   1      15.111661704186453      32.384027210860246      24.564718253523527
  2171   1      48.378891037068684      18.989771159228368      21.298374360094847
  2172   1     -7.9766159110969381      16.851130003031908      7.7022883048666637
  2173   1      41.998860533327772      4.8515316292270345      13.570957568222489
  2174   1       18.91397372350206      18.484255451290988      39.242479887978888
  2175   1      62.235836897330081      38.681224129827712      4.4418196689888783
  2176   1      37.700723142951375      39.877173907521787      7.9211562999873824
  2177   1      25.674694625048424      32.687338588849236      30.073394247054338
  2178   1        38.1465980519204      13.471229711235219     -4.4436300969898754
  2179   1      19.181076001442737      20.204386056186152       49.10345221927254
  2180   1      4.7077189030935847      3.0131921268082302      4.4110134432075983
  2181   1      1.7041709463361541      29.368308800489878      1.7525351703376189
  2182   1      15.971421740940086      29.105503736204167      24.884045349231801
  2183   1     -8.9019684262437284      22.092452076480861      34.327814005556043
  2184   1      13.866016420159569     0.85438339126058638       17.00960354090844
  2185   1      39.184964457281659      11.749515970650364      28.103886930851282
  2186   1      5.1611473450495735      22.377679697328315      31.787517288916384
  2187   1     -7.1204636673084076      72.517161559567214     -6.6438305296109057
  2188   1     -6.3039213092140853      10.812129084649333      17.710031894086811
  2189   1      46.866463987645794      27.390301430554761      73.125684543088994
  2190   1      44.510944569502186      32.264469940460813      16.771071378941098
  2191   1      19.162162861385685       -13.5739274303839      32.351695760325349
  2192   1      51.524158616522669      9.0641719273970551       48.59190837892006
  2193   1      19.006642196697296      23.419476309764143       48.83911640958091
  2194   1      42.456018710168358     -12.662767068711869      10.751997923199651
  2195   1      10.642736696549752      33.622213106279133         28.569659846034
  2196   1       12.88835503463222      18.289950038993155       40.35958857721117
  2197   1      29.465421310542769      17.578469430295659       17.12445397938745
  2198   1      14.843442995056693      9.8108021737714921       3.528191301215855
  2199   1      20.590696643696102      21.402764488883946      46.135902148644739
  2200   1      10.537343980893617      40.514380985021383       14.21392408796739
  2201   1      5.8534762247023862      10.595766096653909      12.789414141397073
  2202   1      23.977903628469118      33.618128794974169       15.63532518916511
  2203   1      7.9451507236439154      16.188234292317095      12.446531117989341
  2204   1      22.646197228691516      17.215432748122524        40.6019212741231
  2205   1      8.8153970983324559      5.2058724502995464      45.381411518479609
  2206   1      16.837100059230913      24.123048422232305      6.7546523466928239
  2207   1      44.711121340142938       23.85108314985753      5.1972683642966446
  2208   1     -4.7968159949224303     -3.3957237326096799      39.239873290376444
  2209   1       31.12626796304086      16.709322873180543       27.89663796746758
  2210   1      4.3015720524775194     -1.8410191743001625      38.344343566596329
  2211   1      44.838244065053367      16.547501385679375      8.4333141466406012
  2212   1      46.140147416907553      11.246541645988804      14.396244846622027
  2213   1    -0.12358046317078707       37.54877520964002       34.49920282054866
  2214   1      54.500733338685862      25.331668202056182      5.5588997444562516
  2215   1     -12.835658792851165      35.778007677264867      41.136103288740202
  2216   1      20.288170555283362      46.515650273670012      21.092207361883307
  2217   1      45.510098849999551      47.025353541610933      54.554040084209504
  2218   1      22.492086047823406       17.50835958906757      68.306557533399257
  2219   1      30.030925863681535      28.707899819534056      50.275939464707925
  2220   1      47.949681765039507      28.616130286818105       4.175493301426771
  2221   1      52.441637904529834      6.2488659828457536      23.282100910259356
  2222   1     -7.2332023066575335      51.472522381192611      37.475980519979267
  2223   1     -4.7157413243131927      23.139832341547152      34.265424543495193
  2224   1      49.377470216834865      46.072738561708654      11.387177539435712
  2225   1      11.871774116819697      17.796905900120453      11.604840887862672
  2226   1       42.80679309956674      14.548166942012761      6.3160012798877707
  2227   1      4.7989441206981605      42.022014898946075      41.375976245298325
  2228   1      3.5726229722597838     -30.059295048229316      25.924577150983804
  2229   1      63.138644466933322      26.397401199608403      14.425394883133901
  2230   1      5.3593551060215328      20.406174525167032      24.004618017153206
  2231   1      36.378779694279061     -2.4835260308020364      33.613073349684235
  2232   1      29.292566853007102       30.41137023172201      20.516398914389136
  2233   1      15.171428525284307      34.729895819492107       11.26746319710387
  2234   1      40.198546779152501      13.397538313609338      31.617719184423127
  2235   1      18.952513416168603      21.698298833106509      5.5889355057951109
  2236   1      5.8748972746019517      27.495101258950971      27.261174913807515
  2237   1      36.740717281233138      6.3185674732780628      34.788166395611292
  2238   1       9.883492941984084      11.143895444287327      13.646246557860195
  2239   1      56.956319037566885      46.498550355590488      50.178253152906066
  2240   1      25.776166204611151      27.685916201561913      34.988955903735423
  2241   1      10.777184009634711      22.004145905745212      18.821583370887623
  2242   1      54.862562375400202      29.768406447886196      36.570023685789359
  2243   1      17.416495795662332      15.458344919637824      3.1442634783428032
  2244   1      35.268317561432667      47.545142323833169     -23.362842957520176
  2245   1      49.311137483609485      21.209225933963769       66.90212293828543
  2246   1      36.965633841851805      8.6385346781115206      25.553317198933993
  2247   1      12.296234698240031      17.567587021950928      34.449435848762846
  2248   1      29.289696965552583      15.611621128640062      32.674984783099035
  2249   1       32.44295718482779      50.479242425523282       7.404494257728615
  2250   1      33.464149736501263      23.659424885029573      48.871453138297476
  2251   1      28.468168741264062      17.870643451785973      8.7271494709528739
  2252   1      50.293005919500693      59.085311081310032      31.318430809070282
  2253   1      20.177479513029208      36.726236516843009      46.938251988498699
  2254   1      31.230837579574015      22.815374842615959      54.260491146257039
  2255   1      48.568020508043951      23.291385797151438      7.4305788415424887
  2256   1      41.379310476731881      42.089170984768693      39.012547292263584
  2257   1      9.7928214607662092      20.537527919260473       14.92475692739256
  2258   1      19.839687396059894      37.436688353959774      34.510842602979231
  2259   1      47.761051818814288      8.9823739283246233     -13.628570424370402
  2260   1      61.831702709425237      25.689412154293205      21.045159128784132
  2261   1      38.124706727147228      14.896384494779632      40.417603705083245
  2262   1     -13.527416388188685      1.4638856993442402      45.483132705258058
  2263   1      36.498554104950834      27.746661222096385      31.924353077045225
  2264   1      16.791079842000723       40.82544189819869      39.495226430511785
  2265   1     -6.6757403760514746      57.363804619388354      -2.225950076102309
  2266   1      27.815892288737743      16.758878458794452       27.10340539937145
  2267   1      57.003263650710146      38.762260080696933      7.6386305415616755
  2268   1      18.351699849374363      26.776314419246432      47.175291502772204
  2269   1      53.969277338114253      11.283601937885281      27.281576698668676
  2270   1      32.520758400874456      2.7299660426935044     -0.6249069478078646
  2271   1      23.567751791239196      13.445811654253584      4.0831684591029234
  2272   1      18.747121258665011      22.975099015432601      18.907393580888758
  2273   1      32.992754188963161      26.450715704722736      9.6240942078171727
  2274   1     -10.531257640583163      12.314098563328582      21.927161843890648
  2275   1      32.061827539836713      41.352319775960737      26.390774102509837
  2276   1      24.054140443690617      8.2468084096360581      21.010473701932522
  2277   1      26.791189412762215      47.902116106893494      24.111223284223151
  2278   1      5.7847376440035294      44.770334152446537      31.793532636681082
  2279   1      30.496048191525642      31.895054845961976      60.587381861426621
  2280   1      18.768735280086762      8.7426447536564282      8.9309621280201625
  2281   1      30.447070067906228      43.251535961819023      30.082997583541498
  2282   1      52.117159567894831      46.771567218743627      18.973669534728199
  2283   1      8.2348594036422806      46.598661623399423      11.250858536101742
  2284   1       33.28585513293644      12.370718961516372      -8.384511961975317
  2285   1      25.194808662277794      33.670969638960251      23.603997410655303
  2286   1      11.393248194573415     0.93825564410164897      56.484117265663933
  2287   1      38.101744240400421      56.703406937067648       29.43626802420755
  2288   1      46.687939695100624      15.941138591502568      60.164035149959524
  2289   1      -3.958777123718324      11.675326172765372      3.1190389422653162
  2290   1      34.978802438425426      37.917662764806046      37.916306021493874
  2291   1      28.362559624668425      10.199205970648581      44.104216377745345
  2292   1      6.8771029270351871      55.399575877783541      22.270490364086328
  2293   1      51.437768847167987    -0.42099437464807127      29.080061249729933
  2294   1      9.9925663806515779      27.017628403601705      17.130779891759104
  2295   1      7.9775663948880853      8.8928998296865363      59.515945751513975
  2296   1      9.1641720968581293      31.934026865682096      8.7919522935104713
  2297   1      30.515223245736529       20.81123746917314     -3.0769906458105369
  2298   1     0.44284587356137955      28.868479896623775      28.553528919410862
  2299   1       11.66204104343217       44.65474040145228      31.084585233615016
  2300   1      22.451962187810619       6.860765552608175      12.866033586040368
  2301   1       3.290247791595915      18.559422842960224     -5.7265145732147413
  2302   1      21.956871547411158     -4.9238424695224161     -14.051665930803839
  2303   1      7.0584594995891798      17.104916793798903      3.9360196611048766
  2304   1      29.340351161608631      46.928214788339297      3.9519560028935907
  2305   1      48.429822204920804      40.758423670189231      27.491026624588784
  2306   1      14.435550825808184      30.310560128709614      31.751798896003169
  2307   1      29.650057961130386      30.083778830284981      42.235575382017302
  2308   1      29.607346733292662     -23.853787922799714      9.5358716640438477
  2309   1      22.171339670624555      10.142081666463929      33.657868057465429
  2310   1      20.304170769865159      51.115907097739026      18.228051092584742
  2311   1      42.143813477883121      22.738385400709706      24.850300709142424
  2312   1      40.674118740489632     -19.102079482675897      19.967935890917801
  2313   1       15.45354600118818      24.904540887199321       32.95463919617643
  2314   1      44.570956782692775     -3.8396860749610959      42.497818025956633
  2315   1      21.626049269660957      27.440895282090725      7.6249115954665649
  2316   1      13.168863672846285       36.81082720480444      32.113772833106168
  2317   1      36.621013107841037      19.911232932269407      23.441848268350554
  2318   1     -3.4719719332502623     -1.5870291770960392      9.2592109794953519
  2319   1      8.4445359100130784      36.110370771020413      36.594396666906142
  2320   1      23.635102081831057      12.754234895918733       9.816042458604219
  2321   1      20.636279087346271      31.426962933867465      14.722932612280413
  2322   1      32.784651622651708      33.155780827099726       51.03611642329458
  2323   1      27.161503520723006      48.419186991742336      10.830649953932786
  2324   1      14.384872757979235      6.4832189837375438      11.448428466021966
  2325   1      6.9527553141357634      32.335087918859287      54.810945003963752
  2326   1      12.634941554800223     -6.2231137010817044     -0.7535383479154415
  2327   1       34.53463724713577     -5.4175006624937732      3.2675420402070028
  2328   1     -4.3184183823640998      28.197533045086594      49.457573940724757
  2329   1     -1.8359902266301602      16.317699423411248      26.863667688313981
  2330   1      30.618842581837921       54.13356330504476     0.12550258468353667
  2331   1      25.800217781402893    -0.56562379375211158      2.2262791967231177
  2332   1       32.18491029195193      50.356949185830629      34.707693038908495
  2333   1      40.490496256064183      33.152270813174546     -13.480911643361683
  2334   1      49.491998614772697      12.314800283915222      25.294481186846355
  2335   1      34.555515688463402      7.4307633174173509      48.391199133724569
  2336   1      50.664935099124058      6.2684437574669278      32.020492253928431
  2337   1      43.638689445526623       11.17251062893086      25.063449965367088
  2338   1      8.9714313563250965      30.942872183710307      38.181281556928383
  2339   1      16.036470876681001      3.4242529939145645       16.27080366834463
  2340   1      29.763790736432981      52.244786876173571      22.512784765765499
  2341   1      44.417709338864746      5.4269636266988863      34.856678511725427
  2342   1      55.840436043471627      41.107065347797288      43.844813156610492
  2343   1      7.3351938476685792     -9.8611166744360457      31.716426031091835
  2344   1      9.2476159474242454       23.11186044730545      46.219983682054384
  2345   1      49.053763882055854      1.5375678936401087      23.517387545669614
  2346   1      6.5103290647587597      22.764183730116724      50.364885450490569
  2347   1      14.009175104439938       12.11276773447749      5.5641342682541186
  2348   1      34.424922924792497      30.502209953096703      26.241805117216288
  2349   1      10.887828953630152      15.759100214800764      1.7882251919850924
  2350   1      59.387328041684633      11.911462645750641     -9.3051716422167932
  2351   1     -3.6547487507936554      36.027059864213442     -13.461751854651839
  2352   1     -8.3285322466192735      4.5092564064320531      24.019869584131193
  2353   1      11.113412150093984      10.943827312975245      9.9850151881572753
  2354   1      42.842156060135352      22.939922892286155      9.3970384016617903
  2355   1      3.1550591139781785      39.433479367512447      19.511855088034508
  2356   1      18.949365139736841     -14.089278919637001      39.407980611620708
  2357   1      29.709875833431258      22.964374448730766      43.177774426038354
  2358   1      39.882868952409488       22.41442387782859    -0.59684749808999582
  2359   1      31.884749079119583       6.253486504389449     -19.745446247412094
  2360   1      32.344267215406298      12.749284289539704     -5.2240052299424589
  2361   1      2.6145822751426828      -4.776085695775671        38.7512660043731
  2362   1     -2.7475542600912362      22.129424452947219      42.515578368660343
  2363   1      70.586798996937489     -10.181205011512382      15.527307907920386
  2364   1      25.661155499904552       5.517531858053677      15.635967058642111
  2365   1      8.6888385238499755       35.44798800389627      7.5617984668708207
  2366   1      2.5376392646016086      38.686292080857193      41.061483287927956
  2367   1      9.6399622353598033       5.641268049963351      7.6287376201707655
  2368   1      35.189999481931352       31.98852855839214      15.817890558633211
  2369   1      7.4448784457949388      23.798784623076195      29.333367369675202
  2370   1      20.473017079515177       53.91021838138834      5.3245304495688099
  2371   1      26.525060876510317      29.905451107895242      27.807268377521904
  2372   1      5.7877790015239619       37.59733797685292      14.872619711047125
  2373   1     -9.2698671399768848     0.44545238015493577      42.851392136996886
  2374   1      6.3137388304148017      27.610457120414427      44.644500633497671
  2375   1      20.197241054426033      49.280454956344975      31.532765736789237
  2376   1      38.042620775030542      33.386542591113667     -1.7984661247110669
  2377   1      20.250447057973755      6.6820603960256486      32.172374101781827
  2378   1      23.125706024099959      31.266889728583042      11.348251966078887
  2379   1      38.018408862455644      42.149467045929619      51.344601808842754
  2380   1      2.3302821724789755      4.1407291976095202      14.172010855380002
  2381   1      8.3000417349751991      2.5273875717332368       7.437003085987782
  2382   1      35.604538621443318      44.556057273246282      41.191399042000462
  2383   1      16.731114761032405      8.0244947189219822     0.97117736150303069
  2384   1      24.535378306614067       17.13374558138419      49.597720078329424
  2385   1      28.437985715011834       45.76841152767004      31.488336723761588
  2386   1      27.180029638526612     0.10916270497520389      48.412757567350305
  2387   1      -11.61206270551474     -4.6872209643977216      13.989619055955503
  2388   1      4.2961740375778215      35.994585188006432      34.320591147299467
  2389   1      28.215441728753333      32.032721687373481      39.823529332210271
  2390   1      53.380833575112447      56.754376914414195       26.17025543398411
  2391   1      11.030912865842513      6.8945095429871497      59.117236551919476
  2392   1      6.7994791290117176      29.481173805875194      50.190956858649066
  2393   1      44.327034263584061      2.7287139653825108      23.162855573985848
  2394   1       46.95474374258918      20.265758447034379     -9.1090260773724534
  2395   1      8.8572288989982741      34.403555760235925      32.034162152697654
  2396   1      39.182439747461686     -9.4751773524136489      16.435070045341945
  2397   1     -20.754084721760801       23.22574119603421      18.257885945229518
  2398   1       23.68818773168163      24.080568878092876      47.130048267081555
  2399   1      25.374082182248014      29.444260858886899      15.015641025149652
  2400   1      42.954908356347367      33.456011023246568      57.269395742205624
  2401   1      30.030749380898929      44.252861390223842      15.241128024137483
  2402   1      24.664213257407464      16.056894642655497      6.4329124088963576
  2403   1      25.783344330848639      40.925618200852099      10.788354992869989
  2404   1      29.093898878211622      18.529849280056702       31.11114356707585
  2405   1       42.28283949079303       23.93437148140843      15.008760468458295
  2406   1      35.823367509575469      -2.645178297756833      4.7855586606767853
  2407   1      49.562241300565169      69.037190150139807      42.614481872787678
  2408   1      1.6251331770971775      23.042506285512165      44.988278543863629
  2409   1      25.219674851890339      54.451033454684747      10.868173340296915
  2410   1       29.93319473137516      45.527078282473035      39.482241495059924
  2411   1      42.527966473831754      15.334092869453336      33.138834411061566
  2412   1      40.402237522926342       26.79370393563218     -10.627690611893348
  2413   1      1.7502663102231883      40.628946333989575       37.56355903701084
  2414   1      13.131085618493662     0.14539168623336027      40.155198829600621
  2415   1      28.859614341192728      60.411665089405219      50.046552584437947
  2416   1      41.113918619386261     -10.375524879640105      21.619633397221243
  2417   1      30.527576971739812      36.779703804075787      8.2978966469888835
  2418   1      9.5988547998623268      33.618657170870819      16.600476242388229
  2419   1      44.496634875109635     -16.657304032933379      45.561495850844267
  2420   1      50.050027616206854     -1.1145658374890008      47.773394497895396
  2421   1      23.214644927559171      20.568179470394028      11.332805136111398
  2422   1       24.52511428756436      25.483400536885817      9.0825752365143497
  2423   1      32.542144517467278     -1.2078989227254071       39.61704209118885
  2424   1    -0.96911699232951454       14.19287428282531       14.19492022216969
  2425   1      39.672367390718549     -6.2161957986934269      23.277019695292086
  2426   1      5.7099157222107388      16.152008869541955     -5.1242608157707483
  2427   1     -4.9937783254146852      21.394219418250209     -1.8885966676134853
  2428   1      29.961902695078063      32.896703875985729      7.2894713425905415
  2429   1      20.789426803244751     -7.9687078647457419      33.975349260953955
  2430   1      25.300614979278624      43.517103659804754      46.736656221033755
  2431   1      18.366827592004224      14.205125500497889      48.991431011324764
  2432   1      43.147612643861201      25.286007616095961     -2.6561468437713138
  2433   1      36.180399487620875       42.03728900046363      5.9882072438392964
  2434   1     -2.0096386396490504      24.030363397046468      19.178331565587499
  2435   1      26.434476550346062      23.339604076916533      34.332903980096773
  2436   1     -28.105538360199677     -7.1961316389358725      24.100006066171453
  2437   1      7.4181012639590618      32.389996098702312      13.624508444508136
  2438   1      53.679605391883598      17.174444316751508      18.308745850047909
  2439   1      13.522489536975471      32.883054708246753      14.837027446242928
  2440   1      27.107047243513257      26.553569199927676      42.194490837570562
  2441   1     -3.4625014061248494      25.705924131602213      32.626080949598162
  2442   1      53.557946154859316     -7.8342031051044678      22.688457504374778
  2443   1      31.255944195541193      56.246928456402848      44.601231891283561
  2444   1       41.84995697495269      -12.23193560231865      50.626117127814943
  2445   1      44.035291365013016     -4.2520044639793007      49.324219695488736
  2446   1      25.951317710809569     0.93214973004407553       30.22523892043186
  2447   1       46.29258441648814      25.041591671955658      45.831764694005813
  2448   1      36.479421170513668      2.4187978376760397      11.339445424756279
  2449   1      45.778226808057937      13.844340497338287      25.537417494650509
  2450   1      38.305503914630613      45.981061438041273      65.353637598571254
  2451   1      31.196287761727046      38.184846132921734      31.484994350486708
  2452   1      28.800505031794088      20.946943505314128      15.895399559763396
  2453   1      17.553360414077261      53.947547331901802      3.3473144388841654
  2454   1      29.818466641683763      29.715535992482753      5.8461246469981178
  2455   1      16.755297613638231      22.799353695364054      30.917807915857793
  2456   1      20.664264359962697      4.7784727136255469      26.617524897441545
  2457   1      37.940275718535808      18.154129571125896      20.837541496104077
  2458   1      4.5912421318805698     -5.0605848566714782      19.297178775002305
  2459   1      36.281627273941687      12.341998932823602      35.043521741376395
  2460   1      29.878269022189571     -6.7099449503364346       42.75499800900333
  2461   1      32.096436848885332      34.387330709221629       39.10935106332964
  2462   1      40.775417670328444      36.734266298410077      8.1439851159876628
  2463   1      31.260896408362058       38.63824558649241      20.047298087270459
  2464   1      4.2776773798444765      10.044204713059802      57.015610237931639
  2465   1      53.830978407167116      2.7057777268922472      23.201627990648934
  2466   1      22.178454226517598      29.506849548959501      1.0716500882390145
  2467   1     -6.5642979546843847      28.607023539546912      11.689119325752955
  2468   1      12.143737170339037      57.078824632399694      30.384707683888667
  2469   1      17.015539669266118       45.42693280645517      -13.56135687633811
  2470   1      34.638491704325304      4.0709299063893551      36.913076374320802
  2471   1      23.547659349735202      9.7601217907418096     -18.449744794044257
  2472   1      16.844673483984021        35.9304281062523      34.824074654606129
  2473   1      20.114824996065224      24.184219270721105      25.949351214330449
  2474   1      12.955865322686117      39.808450079913854     -14.699800432993612
  2475   1      5.3875071675299813      12.179432447453884      17.272317413332974
  2476   1     -7.7793898794706973      47.126261824742471      18.463693399618183
  2477   1      38.704121556415537       42.61493455359777      36.567142687737899
  2478   1      27.233121963221791      15.241736995489227      37.078109479705162
  2479   1      21.884122891537398      17.788711026615989      60.819544285342346
  2480   1      16.537873831626577      37.128998771707245     -9.3294498389015406
  2481   1     -5.8440317430400937      32.803944876364419      29.219365288115686
  2482   1      12.539874565537398     -11.983500245709038      36.991131573888957
  2483   1      39.870133355437673      39.392859545086374      51.055017062171324
  2484   1      44.273018421828155      12.464160644894484      33.778181738838214
  2485   1      20.736737844234767      3.3878099274562974      33.151139211746049
  2486   1     -8.4588143941692273      14.386443624349166      37.908713727297396
  2487   1      8.2866909813308602     -14.221502650057822      43.976753835665846
  2488   1   -0.016440211009486207      9.8499429401412915      60.138835668614384
  2489   1      23.832471521975947      6.3292747269911986      3.7925349321456681
  2490   1      38.868586068125445      38.160262835120868      31.001003668118603
  2491   1      32.577201537235915      15.953215278518483     -5.4526879888044748
  2492   1      51.957866270484516      53.934041019622853      36.797957553026521
  2493   1      49.148324054247752      31.836044619183472        3.72259964110332
  2494   1     -8.5076482735357732      12.106589734241258      40.435681092485858
  2495   1     -17.356122242178252      5.3955689849346884      19.651686122077258
  2496   1      3.7024706180747664      13.220597140430124      24.262610538703591
  2497   1     -3.6023570482801714      37.141673498939454      26.524313057854229
  2498   1      35.499998106858925      13.679794359001754      23.017873513753191
  2499   1      52.431150816739247      33.012543081978677      18.355617401113594
  2500   1      44.250797070338209      39.629952356997002      30.270848415166824
  2501   1      23.983731080607043      22.311293918622866      40.659875213522632
  2502   1      13.694074992112236     -5.7752927849008202      8.3417337066122546
  2503   1      44.992043151155379      34.404758169634206      24.843476232088129
  2504   1    -0.33942720722008068      40.837922372001863      35.097479127195967
  2505   1     0.35378692354708186     -7.0411631325194755      14.439819381424597
  2506   1      7.3574128402149164      40.551207006403985      26.745657123880395
  2507   1      64.633914328919616      3.7428286971872029       19.73812925487934
  2508   1      28.030536169038381      26.200518607095589      6.8456743193858509
  2509   1      32.487406807382833      41.626824626476214      21.700761272767775
  2510   1      16.612229108197667       29.71455400697528    -0.44675920467354058
  2511   1      51.659440220100663      52.376360693428296      48.320735240699193
  2512   1        15.4489943687972      8.9637032105830023       31.74618008101881
  2513   1      13.907140230554898      32.022741824490296     -7.6233134085175314
  2514   1      33.396478967224787      28.945390107175736      7.3065377146383472
  2515   1      4.8669209794576522      13.203149247791698      10.935984543281606
  2516   1      9.4923457500853381      28.210694072890504      41.088838825388656
  2517   1      43.860150530185706      23.671651669512169      21.860449010546677
  2518   1       20.91391322713601      22.039526943871454      30.055683428126411
  2519   1      24.294807887178141      34.147447131166089      46.703607077134734
  2520   1         25.480001347959      3.3505027692357405      52.216798845143742
  2521   1      54.964095879443299      5.0239787042002515     -5.3234171773984285
  2522   1      22.792849237490664      11.672051478292817      17.174405549092938
  2523   1      45.084034841178919      16.130456207419176     -1.2257150316683731
  2524   1     -11.363859392144571      47.556933887060985       39.91255034632858
  2525   1       29.14548498432039     -3.8834042086398397      1.4082652921299574
  2526   1      17.734985345472218     0.73507873656767375      47.426338949612514
  2527   1      53.940145325402618      30.523085921746048      19.452513802527971
  2528   1       23.44354453459059      45.690519970263189      20.515517670116644
  2529   1      28.323830826727761      57.073935609241033      12.169982516264232
  2530   1      28.946293729263378      31.059930119449561      15.074707681779781
  2531   1      52.633442067237887     -1.6270635962529907      1.1759844181669186
  2532   1      21.614698602763738      7.9601927401214443      19.053833203987271
  2533   1      35.099281391203739     -20.982993942969916      28.432163271407063
  2534   1      4.8823888385922709      22.186481150882514      5.1386638906052022
  2535   1      7.7512038062969646      11.205808924926078       52.63268238222431
  2536   1     -3.6860368886719366      13.615669390340139      16.380792695753723
  2537   1      49.749601097298147      29.799134349647005      12.169939435387809
  2538   1      9.7231563455767631     0.16468381281586386      38.674253030254576
  2539   1       48.82793607254257      9.4036963572210794      -6.400552041190811
  2540   1      43.459115570139261      29.327041524058902      32.256477643167472
  2541   1      38.478892681252141      30.022709557601598     -2.0056487544439703
  2542   1      15.465359972589091     -2.0100914762945372      23.197958890608493
  2543   1      24.407809941071136      11.686103841904332     -2.4974647112785284
  2544   1      15.416245148796552      19.368108876601834      24.835990249623709
  2545   1     -3.9022224162075529      36.726913604490193      12.953490495428969
  2546   1      20.395246633746002      19.927216980873592      9.4368993174841265
  2547   1       75.87976256212761      20.378393832231051       22.70157470988854
  2548   1      8.1514396293152007       11.36524762805446      8.5688534269004961
  2549   1      30.530761187652484       54.55914960865865      37.965630950771768
  2550   1      1.6852317950823379      8.5956666683061247       39.62363720930697
  2551   1      21.372720984736972      37.489749368909251      43.995004080458479
  2552   1      22.906640130691329      9.4662188792837672      9.7850435613593874
  2553   1       43.96745805438087       12.11341965770926      48.312289367778099
  2554   1      55.676556349451417      45.137596130403409      40.113652463782117
  2555   1      33.870351695695661      11.672711626715593      6.5676862449048921
  2556   1     -5.6960895505916609      30.498415426902959      51.262413319107502
  2557   1      11.835321303222607      22.603172617409722      26.407679428988107
  2558   1      50.446662583746303      60.737661799371637      28.590457058691076
  2559   1      2.9282161778747597      22.152451731222193      25.588288355734591
  2560   1      9.1283531826965181      18.796971054723198      34.547800840484129
  2561   1      35.203530589805176      30.077932484335669      37.617440035839032
  2562   1      10.407528158657096      5.2806608390863143      25.869712083033924
  2563   1      43.028772164159946       31.62801330787676      42.112923440019145
  2564   1      43.642532519874003      12.776610385773159      42.628713786244262
  2565   1      54.421613119556064      48.957997157459118      33.317452090443986
  2566   1      42.118948212828464      16.610883833200049     -7.5211828457022101
  2567   1       16.84584323642191      17.023729397467214      10.729499193254421
  2568   1      17.594720140202114       57.27258135026154      54.538517366869698
  2569   1      8.2527363242395708      34.662812939611065       23.07709033979334
  2570   1      38.786574534048682      48.926993848827294      5.4708633855331286
  2571   1      22.964128225666286      52.484682100874608      24.295167232021978
  2572   1      6.4778156666541085    -0.64148687343836341      47.512857020795828
  2573   1      24.282080540139908      25.162518547981268      12.822901398501623
  2574   1      12.723462030840421      35.305049441889004      17.991070521162598
  2575   1      13.699180999724305      34.507098759558552      44.396698343958171
  2576   1      7.3206620425169922      4.8730211403240435      4.8866725668062747
  2577   1      33.324647616728832      47.367782526363328      34.816410341250752
  2578   1     -6.8423817089682428      38.299850560660857       37.85232646072307
  2579   1       41.52889909791508     -7.0998632987726058      20.419778169308344
  2580   1       18.67497861552491      43.616852437467841    -0.51159329354398786
  2581   1      62.425665343722031      39.357544446064153     -24.401910245047883
  2582   1      16.939330455698002      28.987814070211638      28.250756405886793
  2583   1      12.757587900937684      6.0041322855049817      15.338160882180928
  2584   1      6.4233813885149482      44.991732410645618       8.682443684114018
  2585   1       16.51197581171839     -25.602013028674349     -4.4443815251999492
  2586   1      3.9375031784811525     -5.5007441888211384      9.9813704550996434
  2587   1      36.455659258772528       43.23022449074962      26.836687673558608
  2588   1      36.492055494745927     -9.4992654779075227      18.484231262074388
  2589   1      17.061884692260733      43.894451821670991       21.55697025807876
  2590   1       8.539018993791295      29.728763353302377       4.570108156936266
  2591   1      41.147222066534752      30.965121568827431      22.986063278815475
  2592   1     -6.8316076707400173      51.294707338482056       43.17649849299967
  2593   1      26.284541419854474      15.614637066331976     -2.6775821539479963
  2594   1      8.2682131078543737      1.3221017912355888       10.78929789714387
  2595   1      10.189488004764632     -10.547013769956981      39.512923065790382
  2596   1      10.789284428260688     -9.2886593494515459      17.830162617133773
  2597   1      52.738991133767541     -4.7344125452664203    -0.23869044391636307
  2598   1      21.113865778582237      16.827981649348224      28.770481763210189
  2599   1      6.9099374523085206      51.498253765160513  -0.0085649146482942012
  2600   1      28.190193982382826      54.171020907426538      18.191641323362802
  2601   1      32.749073054673573      19.252221490204676      12.305900233425584
  2602   1      21.567918505096884      29.926853588461814      39.921631745442532
  2603   1      10.343548051613221      42.777489573046111      7.9223393947717833
  2604   1     -10.925557409570228      17.973845333316628     -5.7454532108913972
  2605   1       27.42225723618234      55.677058322391673      37.772637356099715
  2606   1      -4.508389179059475     -15.274575315853635      12.559192275775541
  2607   1    -0.57145628374091151      46.357137490191704       7.629891969620644
  2608   1      39.966280077927621     -10.327148514702671       10.83840551360101
  2609   1     -6.2124615187787056      9.1717648476586664      37.132116599277914
  2610   1      32.668985162298689      31.523492662599335      41.919460688490453
  2611   1      1.8036341297579959      31.133391395483272     -6.9776300312863109
  2612   1      44.365254980901753      15.694344220289864      44.412252028670672
  2613   1       19.97097496832242      46.793014923626245      11.334602945839015
  2614   1      4.2721019614630942      32.135791534997956      14.601027261264663
  2615   1      5.5352035708547493      10.424801690677771     -2.2530090705581904
  2616   1      3.6267041673212765   -0.066072296022733984      23.647928598068759
  2617   1       46.34409422887326      21.695026375213573      12.042242442219266
  2618   1      42.136805438287062     0.81423278972078905      8.6871325989847321
  2619   1      21.448005834308468      43.198307387995726      56.283681901335356
  2620   1      10.378381639626413       10.27293503991455      50.399207825914985
  2621   1      25.348545106602028      29.614179697534453      19.747929738443471
  2622   1      27.010776393393755      2.6407785786055218       24.14349388727415
  2623   1      26.869225556700922      38.396115928295636      81.559993730072733
  2624   1      41.401510888946561      13.945570956619578      26.906250404273518
  2625   1     -4.0177435088740774      48.677859646495847      50.579197713495397
  2626   1       31.20212773636181      46.614768945772184      29.825387178432024
  2627   1      33.752250395006072      33.788138695519713    -0.99020449118530629
  2628   1      39.433628701343338      21.918901837580048      11.435603119788638
  2629   1      16.162434141859869      4.2688321712426918      46.956671739300795
  2630   1      83.604836113908732        6.01498404884045      26.378310983798844
  2631   1      6.6170149144826462      51.441020977427755      38.858359833766499
  2632   1      24.523566181054392      27.291897518959207      43.924426825208457
  2633   1      9.1995537262589657      24.276605402089526      15.411832003783154
  2634   1      10.143201704147891     -0.6913294379126701     -6.7076806268995846
  2635   1       32.23700770765447      28.953242196621748      19.676860205360864
  2636   1        65.3797854886583      24.449236456320676      12.756173967020501
  2637   1      40.943320924075792      33.919910552996171      45.601323080406544
  2638   1      27.872295421346358      28.499685217932676      47.807407767002765
  2639   1      1.6838645052077126      9.9905749192442475      22.689464094174483
  2640   1      21.756374753525815      35.790140306742742       40.97396413164806
  2641   1       19.64711947421101      18.744214410298927      21.192093752391131
  2642   1      20.355747128365202      46.820386045939237      33.627034386431653
  2643   1      41.883494788367351      37.385519628779591      18.134909282423678
  2644   1      30.748349717755545      34.965204401268892       47.07902573671462
  2645   1      21.495369025495158      49.114972648614483      25.806589933153685
  2646   1      24.414120384462404       48.66078193695855      6.5078296165664096
  2647   1      49.105047667430938      41.264682615951159      31.967556452415565
  2648   1     0.97383518358542132     -27.252728366940786      33.174182727274896
  2649   1      16.898538047999079      63.282664862428703      40.887883123133768
  2650   1      78.416517082156275      50.362129407337001     -2.4458915678792508
  2651   1       83.89721996570151      23.024397357625659      17.913308346460255
  2652   1      32.818646181291903      7.9567524212264651      62.486002844661222
  2653   1      27.866218954522644      11.224177116107933      58.842570415146575
  2654   1      37.531681388701763    -0.89395663890353261     -2.4382840292246981
  2655   1      30.384539098819477      42.290761819943192      51.869875213455181
  2656   1      3.8394591112723244      10.049815607308078      15.543284543418903
  2657   1       17.24039884481126      27.659281629052799     -10.897065489885943
  2658   1      4.5818904204195068      44.960797491760154      35.914492785358753
  2659   1      35.557051859409768      34.063749263952538      44.214597347489239
  2660   1       24.44005658008281      28.048467909751022      11.272872458802379
  2661   1      38.218778062402215      37.231742255097103      46.408251812490484
  2662   1      37.013646091815787      24.965403916496982      26.173826981319507
  2663   1      13.917738647209298      4.7645723826872297      32.306590296767773
  2664   1      13.341525848691266      6.1761252800623705     -21.308056408232364
  2665   1      4.4497931292762765      12.256543144796355      5.8315107020667547
  2666   1      26.598293487224812      45.824415719363763       35.22407195315013
  2667   1      41.906685703721841      12.668967329743761      52.689298705288245
  2668   1      22.281347341021831      25.520818539821839      41.584742854504064
  2669   1      46.193018370000928      18.300184520843001      15.037098602309849
  2670   1     -7.3567277007415885      19.612755613005358      19.250667829387822
  2671   1      10.171975462739558      32.264792978761633      54.346710283817139
  2672   1      17.383687785226854      49.022228197935782      21.381687282103595
  2673   1      56.378014365454227      25.374755400059065       38.47632731953459
  2674   1      59.159064667146978      20.125803598473858      47.092779863410023
  2675   1      6.3156396109945794      29.420015085818839      41.775534476377821
  2676   1      26.043966513467481      19.112108406293626      32.492403469789508
  2677   1      33.520628662869932      23.940558642661738     -12.073288512830647
  2678   1      19.875354745548826      17.388196529747852      17.746393897851309
  2679   1      43.021102311919243      3.9559257525260891      17.882218723795432
  2680   1      36.766439197824198      46.632228518162364     0.97427430608469889
  2681   1      1.8629281902773043      1.1403297487793009      17.392611236165848
  2682   1      45.877356630494511       31.88726247288815      56.970534044758317
  2683   1      49.767319570654863       1.672524966492126      44.897332012045787
  2684   1       23.70151992522181      19.731987607918093      8.3238661015331683
  2685   1      37.749241002462604      21.039778247279084      17.601265461635236
  2686   1      26.886761754977918      19.363526980162405      49.748080593452322
  2687   1     -7.1859036824389095      29.186027292078474     -8.7564168476623099
  2688   1      32.409473203813491      9.3766074965936816      24.856416939364269
  2689   1      26.859955391482341      6.5921408505589953      28.688574489444456
  2690   1     -12.605413472639526      56.584422039107849      7.4177687111092601
  2691   1      44.839008711967011      28.033828436207447      66.566409779093789
  2692   1     -8.4246234344762367      41.986915503202113      13.151650129786681
  2693   1      19.917438807840046      24.693625120834792      5.0594842118062946
  2694   1     -2.7494714573599328      30.219256320030539      42.401573275700592
  2695   1      14.293707816089029      14.724026171626495      17.107385178436065
  2696   1      30.031861678175904      22.199892511230214      30.358691045754099
  2697   1        6.79241082265081     -0.6328863187560313     -4.6256193688679188
  2698   1       17.95244243840094      50.016658186048012      27.963987108548039
  2699   1       3.169873855919759      31.624729536822265      9.2316479172131274
  2700   1      29.022483306890663      39.543891054628084      77.949773178930016
  2701   1     -1.4889528875975255       9.209957678869829     -2.3759474095832775
  2702   1      42.830406865307069     -5.1609379802574624     -20.041878427197126
  2703   1      27.053920878323137      15.626082473168537      15.838247421638926
  2704   1      34.278927330882638      36.626649552157907      25.398946554664541
  2705   1      41.526124007658296      1.2916864446514824      52.992170243339579
  2706   1      17.163833424975358      50.527409826995857      52.732906477193453
  2707   1      36.110243864920093      15.236597484759944      31.620346397642258
  2708   1       21.77188660916449      21.137163612770557      19.094588431099698
  2709   1      24.500935111046957      29.552235939222342      7.9565162127043827
  2710   1      13.443636887252183      9.3547186877698643      38.583428286428095
  2711   1     -5.0692214384678413      55.310291745239532     -6.1344979174218199
  2712   1     -7.7912103475080592      48.127078630836223      37.882728012896763
  2713   1      8.9486312801469019      26.108506441082078     -28.324110906384387
  2714   1      23.783803568902343      -15.99181930472796      43.285404094082374
  2715   1      16.217344681516725     -1.1242799344562857      12.030219386702512
  2716   1      30.929464442957393      45.823410200311628       12.27278129395896
  2717   1      44.309765003411215       18.31499142226485      11.359545386168071
  2718   1      37.356432025428354      7.6168182223040786      41.332639489007263
  2719   1        11.5117117612033     -13.043270220286654      6.5429778028185241
  2720   1      28.290760148714906      34.474077009310214       23.07843546596845
  2721   1      36.322225196734635      21.395217995204373      31.495403871284349
  2722   1      61.921692099868977       13.68655163247008      32.480743599512017
  2723   1      25.261840761850305      8.8281625437764006      49.234765360620905
  2724   1      2.3510005413861412      55.285975591113399      2.7782641520918885
  2725   1      40.012519625576296      39.501379893484291     -14.338564419503316
  2726   1      1.7076603509045496      26.396538836509393      17.622959178227287
  2727   1      18.186081689286596      17.270742431728241      26.795454939151504
  2728   1      32.295105432463586      19.537442375134177      49.725270749946347
  2729   1      15.841182450937374      55.366119759147104      44.587708317503989
  2730   1      29.071956340746294      14.387288373655874       44.83682827374713
  2731   1      42.469165285143895      19.372272190249575      32.227491648036271
  2732   1      11.201548450873846      6.8525768772779472      22.937500726070027
  2733   1      13.911373126756853     -13.360861492302067      41.076748977638808
  2734   1      20.261690936330616      31.945500737276262      33.295146278690297
  2735   1     -4.2877467434367427      58.170425886005837     -4.6069746983680933
  2736   1      51.714801361630187      43.001874350976955      31.382182498176675
  2737   1      46.728829589755442      10.917604064927216      17.568833056866357
  2738   1      28.015023058713314      50.390929563311246      7.6911891527804066
  2739   1      24.018538021547887      45.285092983659816      4.2394673264466203
  2740   1      18.390516249356835      35.756132933630241     -6.0789324651799141
  2741   1      28.282999910380653      32.704893879629239      2.9919484693098655
  2742   1      38.247828878043777      47.077635426693007      30.990693059099407
  2743   1      32.947316994758488      35.252902548995671      42.726773251327963
  2744   1      2.2108878785041344      23.049678463684778      15.502680763846177
  2745   1      17.727332889000586     -11.223136311167801       5.855355424315964
  2746   1     -14.275873999856753      44.318360338765991      37.956213346462782
  2747   1      11.271553376345111      45.087144486948489      58.764610923819149
  2748   1      23.371980121483169      39.453702462002362      40.323942829038977
  2749   1      11.242604204077614      22.042252064224712      3.0887014833235211
  2750   1     -11.545718917890852      18.779723188809601      51.525136471050345
  2751   1      4.8638022225274433      36.215912264671182     -7.7598280988349106
  2752   1      19.147736711572882      2.8128058191537924      45.259890781398035
  2753   1     -7.4464193500049136      10.874836955558749      10.625242586619585
  2754   1      43.311236640793702     -5.9640570700898525      11.722334331938214
  2755   1      54.175007936926548      9.6151126475950601      23.393946523407728
  2756   1      2.6443898206624374      46.280473698819058      56.519328857201074
  2757   1      14.058178276093345      32.227963703177778      54.598274623212269
  2758   1      2.0696847312717841      27.705002459289673      24.390742489979687
  2759   1      18.077903422740512      16.117034544385564       19.95130458988266
  2760   1       34.64639754470366       43.96018165897604      10.728841472154167
  2761   1      3.3178379110780067       16.53270491262915      13.830413651646333
  2762   1      24.903450829426983      11.687903503752645      37.931146742064598
  2763   1      23.177062484384752      35.981669405127143      37.799264794509796
  2764   1       12.38441017300217      29.150941516616822      42.402194384207021
  2765   1      15.974830738206496      60.546303365765034      39.754895184329861
  2766   1      16.296712139253273       13.55195368202174      45.256140190520625
  2767   1      43.177076741898233      38.425970417167505       52.57502583043798
  2768   1     -4.0013795662893186      27.932815576908361      52.873689779292988
  2769   1      20.547399822491791      11.638989668458885      10.749759330882837
  2770   1      34.116733522438651      23.721192389729136      55.182917205377805
  2771   1     -3.6446657369425139      17.212117989018211      35.003045879444116
  2772   1       53.47725839284908      27.842165428726304      38.982180480924193
  2773   1      32.603203529723146      24.987246914356355      20.867857348076097
  2774   1      55.920615730389628      65.174670015916476      39.828989945820155
  2775   1      38.355526678297061      28.336721495117892      24.323571948520303
  2776   1      23.594892379875652      1.5984210348200021     -9.6505683912596698
  2777   1      36.212587341761846      15.563075660033348      3.0870284062952802
  2778   1      52.298397501924001      37.019702959278966      50.350663925431412
  2779   1       34.88425617378563     0.44914101623489455      1.5227041109017219
  2780   1       21.48820952475895      12.145142812268839     -18.191551721263632
  2781   1      42.623721565210609     -8.2636983973666958      23.382890884889559
  2782   1      45.090426940133796       25.31422881672016      15.843086515226625
  2783   1     -5.8179186972278174       34.78398957066436      37.895847485742571
  2784   1      29.085055097881483      20.751971562227137      10.586453011773216
  2785   1      38.796652873157413      35.446274840339591     -11.638667409158428
  2786   1       6.170098165272992      32.944853448242689      50.314929909669253
  2787   1      31.016973076768402      18.424350467803066      6.9512209642342349
  2788   1     -12.478309318846549      55.532545985063848      10.591057030600847
  2789   1      8.6625235546103756      37.003218792660796      16.292963234501538
  2790   1      2.9861288954159404     -9.7825784166648493      47.898146139326961
  2791   1      37.727792235896707      53.621270763248539     -18.031224301202251
  2792   1      33.648090915518559      3.5359019573272796      13.837096706541802
  2793   1      31.588600437913502      24.197715290094678      28.319411717073042
  2794   1      30.590509847551886      22.167772257741671      70.605186414962759
  2795   1     -8.5629533238427005      8.4187551981989586      12.582790014885251
  2796   1      4.1236729476282115       61.85691957025513      14.419518558555898
  2797   1      50.280700536280555      -3.368523359953933      29.565927420826402
  2798   1     -5.1823050496481891      15.333287667714519      12.919935144957037
  2799   1      31.079102970861594      49.487119631965683      41.891447037605637
  2800   1      14.827054261609272      26.681961816570258      30.331810256803287
  2801   1      23.496488359425953      41.777642139423008      30.651129194406462
  2802   1       36.69832635046609      52.473855361337058      6.9958683846871512
  2803   1      10.902159424018381      18.763436319938506      3.4779379299098534
  2804   1     0.42012821896871533      35.252453518606522       40.34288656391373
  2805   1       45.91625133124208      68.776895251998553      25.245269545574914
  2806   1     -5.5344011909191222      30.118183985175179      14.439920728469444
  2807   1      36.523663759254852      39.343926978144907      3.6381131178146853
  2808   1      21.713562360784486      28.323938766906728      3.9776842105858128
  2809   1      27.575264856664703      52.356403764975035      62.538451859937311
  2810   1      36.015523755786099       23.94896775578724      21.072824401760322
  2811   1      15.445773831921196      60.066444563120484       49.22801279233633
  2812   1      32.136373551454099     -23.093216364146727      13.419490124604971
  2813   1      18.694596119773934      10.917689160386104       24.57030004546964
  2814   1      36.998623677330727      30.738559976658898      8.2157051598748208
  2815   1      23.209110610982293      41.849669943821617      17.270570289380416
  2816   1      30.282906429199137       38.72326842357311      16.052549775731201
  2817   1      29.952864501576148      54.668928161465161      41.851271931111988
  2818   1      31.869262659099803      40.226465999864566      44.745640933954967
  2819   1      15.670472179869305      43.139970410054779      49.424352183350209
  2820   1      41.764279641799739     -5.2384308661520347      16.095237483503205
  2821   1      13.103856296248717      27.519770405096462      17.996960679170982
  2822   1     -1.0760147514873766     -1.0039261119440765      34.319548235995498
  2823   1      10.926322164564898      31.975415482620821      13.187702845204768
  2824   1      24.504624911971643      22.800653406266111      37.044281451721908
  2825   1      13.312515053174089      11.446477297338282      12.646831920982347
  2826   1      4.0617642769033973      2.1305713510486872      12.110517760481647
  2827   1      7.1619824840144588      32.350824531148021      24.884687471192144
  2828   1     -12.662277293896754      17.570074277641481      66.439534246413984
  2829   1      20.312846636380275      12.176630001951294      3.4010812451066501
  2830   1     0.67521797173599274      27.032150639366943      37.132600848057585
  2831   1      15.447194226522697      13.629445347232766      30.077362380766978
  2832   1       23.89002045408958      19.482475120303839     -13.338169494163898
  2833   1      5.7983401329018198      25.267215944180798      64.184186448862775
  2834   1      30.943961170956879      32.010837911692285      48.591506122606397
  2835   1      22.109600456178949      10.398050968944213     -7.0463322399413997
  2836   1      31.793662907195944      16.214623531836505      24.747668291584077
  2837   1      26.286077495841919        18.8143932332841      5.6687906269258992
  2838   1      55.119213513197145       5.376016149915344      25.187241100486958
  2839   1      5.1104712870572051      19.214954474071352      2.0250115594709599
  2840   1      23.449816644461329      15.161556024867805      43.100844898467635
  2841   1       12.20766229599443      27.870923053261578      23.823326838725471
  2842   1      56.969029592972703      35.937847211082847       1.767372136708913
  2843   1      12.501267427583555      32.174664441351737      2.0091135214222731
  2844   1      21.378819587159846      4.9009814072899962      21.552290027159199
  2845   1      45.683867008771152      35.148186797111755      51.086743975482598
  2846   1      43.828390386804998      48.014178204614169       43.03534685764933
  2847   1      11.713897056894579      25.206157847168079      39.524244700633865
  2848   1      3.5951438797316251      19.789685052421312      46.348337139983116
  2849   1      25.609124066254363      12.074303177657701     -5.4034481031894819
  2850   1        7.78667366165626      8.2958844174347082      25.016494072804285
  2851   1      47.863546660534539       32.23113729219552      45.177663417164752
  2852   1      28.871572336232518      21.132676632061656      7.3553214886322449
  2853   1      1.0050462793314192     0.71955229837697765      5.8079790024604891
  2854   1       22.21938235496323      31.364472423492757      26.676409235356218
  2855   1      44.517454662597999      48.899689772418355      31.461586348704365
  2856   1      7.2716668057603355     -5.1973885903100934      12.240399104859462
  2857   1      60.874360752784519     -7.2902464613656992      2.4621156779556324
  2858   1      29.164109787973036       36.42016883986421      28.443039160863034
  2859   1      81.864899850627054     -4.0472694304340653      31.715220910279722
  2860   1      32.930833756719949      14.328952699835131       32.33053500138616
  2861   1      26.560028760591258      32.891527366774135      20.329710841346738
  2862   1      8.7603319620262621      19.653883957078271        6.21964889977402
  2863   1       33.01515298975248      31.068533339821194      45.375873424805341
  2864   1      34.358688989601141      2.2849764356802682      22.350735358885569
  2865   1     -9.1053834299921981      21.834401891581248      37.604078924461582
  2866   1      32.967202314891651      52.609310730812673      2.7835622704345404
  2867   1      13.752465931328294      48.781871458074761      9.8933925916459877
  2868   1      45.167578417891434      23.133464068242926      27.762444836540158
  2869   1      36.147502136591534      25.507376122735462       43.70680870783746
  2870   1     -2.0103195094538497      42.556795434623858      12.236718162074302
  2871   1      54.978146870179785      36.371803420653521      4.4039701282465407
  2872   1      59.230525299334388       16.76042192874089     -6.7575095842479129
  2873   1      22.252018551032588     -12.475834002687334      49.416992666609104
  2874   1      6.6940257658496103       2.630379778814425     -3.4777556141132857
  2875   1      36.390206705125799     -1.5594430621179685       12.12284912407355
  2876   1      13.512781167780103      49.270803111690775      24.219099663653825
  2877   1      11.786164122829499      9.8505548904234672      26.038912403703868
  2878   1      38.343508945670813      33.068780043659778      22.142330658089502
  2879   1      37.743794296080218      8.1585659731089635      16.203767263423003
  2880   1      18.593839452888453     -21.876044561037574      3.0200115767943649
  2881   1      32.246586295184343     -1.2415276553898822      15.472695671069777
  2882   1    -0.52136405367709282      5.2408346883339423      5.7757475743367905
  2883   1     -12.355782071679386      28.906361667141283       44.65635414650589
  2884   1      37.910024561162956     0.22150846080056086       9.248822086656924
  2885   1      29.819915018632734      35.200384310999738      53.225913100423732
  2886   1      14.263189738514173      61.795113409429334      37.076125798681858
  2887   1      34.101545908569712      19.906458393156655      27.555755818542448
  2888   1      24.351091555020737      8.1491259821328246      26.964171614147425
  2889   1      49.454365264391406      37.105836552888576      9.5753764255157687
  2890   1     0.44322725895393134      18.344538000895692      3.1009592532994605
  2891   1      15.324930643733746      25.302816839487853      51.692968394130958
  2892   1      32.271398359419791       28.33315026024513      43.534113308056952
  2893   1      34.051092068391966     -9.1289002847774832      32.158481855261449
  2894   1      40.902282574159791     -23.064218790254195     -23.905917888186746
  2895   1      19.341746413195096      20.896822696339743      36.875360275231543
  2896   1      26.590555332361848      27.037624805974204      23.933081087203789
  2897   1      17.044440147695038     0.96008550197374254      24.407361776496973
  2898   1      25.257777795430389     -11.762768034873794      42.889899003666883
  2899   1      12.867924139092558      15.257897717839583       55.18832696122022
  2900   1     -11.471715179867356      20.279737939651202      35.875647017653698
  2901   1      12.711591882465424       3.803082696030438      70.159815305136846
  2902   1      3.7145069946968436      63.768836108150929       39.11858946108277
  2903   1       2.431094135456394     -1.6322538825636252       35.25062735897793
  2904   1      19.253097733735924      30.025154233398208      36.879514820352689
  2905   1     0.43823167924760242       39.96387221568326      1.2988449124408075
  2906   1      43.884802323783354      11.127151161969428      55.033236408431932
  2907   1      39.060515961977188      24.680756136344034      14.974376488343701
  2908   1      21.244188046215729      61.419300493411981      55.241970438235136
  2909   1      39.984071748197195     -5.0537180018830892     -21.723495084211741
  2910   1      36.192098996247928       5.774083758802349      14.101677786182989
  2911   1      35.141438875381716      1.5772338554455847      5.3269610850065678
  2912   1      13.256356046279894      57.354215198968802      49.362384678372734
  2913   1       7.008840532493231      36.386064795700044      19.141817414660174
  2914   1      24.665089500757055      40.153948803896796      45.323766084057063
  2915   1      10.330545204742009     -7.4925110242416819      32.841482227537725
  2916   1      42.561558380459651      18.256665554798047      -2.633536633541639
  2917   1      25.193046503984235      56.190151259199673      34.709478747527214
  2918   1      39.984278846441264      18.277940435421932      16.348786501118514
  2919   1      33.705242688359263      49.247619785585101      27.980827094295318
  2920   1      36.860999511913647      66.368516134759005      28.779504274910131
  2921   1      7.4390607248672609      61.730244043422204      14.934728306420039
  2922   1      47.170525605668331      26.117143439682952      7.0367324087441387
  2923   1      39.421630315571413      44.152877330323015      30.517805144680239
  2924   1      5.7116405208142487      18.492413841215878     -14.933970391942143
  2925   1       28.88403060745032      6.4153752997101989      15.086122531376226
  2926   1      48.262443947890169      45.458960074045983       44.43637289904477
  2927   1     0.56170732636095133      11.467399148779281      64.458123009172269
  2928   1      14.113681162068739      18.469617534719703      5.6196167142274973
  2929   1     0.76739790702601374      24.649288662826809      42.007267704747065
  2930   1        46.3774320719372      20.147338870157842      34.506738581980784
  2931   1      8.5905385346747938      4.9067170440339485      17.132926472883604
  2932   1      1.2827266676411726      39.244312533523029      12.559544360084537
  2933   1      18.133675236284695      38.246102877337776       44.74542521851572
  2934   1      5.4225455822263209      35.389219347294727      37.411720067803799
  2935   1     -1.0403105959281105      38.796080023161132      37.514497029861836
  2936   1      21.082976889903978      7.1263627031597849       28.83812435605299
  2937   1       33.12619584283636       34.21668827563299      36.101588940149057
  2938   1      20.835363275845669     -2.9474618534524248       5.867111457985537
  2939   1      24.992137750053843      10.827980761747458      12.102714797712013
  2940   1      48.811999643656456      6.2664038215468016       -24.5230961165263
  2941   1      22.019873265357692      5.8873465549012653      9.2769016551436518
  2942   1     -28.732028708528855      15.590870072037889      39.765069549734235
  2943   1      55.386857235315105      13.923651678816064      32.534035679582452
  2944   1      32.595690896368751      36.219115756537661      1.3155629210414594
  2945   1     -14.346233738945692      14.628363272555605      16.605150139930775
  2946   1      4.1671674981320637      46.234365433113084      61.554596410429085
  2947   1      6.3911127459794432      45.891727629897844      21.345698157869045
  2948   1      12.085946333295315      22.343203063447536      33.109843166901818
  2949   1      53.500124363944117      40.631366203807033      29.762072547067916
  2950   1     -19.936499135586196      6.8796131941180443      5.2582843301605129
  2951   1       12.46240871837697      28.959176885689313      52.911250977231923
  2952   1      35.390874761114837      28.137283617151589      41.735689241748688
  2953   1      3.6732608331612804      15.357404495812739      7.8557378196914849
  2954   1      7.4734635716594804      34.106775170421834      40.590001839783135
  2955   1      11.590271741929664      -3.359131388187313       24.61785546061553
  2956   1      26.854601191283962      33.903774879562469      26.755003894750814
  2957   1      16.760930526352713       15.11607120151977      55.134576750093004
  2958   1       14.43125591425923     -16.449264946397015      28.754938191588504
  2959   1      7.1602908328490322      9.8366906228803987       43.74385602610235
  2960   1      21.190144321327136      27.258710200102705       34.58220801114188
  2961   1      22.441280641255016      48.208721475495501       8.974683966128941
  2962   1      29.100273044034957      38.185384631380103      45.408893003839317
  2963   1      32.558814852211427      23.514919583878061      24.044146190210679
  2964   1      19.304828688000807      31.549890898332215     -1.3263971442597065
  2965   1      53.720554331745497      31.311494880509688      39.306070671369191
  2966   1      13.051592818894902     0.87787455595608954       29.61921864069765
  2967   1      35.873651166525214      47.801662973133396      43.424436058880374
  2968   1      34.137829147709326      27.766993909414619      1.8700091267744403
  2969   1      12.405220232737271      1.7497335745861402      52.193338101758101
  2970   1      55.637945908544957      30.193205051242675     -37.744874912181636
  2971   1     -1.2689421651910273      11.723388799649641      22.041324648963489
  2972   1      43.930991398922231      45.946896685370007     -14.542715316396688
  2973   1      41.372578644764594      26.336635682823417       17.11848765043564
  2974   1      4.0114098286536848      23.306581912373957      42.560934999010094
  2975   1     -2.1518686226057566      8.3607739815966831      39.426271448912736
  2976   1     -5.4377830832526817      21.172534268385128      3.0063524344498469
  2977   1       46.22801131143914      32.208617690442537      49.131491418228201
  2978   1      39.197741740747816     -3.0179279868450948      3.7130201083152028
  2979   1      43.635157003288874      6.6036659339569406      38.805306263490856
  2980   1      26.501556558655171      49.164144179460436      33.870707700729653
  2981   1      8.1524383446640361     -10.320300512718234      21.424395312173679
  2982   1       46.28656650527661      57.038795953009597      1.5818154322883957
  2983   1      26.239985391934088      48.483694154377304      37.115691852354253
  2984   1      74.355587260021863     -29.451144018351325      25.573467903071283
  2985   1      35.344472105331128       23.06702263116706      28.248916179272268
  2986   1      14.421559246643012      4.8797291429593024      24.149205892133601
  2987   1      9.5978029060173817      43.402309033972443      46.695642880662035
  2988   1      46.160052202233544      36.887184039355354      17.253813627654466
  2989   1      27.002543665546693      9.7725848240406119      7.3536167913423567
  2990   1      38.480929842540931      29.124107112462553      11.226851238964093
  2991   1      13.515959003235167       52.64980625960365      45.195378069854442
  2992   1      1.3724785606384329     -5.3295579309663088      6.2507432153779874
  2993   1      32.193012572872995      30.576788545571194      22.284931724755076
  2994   1      17.688829611805705        8.15134516133317      28.437969880567209
  2995   1      2.8247221480763955      12.959458363931748      2.5428862700338417
  2996   1     -2.4448560003965096      16.359396828800456      31.141551231311361
  2997   1      43.396094388811967      61.899469474106738      30.641935902478593
  2998   1      40.023684026611932      6.9642181888669947      31.831856053615283
  2999   1      42.107131032685793       42.34300986538296      44.060273479099287
  3000   1      36.690626561885622      35.995802480443707      22.960995519074871
  3001   1      47.119079070526851      43.693779927070736      46.809022360800938
  3002   1     -13.887945161030814      19.217679049677564      56.184779482663529
  3003   1      73.046410407794198      42.530744058082803      54.655448247684291
  3004   1       15.16591624485274     -28.091112368514324      42.048796389826428
  3005   1     -13.461284031646604       27.77203251068558      12.874690633999014
  3006   1      20.905455505788339      25.987864625192007      59.410557154565346
  3007   1      7.2305953026702907       20.48755635077006      20.742371264097102
  3008   1      35.834876344359962      31.702923439817265      61.289132546437067
  3009   1      11.737014828659779      2.3612803542088248        32.1423127070722
  3010   1      31.996213299181029      47.395429041222386     0.39055309248401721
  3011   1      38.329076230395486      31.297536516138177       15.00665399030215
  3012   1       24.85238643707288      42.519487716991108       50.50801943719943
  3013   1      36.666233303106246      21.433935332871101    -0.68355468645806539
  3014   1      44.794966461156577      8.6231770177567864      33.874322000997026
  3015   1     -16.148515574392285      10.881011782485642      30.775669378270226
  3016   1      35.754587613495929      30.264702803813748      23.317637148047829
  3017   1      38.880058718070416      29.785835960103903     -10.733733806842467
  3018   1      29.891409420893908      29.948221617171033      45.469990352493014
  3019   1      40.235181185363054      49.561099925251554      24.813174253550628
  3020   1      16.738011536338334      10.129036453665249      22.081748987786586
  3021   1      29.749727444150995      28.064898828760459      10.877257886034529
  3022   1      26.513773876728663      39.935907618421716      14.258961900840299
  3023   1      7.3231493530260634      47.735048288655811      37.105701767843321
  3024   1     -2.2965820423943426     -4.8877315744785248      6.1674047713682176
  3025   1      8.8311300725596809      11.604331814288225      23.534412161198851
  3026   1      20.068545577047022      29.198502597650045       21.31311150969951
  3027   1      32.916345958946209      17.293008419187228      31.226832466982664
  3028   1       30.69620574216767      11.175393181914869      28.149671928908418
  3029   1      6.5241678370697889      12.772900640297348      21.000449661620163
  3030   1      31.942540807013486      6.3993753622990548      23.493072208092315
  3031   1       37.04011817855492      10.436549447866721      31.472747541416279
  3032   1      9.4829293200829614      51.291464654434257      23.704469031520691
  3033   1      30.886434760254513      5.7882117762736822      32.617657410044046
  3034   1      19.412509423295898      37.843278293091977      25.707496601754357
  3035   1      24.041708686918778      15.159082912879629      16.933360331897237
  3036   1      60.092598399936215        31.8528182155998     -3.2540891592095265
  3037   1      53.753459588449608      67.953291075593498      39.193784966098946
  3038   1      44.930371635922903      7.4104273120697757       4.727190952519627
  3039   1     -1.8167351808342211      25.337640368384008     -9.0325934582877565
  3040   1      36.146771043159973     -4.1687313960344721      30.430583852029748
  3041   1      13.742190693281938      7.4096267677923535      5.5065003063906506
  3042   1      33.726799479791183      44.329752893089008      15.871643775549996
  3043   1      40.797934993954854      17.769445192876226      29.868473733150704
  3044   1      29.645510005370515      42.566136486713802      37.334497690489634
  3045   1      31.303453283568832      12.200178467168961      3.6068446459001966
  3046   1     -1.8285775043843562      3.2082641177362619      15.308840845622314
  3047   1      20.198718689200881      59.219078137153858      14.618301493012964
  3048   1     -10.092215525133309      40.668410781244219      20.862031034443859
  3049   1      14.520881115446315      26.927223388155532      48.394329475298754
  3050   1     -13.912292922455283      21.008776383571512      45.116354445921431
  3051   1      18.467565977038326         53.698030698676       29.07169488409621
  3052   1      46.947582755538654      55.642941980973646     -21.301285444827279
  3053   1      27.200457153514364      21.246184882024622      37.019622574153473
  3054   1      10.772784670289766      10.067708832701014      33.596477828976141
  3055   1       18.27767349204008      17.637485001723643      13.729587037726864
  3056   1      10.470562279907103      5.9867873271764394      32.195507747853291
  3057   1      49.802445821117963      -3.963352018009044      49.657137359035509
  3058   1      20.161475987218406      49.868029913979754     -12.461826001852423
  3059   1      24.109695078128787      22.326015303873064       31.30271409479489
  3060   1       19.98368112402191      53.069528565191852      42.131930150095521
  3061   1      37.260935614622802      21.540085511160044       62.74434432667811
  3062   1        10.6225609571358      12.700861375904035      36.409250161130196
  3063   1      37.896835074996098      14.877091311796848      16.480472569174982
  3064   1      48.696076403631359      1.6443353110963492      12.992101810576679
  3065   1      37.791948669412378       48.51170310568012     -12.880279087675151
  3066   1      9.1276111220971536      31.950688832189108      50.253387825050119
  3067   1      15.951816050133029      44.554982200396374       12.61403673831483
  3068   1      19.609996051229292       15.36625805869623      12.046831685377773
  3069   1     0.12354421685238101      3.9997014388390975      26.664014940853164
  3070   1      12.116038843162059      50.064218468686299      47.497913028895717
  3071   1     -10.106841061339837      33.723553180935298      5.4521123841424499
  3072   1      41.695570374273409      48.591171350044213      12.251222728819053
  3073   1     -4.5647139051158154       16.74277122788946      24.874771208383493
  3074   1      29.425384265977232      11.732924641656801       21.81570405470557
  3075   1      57.278684644187436      37.407908384709899      11.115041147442019
  3076   1      34.128866855298185      14.148999481406348      36.959743195154495
  3077   1       6.962447315071322      7.6648815909114427      56.600555345031474
  3078   1      11.318272078481975      21.416360232896711     -18.860392909566905
  3079   1     -11.300751268507566        1.19828418813043      20.772548078697795
  3080   1      63.058245525101583      26.554785264886817      11.074515258999293
  3081   1      25.336686001774321      4.3888623582417647      -9.138690355458694
  3082   1      11.760402986265515      40.146723469432494      28.577782047267046
  3083   1      6.6830901383966888      43.950166460556588      15.959057493285378
  3084   1      10.746472942546909      13.952790611651245      22.669632206065408
  3085   1      -13.21105924792818      50.940247108164094      25.517341334698678
  3086   1      17.973505354982308      43.672850555380968      8.9609316627830413
  3087   1      41.093779111935703      33.405709910164205      25.857072581224756
  3088   1      48.969090613647026      52.638248961178839      39.183648165754512
  3089   1      29.444634421365556      8.6677192042744426    -0.93463172614307954
  3090   1      30.000826647006612      34.157253996567647      34.765957609965419
  3091   1      33.932007438994312      17.131178514256085      10.030050675711124
  3092   1      31.163054845696632     -2.6129633903791505     -6.1798145315395852
  3093   1      24.135457316625089      25.964528728959131       28.91047197790531
  3094   1      38.930435510524617      40.066711195301274      38.910685182006674
  3095   1      37.225133992328502     -5.8300548160744068      33.094766960549848
  3096   1      17.635201463382522      45.391827875895657      18.539043122619269
  3097   1      35.983725662179104      34.290259474280283      18.339721160590777
  3098   1      24.684995755798063      55.675132067212779      7.7326436437935158
  3099   1      4.5151577279967823      39.869291005984927       11.14053849979784
  3100   1      28.499773419640782      34.249343906254431      15.623849308309797
  3101   1     0.38915523540752861      38.824488735222616      17.495032762345406
  3102   1      34.702396800292867      15.452888230303394      20.001483360726983
  3103   1      38.071062863888962      21.188141859917714      5.8249671623366011
  3104   1      45.434890538300152      34.835977834944096      6.6575048953466816
  3105   1      44.566929316134697      13.759061327394576      10.106032234995071
  3106   1     0.33061675035870031      10.973568420797969      49.954276042827175
  3107   1       5.518081027330564      4.1730891992410228       7.679771705776683
  3108   1     -5.6765578761491522     -7.7155352205946564      63.334027888146636
  3109   1      47.023056385233815      1.4821189742339094     0.13746275412221412
  3110   1      35.042755197646649      24.895087923926386      14.889801669546205
  3111   1      19.617731571799311      28.952099558837499     -16.875215158786485
  3112   1       10.71441770821677      12.774870983347654      3.9885411497065859
  3113   1      62.735722395661895      23.095746170094639      14.226338140543145
  3114   1     -15.135907178601631      57.153890473782106       9.705982644148607
  3115   1      6.9979613596211454      41.427040502678885      9.5843814114562846
  3116   1      10.605703879536563      48.636988344053407      22.463892442974192
  3117   1     -20.677305205861099      40.577834850263919      54.598012645600257
  3118   1      8.4925577067055329      19.539094647978139      41.718759623685976
  3119   1      26.512602185079835      11.536334910354102      67.874338836740961
  3120   1      64.018070884807244      46.829544872934534      50.151045552515477
  3121   1      6.5286123546640296      14.657215112591571      1.8268398120775242
  3122   1      62.196025585581843     0.42291893335035785      35.146992112622137
  3123   1      32.474633124800754      55.840093226112216      2.7419000937513127
  3124   1     -2.2408865213246076      61.393646081651589      41.423704434160186
  3125   1      49.725593169163716      16.240015577816884      48.406022142814706
  3126   1      21.242203018213303      31.489617843235589       23.76181319389017
  3127   1     -1.8740501467554895      21.414901274421243      2.0358664639661836
  3128   1      13.372330475784883      20.344930320407169      20.402659390774676
  3129   1      4.3042450590092161      48.870745341948535      14.902182962415798
  3130   1      39.083558957073407      11.453124141645521      37.320310165351849
  3131   1      27.450304665777782      28.660006908736808       17.58356731321539
  3132   1      17.268739282047356      9.6625480108986288     -1.9885879868565073
  3133   1      7.7585643818668828      6.1852643618175485      29.933956560763608
  3134   1      9.2456409333316696      57.650943660032461      28.692185153347566
  3135   1      37.189175661094765      38.496440674035291      62.701318786436723
  3136   1      16.870670715849887      13.695922765674219      11.563573338389901
  3137   1      12.342948063019522      22.141068363400528      8.1134632730204377
  3138   1      4.0518610672552473      21.061790231134797      28.441618418267261
  3139   1      -1.035654754194169     -4.2822856712312598      15.662504557392845
  3140   1      17.119649960511829      3.4640337081302044     -7.5599972705355265
  3141   1      46.826660680940115      5.5803564403052484      21.533045369304169
  3142   1      4.1284694844518643      41.028762791668683      7.7147727281521812
  3143   1      8.8418599263605326       25.96342896108181     -24.159366174614295
  3144   1      35.528692875495814      27.583202674363424      5.1528520093670789
  3145   1      39.395209135293946      44.875386580887103      38.712612501858473
  3146   1      41.979502343157492      10.630349761665421      32.235183056813774
  3147   1      8.6601083917578006      52.445581239889663      20.778237997540938
  3148   1      9.2934322636535445      12.046698471299452      27.476394144648943
  3149   1      52.414345445283807      19.640414291694384      15.697249377615014
  3150   1      14.777076997274365      32.819811429407793      19.094409005383991
  3151   1      22.729881286795592     -15.494149199667836      1.8596484312463049
  3152   1      14.092779197468319      5.4642581706252997      50.920810397689678
  3153   1      15.018433772582528      27.277154918452077      54.394368324609296
  3154   1      41.429882284169878      41.183711281082466      4.8808302984596601
  3155   1      27.637398172164627      44.069360235596434      4.1951877524631085
  3156   1      12.729155612577502      29.495645888945205     -9.5635867264630114
  3157   1      6.9920450387397288      26.177429773220414      50.666239942969291
  3158   1      27.299344028689283    -0.39534692386645992      44.379916041781698
  3159   1      33.040606953207593      44.208771632107329      27.271870939149988
  3160   1      53.065131484672868      2.1659862907783993      36.435891075343029
  3161   1      38.503057954590901      40.314630109295443     -0.6476496000836699
  3162   1      20.185533396891632     -11.246110601675177     -10.342577738430501
  3163   1      47.651751983481915       42.45963567568166      51.497742765505947
  3164   1      7.8105133062856709      33.063900778803912      47.176725853345296
  3165   1      26.370858611495706      9.4316882928825532       24.85479196547788
  3166   1      26.865736483370569      3.2433098707373023      44.330951104377078
  3167   1     0.87970107497496997      13.283489989931191     -4.8329449773572524
  3168   1      31.574709690423507      3.3460639938842895      30.533036053916053
  3169   1       12.75978231768732      3.5432883473541041     -10.831693093508415
  3170   1      19.718643600199496      23.621745992461918     -4.7191953245606806
  3171   1      66.298023510690655        34.5753117737572      15.255385890545949
  3172   1      33.664039072776276      19.873244493340515      39.331710475697101
  3173   1      45.279965296001379      30.407677007529561      23.464933034862703
  3174   1       60.17704185447014      16.169816449591451      30.932091545729897
  3175   1      16.531698038851701      32.837564717071835      56.632113413387252
  3176   1      16.767644733448464      40.302352977272491      23.944431501946639
  3177   1      33.548719107132094      34.203839734131257      7.8172233593348199
  3178   1      26.232912016230085      18.701998463982282      14.621736236270349
  3179   1      35.334012280709494      6.5223752871667147      43.765701599846494
  3180   1       27.09225078325802      34.697914873317146      49.516317815689135
  3181   1        23.1161048866452      11.472457240074855      26.686336155609244
  3182   1       45.41399625619178      10.890638432130679     -11.315897470170231
  3183   1      22.331760663623445      32.390827047886177      19.864613377933612
  3184   1      23.994037679990203      27.242829549413013      47.890864868672416
  3185   1      37.919858073169301      4.8683252866682531      37.653627324003295
  3186   1     -9.1145938951972241      18.416467224553429      37.494398081481322
  3187   1      46.025002301941676      53.045278430482433      29.735731531030822
  3188   1     -6.7917268561945345      20.044456032706986      27.577607746414387
  3189   1      38.311438675542306      31.838917454912597       19.16740691468868
  3190   1      37.143966469052934        46.6263021188674      19.727125496740598
  3191   1      11.947679858413219      9.2889599314159117      20.116597134424264
  3192   1      19.858410274208541     -11.744710200470792      51.600209403477209
  3193   1       24.62359430415183     -1.4233824060947611     -5.7787103026062914
  3194   1     0.88048581062469766     -2.0553229964608746      38.193890288616402
  3195   1      25.519624422401602      40.146089153500434       37.57587398023756
  3196   1      66.426406998306177      4.4182529088114411      32.562123075606095
  3197   1      15.016798221818117       38.19581996026858      29.793605560659859
  3198   1      23.362582736912266      16.047121060178974     -12.054536465165633
  3199   1    0.079820255708792434      25.262718250674951      32.438712591135548
  3200   1       55.70778161059782      20.619499282971098        11.4115868217505
  3201   1      29.808779822247459       22.05429427677986      26.801879763100498
  3202   1      20.272193295939484      34.700488608890616      36.492989618381067
  3203   1      53.379094943253783      24.895469427896415      18.629282409911401
  3204   1      17.758042181275218      21.376752432481574       40.05422153939287
  3205   1      4.6338445183073231      58.120675207720794      40.932187118121163
  3206   1       26.13989627301553      31.635115730282699        17.4071028335837
  3207   1      34.096666629157411      13.624452078487757      13.287157513926962
  3208   1      5.2096735202455058      1.4897106016903143      18.891718227713934
  3209   1      29.589221494309232      24.893608615598779      40.533863236895726
  3210   1     0.98585746759633663      8.6789866628787582       28.34339089725427
  3211   1      27.716759861800536      13.976899098131746      12.494255993924865
  3212   1      26.789372350862312      18.504990663890538      39.622627408314109
  3213   1      8.9202777824945638      1.0352013752483011     -14.620786947826133
  3214   1      29.407466271126257      9.5351063724335301      64.709774497423879
  3215   1      40.719499741027967      50.992298360294242      33.392000285768084
  3216   1      48.909539895544697      57.108536850962061      4.5568204040481293
  3217   1      55.947851374621713      26.012418384347335      -6.836805454078573
  3218   1      6.6162428445338506      55.245560397421976      1.4012598160239103
  3219   1      35.409729116961159      42.779675736851821     -3.7603981225285552
  3220   1      3.9332380016753854      19.995554077902923      19.742205929634284
  3221   1     -5.5721469346685959       25.51984172409573      7.5420285481242724
  3222   1      9.3956071124293263      23.989147075718389       36.07288186873847
  3223   1      50.673839630127574      46.478265680722757      26.439973785427075
  3224   1      24.064072842535602      34.114549810276245      12.665574033001462
  3225   1     0.94269716663674086      26.374763935129451      44.831162510182196
  3226   1      14.792776485020594     -14.812973549325605      32.019836461907516
  3227   1      47.106701991258177      8.4500519536861063      7.4610369313818046
  3228   1      40.638551571722772      15.599855391369875       44.49011101414483
  3229   1      63.394126832804744      50.727230628047188     0.85840798750145819
  3230   1      11.513033056400626      43.537537198648373      16.403348733282254
  3231   1      33.651714729281373      35.022645854205336      10.949445084035224
  3232   1      3.9466591491176772       25.33195423074104      45.433840525223509
  3233   1      40.255487632516989      27.600201117552853      32.232637311921842
  3234   1      47.653587669857103      60.952651052233918      30.622980946356215
  3235   1      10.431466043003001     -4.3214089801954829      20.897706821421135
  3236   1      44.147266363936573      25.356521677721997      24.795830417117749
  3237   1      15.855515382953827      40.806054664255576      27.191785338562493
  3238   1      14.829452602946469      8.5069762856282658      24.738371103992797
  3239   1      15.443364581526247      28.471932523907814      2.4416055477964789
  3240   1      30.780868295855768      17.380844827689483      38.211234778224693
  3241   1      21.569264999746647      25.322693912073273      31.735271866853264
  3242   1      37.036024894466024       44.57608714970592       8.074033986532406
  3243   1      32.216593523502645       26.07062245404877      54.113210283989019
  3244   1     0.46456689086921854      7.3246674158678342      58.172666450248563
  3245   1      11.438846075431746      32.385806161096141      25.530597755593288
  3246   1      44.679637703655857      57.646586229226003      19.593780395894981
  3247   1    -0.15371821440215555      7.7690090108750374      18.647285708945002
  3248   1      18.096551024375984      42.170960070633988      14.266932522168071
  3249   1      41.704138228508313      -2.806009993602105      41.505914255086878
  3250   1      40.410929268657043      30.107077429406331      57.295324557097729
  3251   1      32.658366462465096       16.74696897478762      34.658005158368105
  3252   1      13.028354296240925      24.137904689121033      36.127240717425487
  3253   1      54.284655456567748      48.028930649435708      26.214991715711118
  3254   1      51.531069737054736      32.632191728030193      48.761394749415182
  3255   1      1.1161041837820198      21.890853016581236       1.006106538641846
  3256   1      15.234087795690572      16.239668772489306      13.455437011438608
  3257   1      32.733731072064487      4.6629960649804287     -5.2164911524005193
  3258   1      36.928210369596933      32.183106246571477       50.08988836766445
  3259   1      23.045042891784142      8.4911258499402411      15.627127099346147
  3260   1     -11.150582325530525      30.897805063167663      32.619091936775952
  3261   1      10.863018439738086      29.799984723747453      31.333153005769731
  3262   1      53.751836482718296       5.188536217403005      32.268227203108857
  3263   1      36.043025946197517      37.331968944651123      10.618064417270798
  3264   1      17.455821494391945      5.5973293514984315      26.211307004517053
  3265   1      50.148547520291622      32.565760639862113      33.115501219764354
  3266   1     -1.5641830195366431      21.753184204906553      22.708926485508989
  3267   1       47.24555459210471      30.610057313507195       20.83925491010724
  3268   1      15.501242728832423      18.242134076071899      51.159503084133007
  3269   1       47.41709501690773       59.86394508077786      27.645374574748082
  3270   1      45.976037650898661      48.815835493102441      24.031985698771262
  3271   1      2.4978542908610462      1.2254485704607898      20.584332376333922
  3272   1      24.731564824532537      4.2242716169360586      21.391593551292193
  3273   1      25.033273062444962      19.809311004857697      29.111044300745679
  3274   1      37.149883236219011      19.528305435479055      11.163775232605728
  3275   1      7.7215838342920984     -6.9182168555900994      21.351445303225301
  3276   1      42.886187604439279      13.164819762857777      20.635925674292793
  3277   1      17.897706089335799      42.513295152798825      31.649780306187566
  3278   1      3.8070949542931913      37.526024264098695      8.3433792592488469
  3279   1      20.043811046290848       20.53627549687069      15.753915049993138
  3280   1      46.623734314832568      44.780437166977755      32.246524384172531
  3281   1      34.974790275457202     -1.2031004393436957      8.7969163030558626
  3282   1      13.684056436448357      16.216818157565573      28.507263527260559
  3283   1      7.8115740078149241      30.689566247008308      29.486893107004711
  3284   1      23.414641438998913      33.547355876519553      34.949933550272945
  3285   1      14.067107025759118      35.048927504418216      21.295103565847533
  3286   1       22.25355759987896      19.528924046599332      1.7983963033786579
  3287   1      51.051898814658408      38.950090051870973       4.686226022964199
  3288   1      17.650544894171663      11.649152235859612      7.3921931053743393
  3289   1     -4.6118518581213044      37.545678128605047      22.500012450786578
  3290   1       30.21772177177537      19.853837385328287      3.2436574874552808
  3291   1      18.026426879976579     -2.3529978870452095      14.570975121659517
  3292   1      44.057587105056975      1.4048239837177046      47.714335521340558
  3293   1       42.21573357574573      9.6498522847017778      28.294720290213441
  3294   1     -3.8987211237255024     -6.3209772434758298      21.598359324027392
  3295   1      20.629183404612004      22.790766693734398       39.49827669264873
  3296   1      3.7857768761757788      5.6367020243288559       29.16845775436347
  3297   1       22.43445477573254     -7.0678284295294498      10.405602837543666
  3298   1      26.478083435979492      29.482766333705417      50.447894584431822
  3299   1      20.999824088507925      25.046611050145877      14.578223856737592
  3300   1      12.961934883592507      11.095431329379283      23.042869600488498
  3301   1      35.124767013402717      14.285511177498933     -6.3835165524225888
  3302   1      34.438161588535074      9.7316529470353128     -14.451687344677271
  3303   1      13.355975329279826      35.515064646141028      2.6556537455412372
  3304   1      17.383285228718261      54.481275868207284      13.201420519780971
  3305   1     -1.6989490455220699      47.741257974699217      12.820326580315706
  3306   1      20.725166181582743       38.13609990328451      19.076342488518474
  3307   1       22.14045125648769      22.946330348093902      51.368463073943651
  3308   1      54.938646820697436      28.767571281299769      32.315247879319074
  3309   1      40.281661000917715      5.6061870839024746      35.381111882966692
  3310   1      15.578622735647931      52.291423912777759      29.693237973720937
  3311   1     -7.3850124924486718      24.602333936804651      35.079102276869172
  3312   1      25.620629291220173     0.44423250136179332      15.227204235472158
  3313   1      7.8739918400844893     -5.8125963577981681      2.1129904886478936
  3314   1       37.38519549768143      1.0931783399845982      17.488432290264296
  3315   1      36.808108017241921      36.208008056280029     -14.003864286179619
  3316   1      13.540997746488186      29.616843573578286      7.6508181170868133
  3317   1      8.4147140771078828       15.52575645565893      -3.318284723467686
  3318   1      50.188137822307752      42.858715947374904      44.108373075933081
  3319   1     -4.7710603772569842      -5.106260176460836      18.547856724749231
  3320   1      33.918475290915971      36.032162399541498      20.660444346379183
  3321   1      18.361029228141337      23.199212426214302       15.46362890003476
  3322   1      12.201773127183641      9.4910641943127025      14.872884621524168
  3323   1      32.133626284883675      39.504193888461963      38.395939580755908
  3324   1      17.565848610463561      21.710578015924433      23.714027928846804
  3325   1     -13.730956688590727      34.629228906636556      13.777810577735506
  3326   1      39.777048968029071      82.226285062019983     -8.4800978253302866
  3327   1      31.989125781558414      21.136738245716522      8.8741477216592344
  3328   1     -15.041392541825083      38.299375947522947       29.10309138812368
  3329   1      43.547242149834368      21.748084657597897      30.263160719059105
  3330   1       22.78717605559639      45.766445956031149      24.506814953830862
  3331   1      45.750332306509975      12.626058288822005     -3.8679013334284371
  3332   1      22.423074839740156      47.286082170447244      15.001209069337285
  3333   1      16.383974348705955      47.440393648890151      27.440674153937628
  3334   1      13.959762343459561      10.175145782834159      46.546920892314624
  3335   1      24.389327356143802      29.686103730626986      24.016751397011021
  3336   1      24.153127512680147      25.112531569926023       25.24985045284938
  3337   1      35.101352177138295      14.824740876315273      7.6618129149952976
  3338   1      20.663079993196007      25.742845353022304      18.853487801512323
  3339   1      10.044600330964618      18.573273207126231     -9.7761658997572063
  3340   1      19.748002178203922      13.187525075937559      46.137752943386332
  3341   1      29.778873713190279      3.0436206937183141     -5.4462679642632725
  3342   1      28.013920380699954      26.745143170761555       3.256235726475059
  3343   1      7.2949312242920508      11.886550679918676     -9.1347418056075398
  3344   1      6.7861294218366259      51.048191248998819      26.147910637650554
  3345   1      18.966047991456652      18.489196314275038      3.7143634355623618
  3346   1      3.8474498411507461      23.564644439000531    -0.25086701916331827
  3347   1      22.358169591181639       35.72365881380221      25.533584839740701
  3348   1      32.953780911782161       -1.25746194160574      53.774122476012288
  3349   1      21.891254811103376      41.143316419729096     -4.5117280379688927
  3350   1       31.43207820350457      5.5641169486395032      11.385108110195812
  3351   1      3.4090916052841824     -4.3698266363643858     -32.408363124467336
  3352   1      53.890478036814365      35.231611841226773      11.594026309219043
  3353   1       4.805703007128721      25.878490343216512      24.461277410604183
  3354   1      1.0046099290669392      41.703000360481639      22.111982031148305
  3355   1     -15.959874319550751      40.863166629469816      15.631104901422022
  3356   1      78.974143038513603      34.989224854553719      61.762845477727971
  3357   1      16.864512570352002      31.907482249711272       37.83572040755881
  3358   1      35.260922253165724     -8.5587729230573864      26.116077712380957
  3359   1      3.5141482394484878      67.975892294323387      31.477741894146281
  3360   1      28.781846851279205     -8.4427199308876162      11.849888847348925
  3361   1      34.348181823041372      43.188500269704811      24.498508813961461
  3362   1      13.440516629034844      42.452665029097957      13.618833142967635
  3363   1      15.035381337513067       8.502846645175536      41.457568968294957
  3364   1      28.518506820480503      -30.66732165662496      34.869833590693311
  3365   1      9.0654395778564201      36.979995310764544      46.361099690320685
  3366   1      18.524989955883406      22.607612589619894      9.3724061715859524
  3367   1      66.294426112671829      30.761331217264058      16.084723860064461
  3368   1      14.311613353358373      28.950292176809086      20.753335004725386
  3369   1     -7.4610746204906855       28.28817571559232      49.630134956627124
  3370   1      2.1132737825156371       36.51533830517031      19.398450769740414
  3371   1      36.986889248508163      50.423016182211171      32.966952851501063
  3372   1       28.08993870765795      35.291374336529216      41.122808367935306
  3373   1      29.549355669223299      51.112000384896945      49.521544050654484
  3374   1      33.654478923182957      15.920745462307615      40.144824579042726
  3375   1      38.205206193210458      13.044409184054567      13.567252712829946
  3376   1      24.040642996324497      1.1847697023308514      22.698442837703436
  3377   1      18.571553119374844      42.922530512645061      27.374065654584342
  3378   1      49.961919137329261      5.0809622467166768      44.378237099557467
  3379   1      33.513787859144749      22.114438899193679      41.870388308893801
  3380   1      29.940713895120759      48.051906058610648      35.310833699311523
  3381   1       2.151656816222054      36.210549073541095      43.381753076663088
  3382   1     -1.2131636056648083      35.688485272068547      44.299298087766005
  3383   1      31.678454420337161     -8.1263243760758552    -0.87969384365298131
  3384   1      44.607422194873784      40.480798936829224      41.371091005000189
  3385   1      29.021861977990401       51.94291294765587      26.664011321671751
  3386   1      28.255572789097787      16.548644765980363      20.327101655930143
  3387   1      9.6918070433824468      27.699410293414335     -12.286728952826113
  3388   1      15.123979436053339       23.16748722602587      22.470576187799232
  3389   1      33.803298260972802      9.5596477675532636      28.154734099308993
  3390   1     -4.0260497443341032      30.833243107784998      39.437083000535338
  3391   1      21.082547453599453     -13.450400250096257      7.7632690827222204
  3392   1      6.6442503248304305    -0.66560598578401509      30.331173071022206
  3393   1      29.323196778332978      42.613022412160859      21.582561082680151
  3394   1      22.196149266578402      44.173743667244551      45.576805594629988
  3395   1       47.94837477591382      36.173056402270447      13.752311209582018
  3396   1      23.488621427565484      36.872606698171055     -30.500756141667711
  3397   1      28.663039741370476      10.484032254591749      39.779326138758762
  3398   1      24.174469008352268      71.230866923149605      5.3137639748402989
  3399   1     -8.7811851162331784      23.657310678138607      53.163976154644153
  3400   1      2.9210217311242674      55.744271968530192      54.994856902789344
  3401   1      18.926725334746646      25.646778937424809      23.197076034085857
  3402   1      26.877418857317807      31.380092477450489      55.415045969829158
  3403   1     0.95878934845614039      42.027671915886792       10.98355440123747
  3404   1      14.239660740828832     -6.6397583974508656      30.892271014614749
  3405   1      24.728597062743621      41.902531512206956      27.670752014189347
  3406   1       17.75171018852707      3.8673363705151553      6.7862356134006854
  3407   1      9.4787790566989205       39.94503313903887       46.68895918936461
  3408   1      21.801799647356692      16.912880633101615      8.8040110023066163
  3409   1      28.881923038378211      3.1455899929536875      10.253497044418424
  3410   1      23.093224015568293       51.21115956468558      -3.125461606623738
  3411   1      44.405279502883829      55.834280260062336       29.94270404476336
  3412   1      23.888980374640393      21.613580962096961      43.855893446062588
  3413   1      22.123811510879175      27.107717440134351     -10.748093867369931
  3414   1      38.550174404394518      22.401153039614076      24.812751473606017
  3415   1      49.590223735476037      30.076677807207822      6.4692789384564451
  3416   1      22.810117512306277       29.91661603090629      32.021068593480308
  3417   1      40.343214863576435        46.0106466648121      10.683590012036939
  3418   1      19.900949252621757      2.3338441451701786      10.240482673050661
  3419   1      24.093599998655318   -0.084617737677692831      12.518954659393476
  3420   1     -13.300674960766436     -21.903292320126557      23.094874614427418
  3421   1      19.116386896346199      34.007468628538348      26.567200221026066
  3422   1      37.249781118819698       24.29700908446269      11.916026663841777
  3423   1      52.405495183751903      43.623572808872126      52.578278569769232
  3424   1     -6.0191343201644658       24.29938391928604     -10.797014153974024
  3425   1      40.709841846272553      18.463497952688634      10.347015444023411
  3426   1      44.170678729769257      18.490078894358817       29.46893674603125
  3427   1      30.176186857872274      61.928382414077767       8.281081395547023
  3428   1      20.008444037612502      28.668954898762451       16.78174971545165
  3429   1      31.757525488043289      32.827602780608437      63.695675482352897
  3430   1      4.7164207470869428      6.6791034191350436      46.848908622715733
  3431   1      41.617756609117237      30.555355831990578     -2.8698450178764721
  3432   1      11.781692171473962      19.571797432014549     -5.5634601260777359
  3433   1      23.995099538060817      37.672196478795691      27.532617524761132
  3434   1     -15.676479490474748      20.826447206522968      31.566393319194351
  3435   1      58.149689839422706      53.691493131143993     -6.4874376642328517
  3436   1      39.713663916752722      35.781485921726798      24.310551981208395
  3437   1      18.204842865813724      16.988429411326834      31.607815259976807
  3438   1      44.121958652788571      26.675111200311438     -8.5681574630069139
  3439   1       16.20347092441737      28.383957475182612      33.743702853581667
  3440   1       47.20047007933595     -14.125532761379988     -21.047172854074542
  3441   1      27.339683242824233      1.8234636399260664      19.522735919714624
  3442   1      13.652697921258426      62.911278021421566      40.385252459182404
  3443   1     -20.173143851743554     -3.4249363156688188      10.390442733532634
  3444   1      34.016571239599926      53.395476488269786      8.7732200634370088
  3445   1      30.407419986064035      9.9303898034970359      7.8893010212247159
  3446   1      30.296551891040671      32.777650645867439      43.812733116384457
  3447   1      29.250413874430635      25.344287855336432      69.820413809041199
  3448   1      7.7054121312945734      15.279580627068045      17.681613501185858
  3449   1      27.470514748336747     -8.7069555616422161      42.903567070681866
  3450   1      17.671075685258771      8.9009095536006502      18.252527463117868
  3451   1      6.7806665008089819      8.5488290666806375      37.051523516566917
  3452   1      -13.18858583506953      17.046110800887735      48.842877337847639
  3453   1      47.441773290575114      57.769889471067607      30.675692757550859
  3454   1      22.639130681036349      17.027414963464327      52.805889492228005
  3455   1      21.730087040927774       45.64735660037411      0.9183152020189238
  3456   1      18.168349003047894      30.182836391613744      12.741764434769955
  3457   1      16.635454849225937       48.93259788626834     -11.382798575811664
  3458   1      59.700941932824719      40.672505667392414      41.538999521502767
  3459   1       25.95198720801978      46.606245942161053      40.180833559538996
  3460   1     -16.220349209261563      1.5066523430952692      18.229451941850961
  3461   1      26.680007451015243      14.008902298017446    0.019503959951834068
  3462   1      40.994898931987244     -2.1754726896618823     -20.572562267644251
  3463   1     0.47995628828976106       25.02257041521791     0.18514859997281036
  3464   1      34.214712910551718      33.978976215357086      23.538078847883611
  3465   1      24.908745612858816      6.3770336916934562      31.679082708124032
  3466   1      4.6762620584666674     -2.2053241043649452      5.0665147971447748
  3467   1      19.596909430414271      20.068638997916754      26.001684470325131
  3468   1      50.452759000959652       30.44655597558215      18.910434968296428
  3469   1      48.569421110796206      43.015025042693019     -7.7203148912503972
  3470   1      4.3745384578502877      16.624683433048883     0.18880134435678897
  3471   1       43.22677294887027      39.332531702757244       11.17437397301015
  3472   1      30.724560521251426      14.419013909202048      41.059221470734911
  3473   1      11.065698583796511       24.83631993499796     -19.589368366020786
  3474   1      23.434560133424664     0.57449086902304825      35.383062993192802
  3475   1      21.574003484806532      13.038697441811287      48.692810632195837
  3476   1     -5.5018778190856548     -14.465341824566067      21.965143142135492
  3477   1       24.61446867155427      52.838057362471112      33.908636148403062
  3478   1      53.791154372386536      28.643863641402387      16.506913002831489
  3479   1      41.066374722847449      12.173120172847282     -3.3337239614480816
  3480   1       37.80099234299913      33.465631981723597      26.203507767424501
  3481   1     -1.3543483986579314      33.739572439014701      17.982520587470379
  3482   1     -5.7106185536234335      18.267487323144046      53.684440459454777
  3483   1      35.990750757562687       40.38448462357848      35.878644164122022
  3484   1     -2.0947936500174733      39.495032077196832      13.492572743281444
  3485   1     -12.969486616266945      22.775109044274064     -8.9179334986933707
  3486   1      9.1210726524782988      21.963585201617871       25.23449295147778
  3487   1      9.8981800841355518      37.244161052481338     -15.387555373943668
  3488   1      10.682234561963726      17.345596149157057      14.534492461803218
  3489   1      30.261819920975302      43.634877438979416      33.419355616153062
  3490   1      13.822261344630055     -3.2960733082766627      38.201011724769963
  3491   1      22.918054704002149      17.987957427775989      15.964269021245981
  3492   1      27.317388177418607      20.202694855948106     -2.6367799759538992
  3493   1      9.9323705341432387      26.508713595683425     0.52030594152712539
  3494   1      44.281277771014814      -16.21818363740573      32.302472336568748
  3495   1      28.722273356023791      49.069286468472498       17.02342671175278
  3496   1        24.2826168963588      45.939466620779548      10.171640762147492
  3497   1      34.303602400426399      38.207464066224212      42.413945561938633
  3498   1      52.801571310089727      62.430649925800324      30.595135733512329
  3499   1      26.762278202373434      14.078102102258802       40.45354162880011
  3500   1      25.972061836958979      36.540766666175521      30.275762398175029
  3501   1      24.940687090033681      22.695886410159215      22.404858719271026
  3502   1      16.139625168821816      37.833422203335303      20.980964767004291
  3503   1      34.985534898889192       13.69090920700037      46.134833966348417
  3504   1      18.946832222068061      47.559634412952484      1.6739667314595525
  3505   1      16.384154724870015      9.7000411003307985      13.979567344235651
  3506   1      43.565595921523141      84.903679321916613      29.665268673260648
  3507   1      18.145110034752335      40.780047180773394       5.135345463967969
  3508   1      41.024387954781851      32.200581090605645      11.458325849708208
  3509   1      37.218090208999676      12.303390692988257      25.428234745102127
  3510   1      29.689466323644144      32.644470269446288      30.773855055980892
  3511   1       4.490178867758126      31.401115317210767      28.059488123592434
  3512   1      14.849257024457726     -8.6818439459029637      6.8043826933630749
  3513   1      50.595849201474209      15.220009754777882      26.417857789142946
  3514   1      43.097760680984294       30.63739850360135      55.439993901933349
  3515   1      49.956972235163427       3.155879867122179       3.684714595179289
  3516   1      27.140690974214131      37.967302722048977      10.149149218635465
  3517   1       20.61186023213186      34.217296333951644      44.745434100499459
  3518   1      1.2078204214331483      61.637275139839275      6.0146183603975478
  3519   1      31.076251736412164     -1.4968330422580751      25.666851724940393
  3520   1      15.849922262017802       10.12290621345096      58.634752711702127
  3521   1      34.731984575312921      15.865907473306127      26.984652703140252
  3522   1      38.157646606746887      14.872398624844342      27.661523710108746
  3523   1      19.472315578333575      16.578817261942557      46.628652703729728
  3524   1      7.4235814831721969       42.68059479697375      29.981072671347125
  3525   1      15.033040965214392      19.948237729164557      57.387824776798205
  3526   1      26.607093200681682      31.128623321296271      33.488619699548572
  3527   1      29.093189112949606      66.082459406609459      42.129799088569825
  3528   1      14.940012535199342      21.358926946696155      17.457744572721072
  3529   1      23.049756718308569      13.333296413489904      33.279432549708659
  3530   1      17.937873557382002      27.357426728776428      14.608715759659685
  3531   1      7.6793352177139242      20.745950308865311      30.277104742620981
  3532   1      24.236487154723786      37.196672091410278      34.702089028010775
  3533   1      2.4304355647788376      24.377128147037947      6.0539991261309671
  3534   1      11.999998034927003     -19.986256695290393      27.998348656258653
  3535   1      39.274525379024539      19.126633508058333     -1.0919605700313708
  3536   1      26.339800021429802      59.780086611457477      15.408727526726043
  3537   1      13.597562101806915       38.88664373761317      39.693635316604201
  3538   1      24.110463963175977       20.05724756393251    -0.92216275899523803
  3539   1      13.226363814648121      24.969859365874484      43.469900309968999
  3540   1      11.703653889913429      8.3199525447619376      41.129160731726586
  3541   1       14.47688461651197      1.8976875484225502      13.653212327671742
  3542   1      27.650496278233827      7.4328137770350642      50.457470929739245
  3543   1       7.619337780891998      14.638333276415715      23.758060082120817
  3544   1      0.1372350876684445      54.872521138098428      48.469015529447091
  3545   1      2.5144783132452377      35.084908470541315      29.908356176062622
  3546   1      13.415051895782716      47.160319302541801      4.3516828032634107
  3547   1      34.776511530564605      22.021043663855792      11.900614071172898
  3548   1      52.159810272601817      24.527510679656448     -10.068101815785024
  3549   1     -3.1161759429316258      50.478074360338965      17.986442764921605
  3550   1      31.969810574150774      60.248109241250745       19.75209467493055
  3551   1      7.5660007679321115      51.034658509859206     -6.7190642809846635
  3552   1      2.3856805261492489      13.917042203640067      17.644926175345923
  3553   1      36.682822669865061       1.723896131466863     -19.851883010904487
  3554   1      47.958388020523806      54.615210074662521       36.13202120156371
  3555   1      57.845896795542487      29.461803675165186      25.504427790699697
  3556   1       55.03511350771776      23.421111268197453      36.208837463444183
  3557   1      57.245302109766236      31.283347983009804      33.029542950753786
  3558   1      30.295488086073355      39.640660682771149      23.041691404540867
  3559   1     -10.417053147542086      9.2839472498724334      58.149339198799957
  3560   1      58.585545565574421      50.898182720256223     -4.3765530487614122
  3561   1     0.76334655899879966      15.546756867631434        30.0041330535221
  3562   1      7.1084221827067067       58.40741501447949       15.58276713765806
  3563   1      22.823618121483232     -4.4816290020154002       40.58059951395829
  3564   1      40.202928446671713      20.768516173128628      1.9675359927952381
  3565   1      33.674425703686552       49.36973697083225      11.235376385473803
  3566   1      39.829184268383905      36.011320980142472      43.835292832671414
  3567   1      4.1146099632867603      32.591697550492754      31.560181587539596
  3568   1      31.569457529572624      14.820945221696062      5.5149366459618152
  3569   1      7.2353476779422374      17.125976063013152      31.218029880176555
  3570   1       38.40578374218201      36.130792831428529      19.395034909693521
  3571   1       39.31750424536893      34.184181440114671       28.90555523679588
  3572   1      10.050690024662801       18.20818881909106      27.699832627016885
  3573   1     -2.1819859345801569      22.727126213756801      30.668225901379081
  3574   1      30.098666044229628       13.97684751211106       26.29201795457292
  3575   1     -7.6145801618393367      44.054386517653668     -1.1726933837390388
  3576   1      37.610654393300244       17.40808845924386      54.629479149741272
  3577   1       32.72794063838095      30.022351281722067      29.238458554757333
  3578   1      26.085774276383528      12.922635328048807      25.864812923086987
  3579   1      41.723233587148961      48.108739846334323      -16.18347390739418
  3580   1      12.543623601992223      24.347579679569176      49.149117268010059
  3581   1      35.688994547029964      16.597651670623417      13.975551770618134
  3582   1     -20.171145058236213     -7.4692050669563335      45.779031500785408
  3583   1      28.100706732590464    -0.88964377101447234      27.025074415239697
  3584   1      21.503372310697202     -13.847270758461491      21.828922874113392
  3585   1      43.877511908579962      50.702880481777996      15.191278583562106
  3586   1      26.168560315089064       22.55659126248862      25.322122180878406
  3587   1      20.534564832621186      13.984124917327799       16.45039565019794
  3588   1     -1.3841913469675151      22.547220284132003      -1.003643226407219
  3589   1      31.138820881588398      11.211613090523036      12.518945404802148
  3590   1     -7.3874870000064821       38.85128498549782    -0.81654472631436181
  3591   1      47.214326631664427       54.88202102213161      33.133854971681501
  3592   1     -16.541120063284257      28.707662084717235      14.684391623226958
  3593   1      37.854184371285839      36.839250216879314      26.773627540467711
  3594   1      40.535042504902492      23.931959000761459      71.036043892964628
  3595   1      3.0789719395014061      12.082054193192619      69.200204091676596
  3596   1       18.76536522144659     -10.110337281955449     -17.491650236518637
  3597   1      26.648734757479563      8.5428951382764247      17.788668627297529
  3598   1      14.091457530515425      48.590414958139966      20.833260156121341
  3599   1      21.243628303854951       15.91575940297564      22.200559327539658
  3600   1      27.412546333200389      26.762570245172491      12.824492837522353
  3601   1     0.27009604745238264      21.919732966879753      36.635582942194496
  3602   1      23.511732146551378      3.8582112487112852       6.870293982130355
  3603   1       37.29350887697494      40.023685132479464      44.177070390812609
  3604   1      37.520539082187923      26.893014578552926      47.382645356930794
  3605   1      51.520979682519076      7.8103656473612055      20.362946375619291
  3606   1     -12.716780989569445      58.848875325019996      11.563928375348041
  3607   1      23.313591036722421      51.894972634974664      10.229397203520863
  3608   1      21.499213343534457      23.208570471579645      7.7284498959844816
  3609   1      48.479612807617066       37.19861993775357      26.258309707731716
  3610   1      8.5815013510141167      30.490756284675292      16.412370001287613
  3611   1      21.675553645229616      32.847613479157374      30.476535521718308
  3612   1      28.945401213015671      25.314001740192356       33.57090384112751
  3613   1      19.819630552420119      40.736730048612245      49.657603716413945
  3614   1      14.612054527924796      27.221758571436723      40.837588906096968
  3615   1      18.819468852594408      42.859795145537582      43.247063664110478
  3616   1      6.7134319771026263      18.788482718060038      14.355740895244111
  3617   1      34.890739199433924      44.891918940152145      21.268098453994376
  3618   1      43.277416956902982       18.61031356960293      16.514067768149214
  3619   1      12.973732711490813       19.77779107995234      14.351047771359113
  3620   1      28.471647834385958      39.788228970174799      36.112214701025906
  3621   1      22.664087414389694     -1.5336551443737294      29.994386538685273
  3622   1      43.919021474948366       37.56227988839661      8.3643664409891745
  3623   1     -14.266785969706634      36.844899072595069      45.531700393399028
  3624   1      19.451274435998638     -14.345111235694738     0.96191984603644698
  3625   1      11.930214071547523      18.543744490601288       8.167490794148268
  3626   1    0.038351252491871296      47.695105079169565      15.828055073442448
  3627   1      14.972887422058127       46.52807899313153      42.815960270787762
  3628   1      33.500181847515925       11.18438088304206      49.873589257552013
  3629   1      17.172312972280412      35.049825642275046      24.069472788878734
  3630   1      40.809830942458809      53.469575333710409      41.134111227326059
  3631   1      35.159140318105351      20.777742228701875      20.274159741044929
  3632   1      44.838215328847681      51.189786379203582      9.9260401141097656
  3633   1     -9.8739604646887411      31.938396530861702      43.992630003119629
  3634   1     -2.6002215101501047     -4.6735711967771305      58.228736569990744
  3635   1      32.561576507224068      44.129361629638616     -2.8503537931851066
  3636   1      40.056489835301235      16.084215324191099      12.368839571341359
  3637   1      13.385490740091246      22.020749490482721      44.508834587549202
  3638   1      9.1051538386478388      8.2505684318953616      52.785474178738404
  3639   1      28.589903444146756      25.930208768851568      45.793451553428788
  3640   1      36.942791174585047       13.04076373334072      9.8813490669186343
  3641   1      38.043199042085242      23.070546615942565     -3.3416864736184633
  3642   1      25.736531770431359      17.985020094269707      17.864241871398182
  3643   1      14.962276660278416      24.882909882977209      18.428882507309744
  3644   1      39.467516920952228       26.71863789820199      29.208364751926275
  3645   1      46.221520107630774      2.6836753687579664      36.261332850356723
  3646   1      26.095468445867706      8.2735646837017249      41.826447760980514
  3647   1      60.948828687472712      29.099919355011529       48.55771178699311
  3648   1      39.332053802853792        42.6290235209024       55.72393627458456
  3649   1       15.01681622360992      1.5726021614032191      32.369505246905575
  3650   1     -9.0240451454615709      18.754664688955902      34.070444832233889
  3651   1      23.064379408247486       21.44600407238509      25.130291599911427
  3652   1      43.340303823278624      16.587618214318191      19.145513516415139
  3653   1      15.618062352236194      64.976257605093195      -10.42181104918444
  3654   1      39.941184429605158      8.9712343958216234      22.998086073019095
  3655   1      47.808900644361884      38.490387580849863     -1.3123754088958115
  3656   1      26.986612184983272      45.379934774881583      19.475426516108143
  3657   1      23.895611958257405      12.099101348537452      23.492309946695578
  3658   1       10.55502606819261      40.697924586364884      36.581115642684914
  3659   1      52.942532250944183      2.3822324905810568      30.422644701005293
  3660   1      29.931618826307364      18.543550873039148      25.032930952374421
  3661   1      26.730017682134719      23.009099804538266      52.301229650476657
  3662   1      24.818560670645969      30.425463290409098     -8.8740633336425319
  3663   1      46.571904348062375      18.791503908992201      4.9460743126989248
  3664   1     -9.0779273410633348      48.562035189502225       2.052519081862668
  3665   1      5.3354023506903765      14.328192247924326     -2.4577322438412548
  3666   1       10.02083325534992      14.948698341945557      9.7888476244175884
  3667   1      42.451675983564414       46.88965813331366      3.2693896487975156
  3668   1      22.653016227931037      41.446621335349036     -1.0891191027254716
  3669   1       23.65820094871658      46.574017639525827      36.758097303200756
  3670   1      47.563978252418309     0.18970235899960283      37.340524376553013
  3671   1      23.916181174274151      30.876999107551843      -2.524403927762334
  3672   1     -3.5693546945765382     -2.9798558225312863      20.985463855514716
  3673   1     -8.2409540077093695      19.597105732253993     -7.7088684840176631
  3674   1      37.171778938876152      33.006949869501248     -13.090257718421936
  3675   1      6.8798094074493745      29.442503275651507      7.3809287183570707
  3676   1      47.676120284507711     -2.9081724566189253      27.262339117321979
  3677   1      23.587009817974142      41.155383433345214       62.28987175227757
  3678   1      14.240034596269759      32.404946682278791    -0.64072151573666436
  3679   1      1.1788844752386674       21.70802174587439      11.957086153201814
  3680   1   -0.072879078025134034      24.123289077196876      52.103568739363055
  3681   1      21.771033354267534    -0.66277754297443781        3.24914799437907
  3682   1      31.061824504793666      31.601033664737269      17.910635583205455
  3683   1      51.698732453937488      39.126295285891551      44.241085949458942
  3684   1      9.5993113605624529       22.81328438911077      5.6746290067233396
  3685   1     -7.6811470291008668      31.525071113469583      31.376125517010369
  3686   1      12.719517628043169      17.215808128770245      24.275197192589861
  3687   1      47.795510089225637       21.22659133354734      28.073241910305626
  3688   1      15.659275562843664      23.439379291738501      38.103380293930357
  3689   1      39.040532513699468        31.0525643802969      3.5425404794327791
  3690   1      17.250772156435634      40.848897318482727     -1.3941444144942534
  3691   1      29.790006734207342      17.611798905115631      12.749640136241451
  3692   1      15.841288780261372     -5.3887673105767604      25.437399287188807
  3693   1      2.0961437944309798      33.564148766713899      11.647698161412636
  3694   1      33.497021477939946      12.455088512951322      26.415375916282649
  3695   1      48.260376719218172    -0.70074593935039964      30.206485837074204
  3696   1      57.024665180950201     -1.9898978409788215     -15.615419652410969
  3697   1      13.334229599284365      43.108463248635033     -8.3348332541910946
  3698   1      28.514456626889604      45.130862070794656       25.54475106580837
  3699   1     -2.1179684907347895     -6.8531503024805334      18.652134971300182
  3700   1      8.2549536834747617      50.506230051822634       14.03064452902937
  3701   1      17.549144281637513      62.637254474817595      37.530781817486783
  3702   1      23.209767826448065      30.075171472733764      36.910231618795798
  3703   1      25.346514390486426      10.817628446610547      33.068198016561873
  3704   1       22.81449466103961     -12.834601943336283      52.787825514035411
  3705   1      1.9428710079025113      7.0548924669372637      15.572890035082624
  3706   1     -2.8272975364989872      18.814202286422482      18.288745261209304
  3707   1       18.32379961593567      43.212845566615805       51.34725326872104
  3708   1      52.794509376661537       46.38621383231105      43.844971021381227
  3709   1      4.6448883314105291      32.819154703574561      21.678384230017826
  3710   1      35.472444213891407      17.732154074104518      45.359261645679652
  3711   1      20.860287287365715       28.35568172442067      13.517216603174425
  3712   1      35.943861177619937      31.940843830414231      53.352790471828456
  3713   1     -35.140392697840213      11.636083710001508     -5.4563310381556684
  3714   1      20.799442829747729      36.321946331679733      28.384430670429047
  3715   1      38.434023281329843      34.093909082451852      32.526670221189967
  3716   1      38.408049480390602      2.5039930262169752     -8.5820158704167859
  3717   1      14.415066261579886       25.75882726357613      26.531343237449118
  3718   1      11.369329607552146       16.16676078147448      37.253357989656173
  3719   1      3.9875995743770991       16.22688277134715      3.6920543319322583
  3720   1      41.126485916528374      12.831470804373073      34.755701203586263
  3721   1      17.731089935912323      14.253926928775495      14.684772288824885
  3722   1      14.611070027848644      29.753976392229493      36.418735585521567
  3723   1      31.708713658698315      27.164063445749026      47.207433777503873
  3724   1     -9.2789422025158643      -25.05380770464534      7.8293899575121726
  3725   1      12.977685082775164      14.380637159585937      9.4279837963955782
  3726   1      8.2976956951251797      20.822835187955711       3.311336834864453
  3727   1      23.677862214624067      38.623531235918762      9.5349575590646563
  3728   1      47.584079426318162      28.910291754323946      9.4966858275186787
  3729   1       23.33911023548632      22.671268552561674      28.073286019880445
  3730   1      38.486938126729747      15.844203616072511      46.859646624277936
  3731   1      15.858780666883435      30.361443466673069      58.543750915091735
  3732   1      14.749317722028106      29.072582566647178      45.364449003878526
  3733   1      18.948869244037748      5.1375422885092732      17.019387207805121
  3734   1      42.971205436399977      25.714557896869106      51.074303916292344
  3735   1      8.9423854919732193      11.999913624707274      31.290332208003214
  3736   1      2.7462151929927585      12.331798536177844    -0.62862273629845256
  3737   1      21.138723968921848      43.888555902716917       13.87831444436714
  3738   1      18.766457228272721      5.4442862315417511     -9.4022633380574394
  3739   1      24.429738274041295       15.43060416104283      24.347835625298245
  3740   1      48.566678087255553      76.468286779485453      21.524982548836086
  3741   1     -6.9626388484492709      54.409507138201107     -3.5952118272981557
  3742   1      18.128973332540227     -8.0090691492987709      20.299951067896917
  3743   1      20.390183377923321      20.311102249117003      41.583379537811972
  3744   1      46.685592091337895      34.799286909225913      10.719522291745422
  3745   1       26.91724500895516     -14.615112453250651      44.848298563705086
  3746   1      6.9344709288205131      34.124943085719558      27.583256372634803
  3747   1      50.476459767265744      16.371260463192833      19.729451543963989
  3748   1      8.1485327619189114      18.875717134150488     -3.6996883252657211
  3749   1      39.623089542265113     -3.4154302959178122      33.684993346147486
  3750   1      42.520697877441783      6.0604391191373335      21.788798478246001
  3751   1      4.9569380741285425      13.015823441702043      -5.573174389811645
  3752   1      19.639285771794409      63.261336293268997      33.367830043805327
  3753   1      37.542059301434172      6.9185661179187639      22.517352800800047
  3754   1      28.833968828139334      57.157943636849872      21.357112164938449
  3755   1      12.867663242634402      15.629262311589654      44.194443765035956
  3756   1      54.817690835831144       22.91373346557706      26.479219236277196
  3757   1      59.403769114898296      20.696435422766431      22.305842590362079
  3758   1      27.721594343084789      46.465573381433281      13.537710187123606
  3759   1      11.390457521633031      36.822884723131658      27.404499788640923
  3760   1      10.757143214590148      15.438547728629665      26.130416769027136
  3761   1      26.589853874184541     -2.3013288049523108      7.8506365468030435
  3762   1      14.813485524903815      1.2843831291624377      55.705911810756376
  3763   1      31.278413109405172      45.721596083244087      7.8594181279613071
  3764   1       31.77569161037021      33.675757614362801      26.759590167181965
  3765   1      20.170221707287308      4.3065016091130923      14.122225439601689
  3766   1      19.116772083222234      19.041673734695902     -14.933057255384741
  3767   1      5.3141448677052123      31.474098675195204      44.948293675039338
  3768   1      65.469356151785405      20.235348983575513      20.113202506422784
  3769   1      54.038090275867766       17.89448040805981       21.94021888482451
  3770   1      55.707331883164962      23.690154419786751       21.19491657439087
  3771   1      -8.441658526244499      39.282901250038847      44.732025010125739
  3772   1      62.890985332131152      23.339294758487181      10.819869712162184
  3773   1      11.708504582099733      13.308700144170514    -0.17125359904939819
  3774   1      51.115662593821042        70.0807141723418     -9.2184144062230438
  3775   1      39.892919063009046      28.011946523435839      14.732647657935958
  3776   1      31.690857425826557      28.071500941805791      39.689446705970681
  3777   1      22.287092324716561      7.4305919857735399      72.381204077969116
  3778   1      32.884734953619748    -0.98900044159083411     -3.5063950476119894
  3779   1      47.147658078332171      15.860250774018363      50.282609345179651
  3780   1     -6.8286464242861094      46.998244620250951      15.039838311433583
  3781   1       31.03172375817325     -9.7059240437547007       4.982821662565236
  3782   1      46.236479297212881      5.1271380898820169       17.98354969043427
  3783   1      15.038630920559973     -3.5443831297443862      15.916488646621996
  3784   1       28.95076479039146      37.398111799850646      50.754342363017734
  3785   1      38.000678906955891      1.7639704231264366       48.51465239907688
  3786   1      48.414146589488311      33.877386480058028     -17.937739918524922
  3787   1     -10.615570386304141      25.910096068335751      41.278823267510234
  3788   1      4.3057156485142301     -0.5677207453068146      59.036311803204541
  3789   1      41.636209789818878      52.308756860558049      10.463407831414196
  3790   1      4.9349781258009928      34.514499940566239      24.846495094579112
  3791   1      3.1670045930166402      39.804165913534149      16.177066589331176
  3792   1      11.732792834405686      35.461523664280641      24.284197938876574
  3793   1      20.478181462857869      9.3251514384583611     -4.3992987676453863
  3794   1      10.573263611063632      17.433982371896821      69.713743107886032
  3795   1      14.524812667573524      16.717093508480701      31.676489014406823
  3796   1     -2.6370137876424358      24.745667817325618      1.2326333635832907
  3797   1      3.4292173468634903      29.024560113242305      30.177248820576526
  3798   1      29.528796237814777       17.12612676779489     0.34524778266661876
  3799   1      50.070715380678472      46.131022787916621      4.3941899209242141
  3800   1      18.326874419808235      28.151377572513603      6.9909503996366267
  3801   1     -9.9154550699027482      8.6649778002072999      35.240888522419276
  3802   1      8.0897790806027512     -1.4890875790568252      14.644303796144682
  3803   1      58.494852432303588     -16.521003004006751      42.395745897131079
  3804   1      29.965413003755973        49.4717149107843      32.358226940914292
  3805   1      50.374380399109604      39.147003362788439      29.775618948159885
  3806   1      22.815065874630577      4.3927261668012862      17.751744174091318
  3807   1      3.8878807021849315      11.116364060891708     -10.697081192393943
  3808   1       20.05790747059093       41.95920715383987     -8.6742957204595115
  3809   1      21.240084756407583      16.947501979964791     -15.806549266910547
  3810   1     -3.5601408447435996      31.300623827234059       35.65007510607839
  3811   1      38.055167099569445      -8.253686728244702      -19.72850390601614
  3812   1      39.074824852342438      17.427589349857676      25.941635560141421
  3813   1       38.28723001996768       15.10637499014061      34.983035523181094
  3814   1      35.346161760390387      18.262799402700285      33.396238640476774
  3815   1      2.1685246445007875      3.4420875526795061      55.931957765961855
  3816   1      55.200352939380657      45.244521306986542     -2.7668924395286791
  3817   1      48.628819799043256      30.239533001884986      23.716729561291466
  3818   1      72.800287420632372     -29.342132883005956      22.521313362217615
  3819   1         26.939073242151      36.250287458864463      38.001156159861097
  3820   1     -2.0714973173098863      37.857264419592866      6.0968705549427895
  3821   1       18.46059406703824       10.02396796018974      32.771811227712973
  3822   1      23.494343787293896      8.0405263646624867      37.724182182630315
  3823   1      2.3559054222953946      28.887483451329469      33.376701642765795
  3824   1      51.643298189126277      8.5872524548763707      12.790890355312195
  3825   1      14.326734447474907     -6.4594591222359563       23.05625675702435
  3826   1      14.766409231998885      17.182069875042117      19.884162613833134
  3827   1      32.165449597306704      19.150978877996049      18.971964958488606
  3828   1       4.898974867106662     -11.801069012867684      22.556076179146022
  3829   1      26.480464150774871      42.496904603589542      35.408006563440509
  3830   1      33.171156605982489      48.472037404965079      31.756084132529502
  3831   1       49.95931909304565      3.4494570513925398      30.297586836244289
  3832   1      47.619681688794351      32.920127104350243      13.418822224986732
  3833   1      15.971836237796271      18.218417558743891      17.035355771336405
  3834   1      24.741212200097213      33.683991257379674      6.1301728333819945
  3835   1      32.716261471151995     -1.3590627555474815      21.162588550596045
  3836   1      41.283932147391049      47.066087212516521      46.517642927534609
  3837   1      45.759992968221546       7.852504435602973      14.670571351557442
  3838   1      13.213456042081974      49.446837485161488     -5.5282079475455843
  3839   1      15.087407217038423      20.143920428098653      38.062431907390952
  3840   1      17.843587038310154     -1.6663447597155991      45.286125096475743
  3841   1      4.3609637511766826      21.754957199074326      13.433086048480989
  3842   1      8.1016804125545896      8.4981226047128384      -1.626113228549859
  3843   1      38.194496725930762      16.349771909980834      9.7592058431131061
  3844   1      36.193276018983241      4.0051673924309643      1.1012361180577763
  3845   1      15.577126063451466      35.254871916778797     0.19508161506247784
  3846   1      42.629634030686091       36.21384018964681      40.915800169198185
  3847   1      21.284521466375175      45.320803489117537      18.113070221817299
  3848   1      20.073515386703196      9.2135176623748052     -9.1031335992114162
  3849   1      56.355494770556319      51.353014872443417      31.745109224611621
  3850   1      44.446763416732821      15.088497987395337      52.026130636343041
  3851   1      18.554348487349763      35.117954871135147      20.363218705971356
  3852   1      19.838011659678052     -2.4110516353262894      42.441094634799832
  3853   1      30.562586738652065      36.601892269150724     -12.066058386426922
  3854   1      34.399065832068096      51.239597173466748     -7.6060459624818026
  3855   1     -4.0382417128567649     -9.5626802237225306      46.634418119809084
  3856   1      9.6558485445048152      15.413238062724046       6.587370651566677
  3857   1      3.8343307396567496      22.066443711131019      8.2706357904936638
  3858   1      31.588767802987192     -6.3666145229457545      10.826062284104944
  3859   1      14.566128658937124      37.839431107472514     -5.3952646597871441
  3860   1      11.077310044617976      14.964066921273535      18.649394707107888
  3861   1      48.928730551689448      34.262164012562295      37.031269171728127
  3862   1      7.4334578245407696      23.838987190882676      11.128317295311867
  3863   1      39.229273207797355      26.943377513375708      44.263687185009189
  3864   1      16.927648400980225      16.258766628902389      -14.10652616429925
  3865   1      8.7960393685037648      44.104153144262213      42.966186833185063
  3866   1      14.653730790730295      21.672367196700847      5.6865358187384416
  3867   1      35.302235354302503      12.257348653010878      29.163200361716871
  3868   1      38.431343129735744      21.483887116480581      20.697041951322419
  3869   1      9.9374733300366351     -2.2419948723831555       47.31361467640204
  3870   1      17.508772861789666      35.245707311051078      46.125504645031441
  3871   1      57.518096420922966      76.534462241990255      30.051967373314206
  3872   1      45.630467831151975      37.031825685722055      41.098578563913932
  3873   1      -2.523909227353589      41.841101857094991     -9.9947552305690142
  3874   1      16.398012286138464      31.810223069026279      44.359245454043574
  3875   1       48.94417524538266      13.123054935994524      38.390680485758509
  3876   1      46.850051397952811      25.793853429560048      29.121845996579534
  3877   1      9.9372330256498298      49.743757887031073      1.3468829875085075
  3878   1      21.946372220006385      19.652762247552506     -9.8801940356510407
  3879   1      19.138699405412723      32.352777279301208      18.478269476128578
  3880   1      20.640828355983995      1.8258300203710121      22.493153680428374
  3881   1      48.481102971143763      28.959463165752197     -1.1929486749939611
  3882   1     -3.3950644523902276      29.866056224123376      11.912860894947276
  3883   1      10.135037637200256      46.131104210922736       7.210969134466259
  3884   1      9.4669939999017174     -11.673822035414652      30.014793113929944
  3885   1      15.002877135970612      21.766877709942356      35.089350932602109
  3886   1      5.7112018645276201      37.016809130844408    -0.91876935716095365
  3887   1      26.745052460991118      9.9983915729902613      28.013662056011256
  3888   1      9.8995138431205802      5.0889933348528391      38.738688402144028
  3889   1      2.2224371765393722      36.448238005982191      15.948916441975562
  3890   1      25.131310028149503      34.060402656183243      40.017412871885163
  3891   1      12.574760859002559      55.704989831319729     -3.4125316282384559
  3892   1      38.538499802984774      3.4391175603556676      43.487020232333315
  3893   1      10.796447130372322      16.536708902726136      47.464310468973146
  3894   1      29.110347887710525      8.8075443805534608      31.219578868453358
  3895   1      45.327455473760956      27.944542512805494      21.328034840325753
  3896   1      29.473224163318864      46.640184216977772      22.673670270504935
  3897   1       6.862893453835369      14.351683422924024      29.179378874351368
  3898   1      9.8597706620501633      6.4792284909708249      14.090693073792186
  3899   1      28.288381015521175      40.283873316244915      26.169666491034189
  3900   1      33.054204650855496      11.196196597818155     -2.3565181148636514
  3901   1      32.584434316157086     -12.142418501207356      16.922969473791628
  3902   1      3.3279866217634306      26.647401674372766      42.298018912952514
  3903   1      46.215042496711341      48.525271127648161     -2.6595383344236594
  3904   1      31.257255446468868      26.478175102553593      23.678822079093564
  3905   1      15.410079778563892      13.450237371061188      22.282448671744184
  3906   1      42.293235401896403      26.748350666679961      22.215787745721475
  3907   1      42.154582445165225      19.985787674075567       35.90501183252907
  3908   1      24.275608500971682        25.3372002668556      52.798356384027734
  3909   1      22.285599448232428      38.912601694673171      24.985121755903833
  3910   1      18.260739142271046      65.199136451218791      23.683425343674894
  3911   1      31.933219901273258      8.4229163744567526      39.887360855546632
  3912   1      8.4976536251133794      32.241850312182748      19.265129654604376
  3913   1      26.618505825297575      30.857021570051522      44.454542221039894
  3914   1      29.930662928206853      3.3875445773751958      16.048146101246264
  3915   1      10.229075211935468      49.826456710795114      19.430486945940885
  3916   1      28.566289977115513      34.218121028145532      58.858712998590583
  3917   1      20.432444287939006     -1.2235107792334885      39.370688239555165
  3918   1      46.429182223575332     -4.4885714450792209      35.569550178953257
  3919   1      42.750700516999892      33.751635564364484      53.992973717835113
  3920   1     -12.078349929671777      27.530868117597116      8.9309555485565344
  3921   1      54.521150330769828     -7.2710705917170086      32.609039014683688
  3922   1      19.873296760474467      6.1443095906140659     -2.4304545596425271
  3923   1       36.55814687850976      -14.47908247603957      9.5067460431406445
  3924   1       5.039935094592269      37.406165159801773      27.317436104003889
  3925   1      7.8233746558879371      20.873711465978889      37.075289307575225
  3926   1      16.869909670080414      39.051065071684356      33.974789691362957
  3927   1      34.366024645474923      38.627958702517617      22.752214384596396
  3928   1      34.148514671904962      5.4732818529934493     -9.0036746777235859
  3929   1      27.736543518827272     -11.613795598972082      13.193356241455907
  3930   1     -19.546298319182991        2.98305991469064      4.2335837277591644
  3931   1      21.434454827441439      29.190613582090975      43.097746693880552
  3932   1      55.778103287079297      21.685641946367049     -4.4076044759157478
  3933   1      28.867716981759063      14.116899496679164      52.430315021359021
  3934   1       59.66049179126545       35.06466123733194      20.817532887049889
  3935   1      38.128305840914592      42.262834113838124      59.068568048577568
  3936   1      36.944672176608542      43.616874805269177     -1.0220977935446744
  3937   1      16.396721455067166      16.967012900208505      48.222476984027722
  3938   1      33.430784453294173      36.619491917968197      33.573554328604132
  3939   1     0.29257053450127779       40.19656641809884      7.0906113823885724
  3940   1       26.71141313916565       23.45750252040283      15.339309632679253
  3941   1      9.3221679351202713      36.961363356027569      53.581888858208913
  3942   1      2.8657543038507951      39.305525909831282      34.801044371933202
  3943   1      51.721824346177641      33.337111007463541      45.633282268952819
  3944   1      10.032933560324253       2.841238411394611      28.187866732496691
  3945   1      43.283011470837984      42.930431038371523      35.225779450364264
  3946   1      39.018861385953926     -4.0667759178108609      44.326598820154295
  3947   1      27.093535468470538     -25.786516679658579      28.858074218086507
  3948   1      11.855510560967502      26.351230022969279      -2.224591449691538
  3949   1      33.155349725078175      39.745145931920945      1.8288785138482333
  3950   1      31.169531728524557      15.829465903296347      19.319457312913681
  3951   1      10.059229900136751      -6.386748266774668       23.58070615990659
  3952   1      6.8264005196590363      39.436001320916311      17.926720742156398
  3953   1      21.506501622178195      54.312899340513312      50.286056557264956
  3954   1      52.366218061342614      12.150601927678274      33.552170183581154
  3955   1      24.547964188092973      15.977222206716341       13.73883939297651
  3956   1      38.245252868338632      10.282438811221979      42.831418665700234
  3957   1      31.963863136813533      36.407471861629773      23.528685807611758
  3958   1      30.618933743954141      29.386825940534322      33.055555478213549
  3959   1      9.0820542720768689      45.927011296878895      28.639090323664629
  3960   1      30.677529246955288      18.060621055324525      21.703770380625876
  3961   1     0.93856292113261464       3.863339586153796      18.257522815219566
  3962   1      3.3676448703504342     -18.118481842611445      4.3720429330629589
  3963   1      16.712884217174089      40.177085104461426      50.768172736662002
  3964   1      28.102526635049113      3.3644195144989699      37.499888451446814
  3965   1      42.602955486509416      7.2700589391433148      15.865801950998312
  3966   1      27.297530903154435      45.173586627153476     -5.6909772413769426
  3967   1      -1.594552043607643      15.926328191466361      19.212395361812028
  3968   1      36.250122370208651      23.007077087747763      34.363708129436695
  3969   1      -4.926055130667744     -5.5846503141292088      52.643387194557242
  3970   1      29.206775314074491      28.309441201281341      30.460684646736045
  3971   1      4.1289764082898879       41.42088272133811      26.127508983959697
  3972   1      20.495728160097041     -0.9767469268463933     -1.2304575203861745
  3973   1     -6.5933722466769504      31.177650251251588      37.540064461536609
  3974   1      29.441384369508121      49.095717274616838      13.177349638887348
  3975   1     -1.4863367423550411      28.241058286300365      31.988727806699117
  3976   1       61.06665298068981      40.309489318739871      45.011861590965133
  3977   1     -1.8006254597905267       2.054342394900365      4.8459900866282144
  3978   1      33.891445701770088      4.0300415792261521      32.657029991022092
  3979   1     -8.8694401337359157      1.4592275975706652      29.182253430673281
  3980   1       10.94384000658917       29.78361186290693      18.961079527009627
  3981   1      19.041270046767689     -6.1299084558301189      17.397233820370104
  3982   1      13.540411333105297       -6.66042229991589       36.23854756547783
  3983   1      15.066064485614827      35.018521562679318      37.513432870728835
  3984   1       7.278418629800508      24.902419967434781      32.837035573354008
  3985   1     -26.984669103492401     0.32765607330593105     -6.6759683494763955
  3986   1      40.774429025727748      25.654649631880542       12.46215925194762
  3987   1      49.163320780655937      19.905283192513043        24.4467361539979
  3988   1      34.818294201595812      1.1013726803728405      38.191100610824655
  3989   1      24.334936362894442     -10.350711008527933      5.9641837351707014
  3990   1      48.350932122464513      34.941070525317699     0.23830486182085028
  3991   1       52.73879405698635     0.43005915869746325     -3.2538313207814249
  3992   1      21.175839423986488      12.161399359542472      36.749490866559604
  3993   1      46.424125567333647      41.890200492530212      43.362258919477348
  3994   1      18.837073332891936      12.763735474503102      21.870784018808251
  3995   1      8.3777624622853519      45.384768636364363      4.4229810892075747
  3996   1      17.319402127635083       22.21157154433719      27.542167980296817
  3997   1      6.8380083462821961      23.243321943241423      7.7233248718891465
  3998   1      25.306413175646707     -10.553082593368327       49.19402327564071
  3999   1      10.714204951828847      36.513147759056245      13.216433077527677
  4000   1      10.071536427094152      23.246811476918673      41.938141850701427
  4001   1      12.373211021090121       32.06336750879948      21.681069393774091
  4002   1      15.767107868940263      24.161878393929424      41.404824670450125
  4003   1     -18.329885422230209      48.382631954826564      9.9911531168441758
  4004   1      15.567322216285627      23.262400953921315      48.475075668057016
