(written by ASE)

4004 atoms
4 atom types

0.0      48.780000000000001  xlo xhi
0.0      48.780000000000001  ylo yhi
0.0      48.780000000000001  zlo zhi

Atoms # atomic

     1   2     -36.352758599734415      50.391217820378088      44.448396426954055
     2   2       46.92714986308539    -0.29704163666070998      48.056862243578678
     3   2      27.270452144583945      22.261565739687104      21.615116022854018
     4   2       56.46124929997918      36.707713078793311      49.089648400602371
     5   2      17.195069607103505      55.865853535806281      2.7237947383054597
     6   2     -21.297120223496304      2.2808603986215563     -20.414307882118258
     7   2     -22.158104929623264      25.426091914905978      24.616950159804709
     8   2      6.7325836224720765      46.600904466013617    -0.43007195352177957
     9   2      37.387143591555883      34.321968989484738      29.624593597394668
    10   2      8.5456726786265609      49.929797102431145       26.22306027501201
    11   2       53.29008207010304      24.369609637361229      10.501124551166251
    12   2      22.007328084854965      53.647465851186908      49.923857933596572
    13   2      34.973581002490526      64.615729401991771      2.4760371794465028
    14   2      11.316755000109259      46.355257933413718      1.6049290149718289
    15   2      -19.98750996666347      4.8573323539158206       14.41631365850146
    16   2      14.990310722290532      11.661716876065123      17.477459358610524
    17   2      26.028217734376984      47.625909639144382      23.765917742235548
    18   2      42.358046127882275      19.172133017603819       59.37821612870821
    19   2      2.5086248400850319      44.723301665483078      4.9619889317570935
    20   2     -2.3166822815135504      40.042853145634773      67.127548991780969
    21   2      37.437287677678036      31.468164429483615    0.017313812492692215
    22   2     -11.866166655629355      55.020855706863209      31.983833604525778
    23   2       21.68529724484641      6.7790206585998352      14.992818070193119
    24   2       44.82782359400268      35.720093832759702      31.578544255188511
    25   2     -12.726923806132584       32.74936843384949      36.208442735643381
    26   2      25.587618034266512      35.434192803806873      8.2064969145762969
    27   2      16.652587331905458      61.379365416603889      22.348771229868223
    28   2       35.53668616919196      9.1852707944247705      40.676707375648924
    29   2      13.322431652117499      6.9091895410931636      0.1520576251524286
    30   2      62.955388700113112      2.1038251363006815      28.749782624494213
    31   2      27.744353954432906      32.182659593810961       16.81268380317448
    32   2      28.970322808815119     0.54758042142381713      52.897465703993525
    33   2      53.836345956656771      17.948608910152632      54.749641154666207
    34   2     0.96308718032330776      25.399051278992292      39.249551421515235
    35   2      2.9296099251460839       29.88893416695857      45.782332434675119
    36   2      32.059528757496814       14.10891889192642      1.3373839425449741
    37   2      45.322498137948273      39.611514715782477     -15.994209058482578
    38   2      24.553708497880237      3.6005399891021823        28.4020495676913
    39   2     -15.159182567236975      4.5285335165228675        64.7066459062397
    40   2       45.40476887697308      53.670688501240853      36.189803939987812
    41   2      69.177491948728814       38.73034586554639      3.5784322310510834
    42   2      29.452309333997285     -23.191048930387215      38.899058822196146
    43   2      41.624815831529816       33.72602530324869      36.318220763777568
    44   2      36.969271968622138      36.538655074387279     -11.013341818246039
    45   2      22.177633060480321      51.367382129929773     -5.1088231372162296
    46   2      6.6516999620089718      47.211600640507477      3.1791256177202487
    47   2      21.380418513805356      35.539994825048623      23.777319055719179
    48   2     -6.2914419444920187      25.480642426173066      12.518613094369343
    49   2      18.017786437944903      11.192286375213305      36.319921327227988
    50   2      5.6075131186925642      44.453808791098929      35.209622054789818
    51   2     -21.841546789265145      41.289831514118305      15.473340863709346
    52   2      36.067680880381339       68.81737649984801      51.081915574003368
    53   2     -11.562818515339696      41.374730664363035       17.75865101282826
    54   2      40.278408943416956      38.641538085167653      20.519216184867531
    55   2      29.152433698961964      42.772193522686912      53.478224374057639
    56   2      31.785925095243844      30.680894447726736       26.85472295416891
    57   2      13.511993850987826     -4.0141924971676008      9.9819377712799486
    58   2      26.003596551719326     -1.0128630480424623      10.273579595688901
    59   2     -23.593561878623934      46.684598771876807      34.323941416788252
    60   2      36.595501446141242      34.401824429106703      33.547995576240368
    61   2      12.398233410180014      40.851894992564723      24.140651200145019
    62   2     -3.7195585918980067      18.361145368584761      25.458246474750663
    63   2      28.432731943447976      40.097562767880902      2.5278083402728098
    64   2      43.984913671138976      23.622692277598112      30.268678116100741
    65   2      15.786480136692525      18.008018549860129      -8.390892905390233
    66   2      41.214065581609347      54.432880469368314    -0.80244406588240014
    67   2      32.258783432427272      39.879462080687503      18.694172780444315
    68   2      30.094699212194332      19.679040425346734      29.612859784052279
    69   2     -10.624050633271507     -17.603310917793326      21.120848214760116
    70   2      17.648052678916034      -3.453872732949006      27.737532842519347
    71   2      34.088354588806794      45.938235866796433      43.715351404228073
    72   2     -15.985910135875013     -10.739002536424548      36.706314345020594
    73   2     -4.9601682134016194      11.182677514865254       21.43747902071857
    74   2     -1.1144771633289516      43.364432615659133      28.910833732762679
    75   2      18.566208258683204      48.886289595185566      29.832509100695191
    76   2      54.112591408454122      34.599957239844358      16.087809666996559
    77   2      21.906907752420278       -2.61528205092341     -5.5684118936989497
    78   2      7.4310674882732455      35.118316705597351      9.2707506457402094
    79   2       24.92344981262324     -24.057576706815357      34.310866426791755
    80   2     -9.2290687395775013   -0.039137430096868604      47.565062823624032
    81   2      15.860777270957543      46.687093830719455     -5.2368157448227954
    82   2      39.617208537503203      32.699150951833971      33.480496741978705
    83   2     -22.768917681165075      17.700476944747365        40.6881143670957
    84   2      54.989526103978079      3.4924472176176677      19.333706498457339
    85   2      15.896831104190348    -0.49328903998721918      9.2822230360246927
    86   2      31.571076350637199     -3.3922647074301784      38.100351336151263
    87   2      55.346791860409731     -8.8328256839504977      33.065510839426771
    88   2      28.011820650494872      29.442313244729799     -25.222116860432997
    89   2       18.40682637296668        25.0053063025053       15.81184122060519
    90   2      50.885901379964011      11.453208974152384      33.220580111547022
    91   2        54.5510191775466      34.865798680592263      40.387728387796137
    92   2      32.183239170192934       48.56519848669484      36.480761626301614
    93   2      16.825452803942319     -22.435188936351786      26.567566821151178
    94   2      42.720328618417319     -5.3019762478688541      12.475980926011054
    95   2      19.444795284068224      40.002986307024656       28.06733813238289
    96   2      52.632968602798705      37.325661526937807     0.24387557710025021
    97   2     -8.3598308146597038      49.708727991391022      21.612846487029319
    98   2      36.710781211265449      34.452980659631692      44.305327857092713
    99   2      11.266904778248668      11.348656001854321      2.5099004215869227
   100   2      62.287691296130028      40.227294844690604     -17.471446621994829
   101   2      63.384409308199729      27.177179934189976      36.250316521506342
   102   2      38.256704521639499      45.712385015544449      29.114532978095259
   103   2       27.87036332385113      39.144011890554431     -16.462327915458637
   104   2     -28.357145991175337     -3.8604445259675444     -1.7607983628387633
   105   2     -3.5052703787995148      43.104023575293894      19.702547681521942
   106   2       14.88762769046361      75.635468969457975       1.464755300745594
   107   2      23.544037601074645      37.525331186718503      43.861105999499244
   108   2      25.860690690513415      30.697656387939631      33.253554208963855
   109   2      31.210435804133894      29.865739151966856      21.927243623829359
   110   2      43.696622339887426     -13.287258444774897       26.19788130480535
   111   2      24.011297426329932     -11.682354495648589      38.391534983856062
   112   2     -37.909605910759133      46.049406758622851     -29.135769191348441
   113   2      21.001822333837158     -23.777830732047175      48.786740402503767
   114   2      19.392505481661054      20.303114395189816      30.155400123265991
   115   2      3.9431323084332814      20.233513490761172     -6.2332662142803574
   116   2      38.105664269454323      40.619773596698508      9.4078324732706129
   117   2      22.334015523942114      24.319515425387888      55.548976789316107
   118   2      95.882821448329778      13.625312080279866      29.156346358627502
   119   2      45.462315809438358      39.915409646722296      14.999453144295041
   120   2       30.93210919321859      2.3025703097212982      1.4450954481213343
   121   2      40.360877135809382       38.49161410018651      38.138878370098084
   122   2      19.087226242509452      3.8715830388499128      26.794371948596893
   123   2      25.799232181530986     -11.053521213225967     -14.013713261433274
   124   2      26.797729884653769      15.856211036128592      6.1008971231144038
   125   2      15.303600883966702      14.262230794890181     -7.3007775223249514
   126   2     -12.941978800981367      11.601491296399868     -12.640024741383115
   127   2      35.773691491382564      11.197096905108456      31.161440567284956
   128   2      16.045888889583452      3.8938163218617854      -17.10451509118084
   129   2      41.855371118635638      38.799295693387556      25.118750041404162
   130   2     -1.2772723756583564      29.903665608466696      10.293829170369946
   131   2      41.346120805293992      7.2883464366695492      6.9015672167241391
   132   2      19.556420230682061        37.2681915550708      17.148839662358782
   133   2      2.2949986761579542     -1.3116012693907317     -1.4339093294620369
   134   2      -12.21993880454942      64.889149152381151      8.1710794686359716
   135   2      49.328604759685938       1.253526725603276       44.75418009652649
   136   2      11.568695442942778      38.849086016197184      26.219365770824954
   137   2      10.408420170632498      33.245337412703421      26.160024045474767
   138   2      36.133834489477458      23.219969209137176      17.814847864187222
   139   2      33.920023002834775      2.2615216739971102      34.004050886082453
   140   2      24.956476850897278      6.1157904541177599     -6.3943284594406489
   141   2      22.471860983863177      6.4589224560559915      46.083772545665568
   142   2      34.448431026540888     -5.5965863064420462       38.07037520936148
   143   2      45.602619924663209      9.1449872508621439      31.244859247406882
   144   2      37.839107411346177       43.43064914108011      44.369433465983001
   145   2      12.402473688414515      50.675002904082511      2.8404731334040818
   146   2      62.009632764457386      78.871091104455658     -13.084992760138366
   147   2      3.9836893889015994      38.664620029240396      40.728002592879939
   148   2      31.973663484432709      38.729382881345572      22.327242194612428
   149   2      3.1269620246226224      1.5270786680038964      26.876409226975259
   150   2      17.059362388201059      44.600895484040237      31.118966367791518
   151   2      53.737730850718009      33.218772834188613     -12.433765860895015
   152   2      5.4809832187851626       10.32166957360314      48.250186532635347
   153   2      16.151298384814041      22.235513367028091       30.34835833306337
   154   2      46.327203176574635      45.755026424050328      10.897182718708128
   155   2      16.218222380540034      38.038735977522236      14.001245880541495
   156   2      23.618097553598368      43.013619694373936      28.869602173644626
   157   2      19.408032836444992     -3.4683383678348378      35.249243950457718
   158   2       3.719104392428723      32.096431971292617      13.366435501630502
   159   2     -4.8131780924463516      2.7287362866932825      38.878919966219421
   160   2     -19.369541732475092      17.836464756058895      19.096405102669326
   161   2      52.356064091335313      32.183084754555153      22.436938234982239
   162   2      36.061513942950874      48.805160821852617      49.937178697614982
   163   2      32.356705894847067      27.106749390518392      3.8340691179511244
   164   2      8.3384679701696971      50.456596112206753      5.3847418615023779
   165   2      41.473296257148021      34.985941317022622     -31.047618749753692
   166   2      45.197788181874621      35.307305633691684      48.099241262777781
   167   2      2.6255869910624852     -5.6436726614725794      41.624177478820954
   168   2      7.5101242509291151      44.000191180228867      4.5049534844219643
   169   2      27.832633918856271      51.652158666221482      17.063374536832473
   170   2      8.1966740173283874      8.1389577242728315     -3.8358423788542297
   171   2      34.068866644902947       54.45079871903588     0.44423996825698653
   172   2      42.130016207656759      5.4076815424524138      29.996901328348002
   173   2      28.420937305775926      35.163908523565425      20.124433770527677
   174   2       46.12346466059946      24.958266876341092      38.055513095343507
   175   2      26.871606250101774      46.669124472101188     -11.524055238249799
   176   2      11.409638152477433      45.009827912640105      41.035591281651946
   177   2      20.416660821053664       28.26748693411734      45.815035386060053
   178   2      48.489152676827452      30.003401646031715      36.493161617559181
   179   2     -14.824412303890904      71.642913344700972      40.832868625691198
   180   2      34.636045676733062      30.390369608076373      23.878349660308992
   181   2      36.055163575956804      39.699599544364212      40.898511563655831
   182   2      59.880872216192138      28.014679289732758      14.023965224577395
   183   2      26.760470615184772     -8.6227861923460729      8.9669505230956563
   184   2      13.566115147933704     -24.255817385001166      13.052386549152716
   185   2      9.0446141444030967      48.147111298510495      44.587479440456569
   186   2     -3.7127301454671442      37.321925201867039      21.127669406845563
   187   2      35.477251669040342       46.33075024183681      17.817719358440591
   188   2       34.43202078872784      29.071130063125516      32.072095813900695
   189   2      24.009298755018495      46.759488775086034      47.967917199202233
   190   2      28.110534158006992      26.767626565055505      49.328538169385908
   191   2      37.188509593186055      50.132001935089725      12.854650238091304
   192   2      26.829257957093862      27.835825872985541       42.10153750689156
   193   2      30.315608877405584      34.652562010011906      28.517730700948622
   194   2      37.923693027588435      53.633465272280915      54.116698891075941
   195   2      49.462382708479424      2.1841406786733484     0.61376474445285967
   196   2      32.408957926794699      2.2191309343153032      38.967053632474439
   197   2      31.382268839038449      44.497431361251792      8.4903995019154994
   198   2      1.3126626487554969      23.529475009019514       24.56365941402769
   199   2       15.10376388495191     -1.9639038956973944      26.380258149952095
   200   2      36.596336084273226      58.749939410507274      14.867629849912452
   201   2      6.0795935400226844      24.345759971135468      42.698933651578422
   202   2       36.60059060120372      43.918044639041511      26.570934144221862
   203   2      14.735002153083368     -4.9392780901491342      39.495448871860368
   204   2      31.589294851475728      16.841094746763638     -15.134760533891123
   205   2      12.192396039644434      33.658589019078725     -16.423651185526925
   206   2      46.789349882353697      53.536188141563386      57.660078361609173
   207   2      14.176471002296976     -5.5253631211441601      43.175909406752012
   208   2      64.160241941302687    -0.86954816022700687     -18.039758479732804
   209   2      33.347915452415457      46.500064895956967      3.2694678430723174
   210   2      11.564270185432516      30.226623177295789       56.94534237191408
   211   2      19.232218621163046      14.479913935018459     -3.7958914120715672
   212   2      5.9969167234744321     -18.635447790959173      39.946458282684645
   213   2      32.872922716335871      63.896398653059897      23.195138370397448
   214   2      38.814248979714883      16.256920359041391      37.891315942282382
   215   2      39.690978001609011       31.88910878115912       28.67912049212833
   216   2      29.953146654629311      9.1410372267380868      40.412744095671748
   217   2      -9.507296233077188      18.099548777788812      48.992426569635583
   218   2      11.094854360195972      25.927915618984031      22.479488588673242
   219   2     0.24825140480262561      37.803266515359901      13.352189192091567
   220   2     -9.2114515726072472      18.879451936953657      54.465137836297636
   221   2      20.499336602559875      41.299477449269872      22.355895228081089
   222   2      39.496118779559865     -4.5835903787641277      37.428748272203208
   223   2      4.7295950489005767      23.510127741956044      -25.48299524851334
   224   2      27.672584315118566      47.217191352373625      44.886224565661486
   225   2      34.721017064227084      26.770582066287503      48.627536683531581
   226   2      33.079622882134601      36.885801127060354      19.520842305322162
   227   2      21.923930074373505     -4.7621812623978101      4.0692472304390179
   228   2      35.098966325145419      17.811699917009324      22.319487165079188
   229   2      16.094999628208644      60.405421063225944      38.641905881812903
   230   2       30.56703898014884      28.978200043927274      13.947469327297354
   231   2       46.61737054497339       56.57990060748584      24.184307094750903
   232   2       42.87810491275031      44.012149706311675      30.073623580053198
   233   2      18.459364769177487     -5.3548632323388183      43.074344205663806
   234   2     -8.8236467455581185      19.915376670148184      62.301034865412298
   235   2      33.764144068041439      18.773685452524518      38.423405905079633
   236   2      6.1013691549043303      47.451100580511472      29.060105163859994
   237   2      40.059771698844656      13.651536548467144      44.956934204575681
   238   2      29.571825504473548      40.295681612062765      29.867442049367437
   239   2      35.776532456837465      60.658848322886726      53.159294920469208
   240   2      24.312195089039047      38.500685799090881      12.524171010910049
   241   2      17.850864532613166       51.87562980385615      36.443265261687046
   242   2     -6.4347704693417214      42.940112779990301      39.568417045825747
   243   2      28.635017833438532      6.8363037691072046      43.424491699665793
   244   2      51.488877719202733      36.932795391182687      9.6150020473191784
   245   2      24.107199070073527      60.965377868202999      22.973134259620988
   246   2      23.683235724743863      50.502643166077561      24.969147778562956
   247   2      21.500121452606368     -3.4219262978396903      23.662091355371611
   248   2      49.913791043271161      19.899762918950916      13.516708246131591
   249   2     -11.388657124528125      13.891799184469884    -0.46877913805106353
   250   2      39.943662314169885       45.69623558948723      33.112434765281549
   251   2      22.401015780584334      46.803866730783895      9.6947907306754413
   252   2      46.181713749804686      49.449081387010196      27.137135753612334
   253   2      40.030564664184716      4.4702899864823129      9.6382628720045087
   254   2      44.569894868366362      41.511607008169932      26.757589747845707
   255   2      10.152871592649475     -7.2795552568925368      44.319352508307105
   256   2      42.095200776845942      31.171618957640494      22.127449784712201
   257   2      36.292751667420639      47.113833784148866      36.276581658743915
   258   2      19.866098972761467      26.543911417018695      41.794937956697474
   259   2      39.663857471647347      28.471297790110075        14.2674205454028
   260   2      32.945413328034078      44.519821758804547      25.951776841088098
   261   2      44.549614482634283      28.336795649283776      15.138797606747282
   262   2      34.493005661727388      10.064962887422151      7.6440615908009928
   263   2      45.884172584465148       15.44251336812439      3.8446511886165555
   264   2      50.186855424856965      14.545924661430581      24.775099802694506
   265   2       25.27683599031722     -8.7879110733353105      25.483691062733214
   266   2      8.2825814964364461      69.756926633257393    -0.35978071474168122
   267   2      7.3713137024482283      20.074577159720981       29.26783201100535
   268   2      22.572340427279602     -0.9324214089021079      27.348643651857902
   269   2      41.450182752467704      52.664936773095938     -4.7776552911509356
   270   2     -12.451193255894269     -26.249440815915936     -24.769947391648092
   271   2      20.729111591348804     -0.6551066912025203      1.9540150137444667
   272   2      57.046595266868415      43.637936754535168      22.927715303006156
   273   2     -8.9263828803710812      25.028098531125369      29.361896977467353
   274   2      29.803729653188533     -5.1902315249035773      49.418071692054049
   275   2      20.851266438990461      31.478482778295227      22.532285536431043
   276   2      3.6193803885595544      23.076941303673312       27.90513298925746
   277   2      24.633764728568064     -6.6544246140311136       4.806901812666446
   278   2      42.287682318981474      46.005703908633805      42.638952033096807
   279   2      42.168349931854941     -4.2673607403840705      17.033691051895502
   280   2      17.109908068997097       30.58348095771575      15.595834087916492
   281   2      24.452041497136783      31.183739908827686      49.003434312449784
   282   2      29.979533010591279      13.488922529784132       66.81485014826913
   283   2      58.140207406037668     0.68674004734718397      21.334311051864127
   284   2      23.880637948202757      24.782320787236252      29.180752804273308
   285   2      49.347477203086996      33.218936134555278      46.693777820047835
   286   2     -32.409094477202203      31.954951900239724      60.519171765524007
   287   2      42.574279705696071      20.761849887001603      34.880883277886362
   288   2      30.192469216542946      44.540925012253311      13.133842299292096
   289   2      41.962500560839885      39.348846695942058      52.052988935731861
   290   2      43.246255428203192      47.868332083532081      20.847068010695345
   291   2      -41.47557357507462     -9.7614418022299354      57.212556392085425
   292   2      27.275803612597251     -2.5608553431530123      62.535865198957701
   293   2      4.2778255891342623       21.62351894102817     -2.7044763793281263
   294   2      39.120215711043237       42.27469396441677      31.232135089945871
   295   2      13.575731962539441     -0.5999306676977294     -7.4222384507510526
   296   2      28.019690059735915      55.042328634461811       38.44491483230145
   297   2      11.899024897849614     0.37041213992733008      24.384879485713491
   298   2       32.50075019128397      37.762978871972642      31.311815055401301
   299   2      14.259688085511895      33.443365695947875      5.1787200016833985
   300   2      77.412972355465186      21.797107675970402      33.123093750266747
   301   2      11.005107539527762      34.513973062771093      21.061395410813546
   302   2      39.240516635816121      32.811180062790193      15.922714424011012
   303   2      41.068390380929436        65.3727591301069      19.073139761376765
   304   2       41.88022294400141      24.098480719481206      24.874702891006056
   305   2       3.269222867340086      7.0019936322512928    -0.30549907257521969
   306   2       37.65018537068562      36.075368751165996      18.060389502885084
   307   2      31.648671630590822      49.376717659501992     -1.1905770204189523
   308   2      35.312399456597113     -6.9234154721593288      35.016109985361233
   309   2      53.246769748537922      8.3764381667327257      30.337611239620049
   310   2    -0.82568927590442964      38.188329514042451      8.0182655465115982
   311   2      39.387943441207867      27.601551937750951      23.422384958466377
   312   2      44.355027111303464      30.932598378297371      34.799892118994599
   313   2       10.97101921596785     -11.676532079309828      34.696945433747423
   314   2      32.080845135546134      39.028115515772114       1.779540884138497
   315   2      72.202912606874037      23.453416194031632      2.3765484045565626
   316   2      15.802913772393572      52.574698937025339      18.692665530798223
   317   2      36.923392942666254      32.694820793329811      17.798145738303745
   318   2      12.638096272707715      54.322436524625481      40.341726575610245
   319   2      35.823913442110005      36.931052529783372       21.01820138295702
   320   2    -0.80273410403399781       31.39269028791292      27.521207689604651
   321   2      46.522975383715647      37.058017963969057      12.202302876472155
   322   2       6.657043719549665      30.678434660972425      61.788499878690921
   323   2      20.750036218892017      55.491398824628597     -12.011931184025915
   324   2      33.937112044360909      29.168792763064118      18.218962984280502
   325   2      2.2334025807623261       45.37318044806937      33.178566888536224
   326   2       23.27787056973002     -5.7291842162810767      34.145779917387522
   327   2      54.669144075652319      45.872135037767556       7.801007477843207
   328   2      52.658642544811137      29.875593872521414      26.202725857741285
   329   2      12.411340852367626      37.893315511409433      48.167872237870284
   330   2      26.928238956469983     -16.054997298223142      4.5768589411854084
   331   2      29.933814817329029      54.877233356937701      47.029509936497867
   332   2       27.33655020251614      37.406889354921027      28.939387414814778
   333   2      13.545797927306808      37.198970272920725      21.175863989729436
   334   2      21.297724527482146      4.7195341817211203     -27.198674883078294
   335   2      71.136141081777708      37.934824089664133     -13.173018882231526
   336   2      5.7406622324026912      40.842307890804797      44.822110162044261
   337   2      9.8503660242493662      27.231590358484066      30.789896524232475
   338   2      46.302160980368214     -22.681835135523507     -25.853348373953494
   339   2      13.891471018858908      35.995120812349732      17.697094788147339
   340   2      5.5394312376374106      -18.16013269082686      17.459545812846063
   341   2      35.265381494536747      28.533637682154048       21.42508317612775
   342   2      35.634815314944554      50.169761523283846      41.954014784998463
   343   2      15.464701930531248       62.63524336283993      13.569062311493109
   344   2      7.9273558483484523      24.548412863723726      28.071868503830196
   345   2      24.348641797638347      44.823421726881548      26.110955392234288
   346   2      42.501395892145823      35.056272483101253      22.406637238498384
   347   2       40.09186544096324      40.861889179813119      27.755800335708624
   348   2      30.907783163144373      29.142659762855786      18.493140777655295
   349   2      41.878020305721698      17.061850990319446      31.041002177960745
   350   2     -11.586700074959959      29.538975894466805       45.43905125186415
   351   2      35.291926231228956      16.867192656971071     -1.8313848820249332
   352   2     -3.7486069220653979      27.052633525761621      7.3641398062075378
   353   2      32.084912712107318      23.456052242939119      37.689953484215529
   354   2      29.155540840707033      41.858152482981161      39.417428973220282
   355   2      28.936730802490882      2.9805136660790237      34.463717430000379
   356   2      31.510673653586352     -23.828472558656461      17.689107460020448
   357   2      29.876374910260466     -19.725114866467877       34.02362313157581
   358   2      1.3722120964418818      56.404772473509617      44.684703959256474
   359   2      6.7586684415482683      53.446552526659502      43.498071402564825
   360   2      43.455416889549078   -0.029368625271100103      11.602655262312359
   361   2     -4.1886482370457303      28.795713292770579      28.325318324107098
   362   2     -2.6245241626656872       20.06967783006337      45.499518115155318
   363   2      46.599467880888575      21.330148191329609     -9.7630462476579485
   364   2      31.536671439583149     -6.5037030369254687      11.565128200276028
   365   2     -16.490656566221748      12.706511933933372       46.33903269493387
   366   2      17.880894211507361     -13.403909904326811      21.309992160507736
   367   2     -5.1495621864702699      21.228496045645642      53.480562677244279
   368   2      37.619927472231936       41.63243006376802       39.38872234227852
   369   2      56.794979731797305     -18.498868156183434      28.076022333839489
   370   2       30.47334083449519      13.997226452985824       53.90606668296045
   371   2      14.109212844217312      25.620949896261333       16.77078419048118
   372   2     -1.1404431837989126       16.10353880782214      42.373595178641956
   373   2     -4.7613063339682444      42.441330682335852      43.518215530380743
   374   2      49.918245951205222      59.844217799287875      56.487206977792887
   375   2     -10.028644862002023      18.072092443913316      29.193156872777461
   376   2      24.470509135349367      43.988099567693119     -3.5334662621051676
   377   2      34.144503641189232      43.160468916516621      22.137083463675495
   378   2      47.023884284375178      29.924994878659415     -0.7476671187482189
   379   2      17.325937443375874      71.384856682766866      67.495538489782874
   380   2      77.346731597500451     -5.6331598996197663      26.602822469885226
   381   2     -2.8132193959444662      25.426583204994859      13.078621985023029
   382   2      23.198293653086008      38.328982832110846    -0.51192238035265114
   383   2      25.678444463746306      33.480339929326306      62.625658662714699
   384   2      23.664421305311365       32.62057312056946      29.985037508788285
   385   2      60.472000103772658      23.812715061699954      34.140059481695701
   386   2      48.897049423101883      34.321775718687547      52.424578336323108
   387   2      3.1840137249372646      30.056233367757063     -11.402104200261428
   388   2      53.796941390651043     -12.812147965834065      20.527785695756247
   389   2      35.224665882588759      21.796423871555387      53.869539824936787
   390   2      34.645898331414109       21.55724765200948      27.028225400774264
   391   2      15.346078642569921      43.290285449818334      25.957321976948897
   392   2      16.332136857819592      7.5367911372524494      57.165781601581941
   393   2        16.6122155090119      7.1019195442947662     -33.020604694540019
   394   2      11.537521715631803      45.312063873087041      45.864702451890636
   395   2      25.528812029261118      36.489341654431009      26.112263664366321
   396   2      37.302756216507824      26.173012157814867       57.07865566262366
   397   2       44.29625266748171       39.71414386329316      29.161550243918708
   398   2      21.135472405437472      45.285450803695326      29.587284783824639
   399   2      43.834475096360151      47.771225352186491      50.266038057272837
   400   2      31.344579491263833     -14.151110749158777      21.401109497883446
   401   2     -15.853465600314943      17.218167633226422      17.402821251930671
   402   2      38.739087787257361      28.631859232312625      36.231329421169335
   403   2      49.543729217845872      61.975998708696522      39.792050324687921
   404   2      32.008116624448576      45.237554145601656      19.736233751001429
   405   2       31.83333710596105      1.1791139014604395     -5.7966751021446363
   406   2      42.936033014534395      9.0309960804734555      49.980010618368958
   407   2     -7.2081866743774858      16.035455377458156      41.877638909491345
   408   2      16.147807691687856      33.763648091234003      18.492708577606077
   409   2    -0.51492286598563342      20.801838520318377      5.6645027971091819
   410   2      36.013936849582876     -5.3492850414124815      50.006283768848732
   411   2       54.80241699180511      49.023747428343256      38.053214120892399
   412   2       5.957481459701282      33.100566544579721      48.628638216573705
   413   2      25.716794550645506      40.815561709630238      29.049736953487262
   414   2      61.052557896335351      79.925512932157631      20.886589710138846
   415   2      40.396622105533844      28.917052365649965      32.951149823877131
   416   2      48.022138259777414      30.324719370807657       44.84999817421545
   417   2      29.506938135875437      34.532410017498108      24.737781492093319
   418   2      17.065011031717461      45.305254896588778      18.854867292572997
   419   2      28.012007037021036      11.467861659860738     -2.0689306746057814
   420   2      29.048602956644928      44.517619126472994      30.433786196647834
   421   2      35.310373880926079     -2.6733559755946703      22.217352633008552
   422   2      27.891303749569929      54.239400993118792      30.208265424411596
   423   2      33.049811233782151     -6.9567208703928083      29.555237975174101
   424   2      54.603886887782437      55.339305197055019      52.647178716263504
   425   2      59.117835610668756      23.806712639523354      5.4946898067978216
   426   2     -8.7025135719113162      23.868360589644112      33.446658548803562
   427   2      17.277538593741351     -5.7973040959208149      46.484270129887918
   428   2      67.366122130870835      22.153808419484569     -46.025275911568436
   429   2     -8.1277820957261167      41.823520141248935      23.180736815403012
   430   2      17.991922820972579      34.907542968995074      36.306559588915889
   431   2      27.375351268312727      13.732723406812648       35.80067334864345
   432   2      30.662047654613474      43.033506766671096      22.494920798752119
   433   2      12.367091190778561     -7.3198546297062155       11.28055404413405
   434   2     -24.488127843005604      3.7483283669025704      57.143174545122712
   435   2      14.527728054731316     -7.7977423656563269      20.795081665045348
   436   2      61.043471739606744      2.8205131865912123      18.801104742952695
   437   2      32.152283575784978      41.221205195703284     -5.1250232336337378
   438   2       62.94229314268182      11.334193207226429      5.3816754167924845
   439   2      23.262567757383994      36.740209525561383      30.409543372983567
   440   2      9.2429456823847662        36.4585618751561      23.692054969957201
   441   2     -3.3475019454962678      27.659005346629225      41.545413317776017
   442   2      21.922153382071453      61.592207321065452     -21.269972894132458
   443   2     0.50102404528106304      40.391160797107425     -14.546824427171916
   444   2      9.4676930081137289      31.139848801161527       43.26615937378714
   445   2      46.576319036067297      42.465662692822157      52.349721014184048
   446   2      1.9516312089809973      38.746184412824974     -23.709229240118233
   447   2        29.3227814352291     -17.140820564227759      1.2583195037250314
   448   2     0.62484196636361355      8.1612499189298777      5.3544945857044324
   449   2     -1.9936017918043494       18.17171997654453      -18.07427020615048
   450   2      18.446228603873454      15.354619096356872       16.66981158976925
   451   2      29.950500504898347      30.360912528948489       6.033579935836805
   452   2      61.535840747722808      28.164915306200349      27.264568806211098
   453   2      8.6777767435666444      26.304236051115108      -6.600859870196282
   454   2      25.863428814105024      46.658153132306502      30.411851585209615
   455   2      31.370332459208829     -9.9430675905899797      14.504043453658836
   456   2      51.060174348205926      -16.16009993382082      56.003211640906486
   457   2      60.343111938867565      18.413904682301418     -13.991926472543067
   458   2      42.809980598221564      19.317483682844212      48.454245678198284
   459   2       39.23948524123837      36.321713546800076       26.08931444398182
   460   2       40.01597242935447     -15.818399475448922      25.070279558501191
   461   2      32.523137466681035      40.407422361300675      25.182372604333967
   462   2      42.684474197330452      25.049495358823791      36.235394199724126
   463   2      40.245493029897695      9.2446242002749415     -15.779702712558295
   464   2      16.171590809922886     -15.800157142440888       29.67106649573223
   465   2      21.651978383710563      8.7677620070172413      -6.180056276975086
   466   2     -7.0585868079313716     -14.114743153827495      11.857613617171186
   467   2      45.267052890480883     -25.807001434528487   0.0047181674954102949
   468   2      36.097425878821831      40.513446402470962      21.447019117638526
   469   2      38.866981159042204      35.781264066579034    -0.10616226286507202
   470   2      52.240292605605553      54.618794096393437      41.248032099532054
   471   2      -8.533391050178059      20.558888975663301      17.337213114509723
   472   2      21.246291420479508      1.3832769571640673     -12.651998839632526
   473   2     -1.5449255568986513     0.32749044380951559      58.805250539201424
   474   2    -0.73589892063273521      3.2425489946329025      33.242490277917589
   475   2     -3.8242142882978452      26.147711412446213      44.946210177067826
   476   2       40.00326742352302      56.426894618378398     -9.9479178109926281
   477   2     -25.445772700647218      22.196662256093724      14.749647000011297
   478   2      39.616022244624411      36.531647861082355      22.626776613926555
   479   2      28.240157482169025      4.4742638185486756      59.215915466554925
   480   2      24.288510957764679      20.448796352470243     -9.2829499721430366
   481   2      43.337277504712823      13.023389269511092      55.544885631370306
   482   2      19.426610277641089     -8.0645827347047199      31.198816422474831
   483   2     0.14368502682794071      42.016301538061455      16.442493052192454
   484   2       38.57380265050891      13.385650163512244      5.2319330230593364
   485   2      25.170684068666858      49.905026206761747      45.379588375159123
   486   2      28.983469624044396     -9.8412185685880527      25.014973619028471
   487   2      5.4009868045329723      1.8850508224417215      30.896708374631938
   488   2      44.047645937281679      47.333878268537774      55.516776450143809
   489   2      18.347881825773705      53.405921849578945      5.6892165513828292
   490   2     -4.3899321302055263      32.087599808201148      44.149463476583989
   491   2      50.792362615037618     -12.518815608867166      26.952739379992565
   492   2      32.486572868606387      26.367477916997771      23.097807515235946
   493   2      19.872644064936917      27.688248284724146       25.02301939359333
   494   2      19.829395025163727      48.528118678237107      24.874675020014585
   495   2     -7.5105162674102566      19.111962019622037     -9.9857250409002134
   496   2      37.441085124217217      12.071497313749829       25.82453020156542
   497   2        44.4287249154048      2.0616904078160569     -3.9907252344096018
   498   2      35.643654455588795      23.954030310803791      63.084446248335738
   499   2      7.8228028109423491      13.817974023486981      21.376329723163256
   500   2      38.721528274730822    -0.23765812465983746       8.545218373488435
   501   2      18.636347309297317     -27.912346431131326      22.571300795430613
   502   2       27.63913890477443      16.059849440846421      22.665903952326463
   503   2      44.670750810993368      14.539599428680376     -2.4954955570598125
   504   2      49.686719814080391      34.525793000385271      12.329435236580334
   505   2      43.578796222667307      19.304755839791557      68.247502197247954
   506   2     -8.4591468454997578      32.127299392966165        12.3976250865091
   507   2      18.807705168720016      14.983392087051419      6.5016304922318051
   508   2      36.807804313843334     -2.9382234269215424      41.112931546864729
   509   2     -1.4904769599920762      23.182240703468246      35.292127303535551
   510   2      6.3510571518514682      10.875656787576938       58.34272971605283
   511   2      27.372550316812379     -14.741885612768943      39.240969553718131
   512   2     -10.224254624235028      13.166806737698568      58.099846736714774
   513   2      30.574378579559738      40.472479052235094      37.256940607515887
   514   2      17.589023655376149      24.424349270005361      56.526945905223556
   515   2      23.919923141186921      23.580366186409833      43.555270800454522
   516   2       14.86709452720336      7.7484922153676008     -4.6199780720713095
   517   2      25.296497571406437      66.474930159171222      47.311419293185921
   518   2      25.305897272448551      44.064198950794285      38.833380765580003
   519   2      36.650174802916709      36.706937919639657      55.578812536061655
   520   2      36.561056525146498      20.626717246586569      37.314903136173832
   521   2       24.71756825133625    -0.29230730498926322      14.643556705932456
   522   2     -14.862593859113817      32.649726662496903      47.722877258401105
   523   2      11.891611987386176      38.349060633787936      40.559370029180428
   524   2      27.123303771587089    -0.60997600465895374      18.537779531723562
   525   2      49.010047299215096      21.235856662994149      36.127998889518068
   526   2     -5.9798399480873723      29.665121901074997      47.061109799852808
   527   2      13.755573323610864      47.473001610084104      21.827406494405949
   528   2      50.027471336779193     -7.8516722786198647       46.73106516760329
   529   2      3.1587200118784806      46.739345610789378      12.963530941607742
   530   2      26.824118717857122     -13.206599931562208       48.91306042828743
   531   2     -22.069418741138346      47.404228905993129       27.41561260874813
   532   2      36.783739725145217      46.939215871672317      46.244131365163817
   533   2      32.340175321868884      21.023547154482429     -4.0992734678831191
   534   2      1.9439610908872464       28.37168964289874       55.64009401825917
   535   2      30.789788273446881      23.796621511171416      8.7873693614808683
   536   2      17.257019382458889      30.149620663259121      26.044936836961778
   537   2      29.096198673777902      37.182709425425045     -4.8846451620373266
   538   2      -3.984702298386257      31.123567126157628      23.966114490229621
   539   2       41.40191712053408     -9.7580181653333042      30.647614113014587
   540   2      51.046679760636131      30.249271067042731      32.739370581817411
   541   2      13.834257085909512      16.759984667964691     -1.6479443673282825
   542   2      12.028850484792358      49.232560815636269      12.069375518064952
   543   2      49.440892337089331      43.085008932445788      11.671205040636677
   544   2      57.674834136760659      37.168083304415084      18.247244582338681
   545   2     -18.379216219876337      14.530492979771015      44.280162980114255
   546   2     -17.158950378075957      5.2826159142635483      36.430474752174959
   547   2     0.27397204186346108      6.4160265645524506      15.480728401905136
   548   2      40.456650890457389      36.775816300280503      33.416724030323813
   549   2     -7.5890988965621737     -24.556927565514766      15.582767176207001
   550   2      17.471769596101861      9.3272704032041442      31.480603070696038
   551   2      38.194604316601456      27.603559942032852      49.052007562295408
   552   2      29.409515468003878      32.165885339574224      30.968277931656186
   553   2      63.856070711259562      19.063856091435717       12.62888033402086
   554   2     -1.3515035651466518      45.584157226049179      37.035248469470574
   555   2     -7.2460087912440025      26.136903263159432      39.938174739815835
   556   2     -5.6092705492815629     -27.718560167740019      44.808124443839311
   557   2       51.86688603587065      50.014272156933885      4.8285080777447105
   558   2     -16.596711982892497      7.1894708856767862      17.820964047411277
   559   2      42.445922783547587       8.533219375114891      44.328917769885045
   560   2      6.3256502441920874      21.590111036148237      54.863913325051612
   561   2      48.357520164830618       1.358569914356045      -12.52622974303954
   562   2      10.331846807123172      44.345179883943267      24.950464337647823
   563   2     -6.7736310005533094      31.547964151061379      17.418863429622675
   564   2     -2.9950435949463112      25.531408758370397      18.419152020914002
   565   2      49.808859854353173      46.370878186329278      44.159457584514833
   566   2      7.3045888542065134      22.035002657654463      14.887992991737297
   567   2      24.096172599366088      2.7161383423215693      32.379651950275822
   568   2      32.550369731250768       2.521677790328436      7.6899030483661388
   569   2      17.950642382558652     -15.221397671358403      7.2106951162553745
   570   2      23.240939959884269     -18.986690219513964      17.784558349083181
   571   2      63.999029263988426     -6.7856387893435999      6.6634656741100571
   572   2     -14.770501679443583      33.657714970220994      30.332998341479094
   573   4      29.380093827406462      43.314765885046043      44.257956664602744
   574   4      3.1727352753260503      23.914900561864048      13.400305675896094
   575   4       49.83265895385972      58.621152915086853      48.736915470849794
   576   4      1.8566979065248728      5.0846771431073874      29.018565830818027
   577   4      25.831480121078449      20.266075241589341      13.501254230926738
   578   4       36.26952545191525      32.593824440270204      3.2369374924452257
   579   4      17.218972147409712     0.77788385179667396      4.3501916418654609
   580   4      12.336878866968842      16.714479882736761      26.821962979008322
   581   4      38.630469373532577      19.452764574922636      25.112960662543625
   582   4      45.901414575196462      37.467280584444673      42.219651139571191
   583   4      22.593814396215055       25.64957318262973      18.423992128802606
   584   4      27.695527614735393      25.655935010701668       4.397297381139456
   585   4      23.406004036551074      15.003502179215126      15.458758695730863
   586   4   -0.050087808304957987      16.014286910634258     -2.5807658423950968
   587   4       20.26502104759075      19.398764615287462      49.713105989092618
   588   4       41.05243835114144   -0.091138434896042078      17.902478971221583
   589   4      22.552348289074708      15.108335669879928      21.633048570230038
   590   4      34.184967586270467      15.141396268214702      36.573430497805994
   591   4      29.300974936167098     -3.2822988323649489      34.367710086913583
   592   4      19.174367212065363      41.819552776206088      19.620824854303056
   593   4      20.215715298238944      1.5221794990591271      15.412379074755426
   594   4      6.2545570582991896      2.1493334805095019      14.257913195960196
   595   4      10.388966243623006      43.569104917362829       35.89839658217744
   596   4      38.777662863923112      9.3479349654838675      43.384493290177367
   597   4      41.901016440805137      40.441655688052819      17.759411653578479
   598   4      51.900510607321486      51.124548660541045      38.271772022739782
   599   4      23.642908397028432       12.24558851893199      32.321006616539918
   600   4      46.272401338125341     -5.0761552772328322      34.396088547516989
   601   4      42.509500436100211     -12.227072337124374       42.67648522864539
   602   4      20.811504536142671      30.052739982084375      14.358770912121376
   603   4      32.368339318159649      48.343997702255457       26.89836052616262
   604   4      17.582110878682816      43.900171430181693      9.6262371032808236
   605   4      33.326044241198851      21.159795893594112      17.776544914267859
   606   4      17.249616264417018      35.910654450523005      26.298829793324678
   607   4      38.799354955528926      40.511088822294745      -1.679061663786884
   608   4      48.460055814795872      37.498594026448352      22.823509265339577
   609   4      27.776068830890313      25.168868016986131      31.418853724941989
   610   4      32.581640199334906      35.392877647300864      8.6981691979423932
   611   4      2.0936817001226613      42.420901279261656      38.139080977098217
   612   4       24.05861540699302      22.846108085406424      22.506245606117002
   613   4      38.723411015256978      3.1230863725273363      17.853052801349779
   614   4      46.539291377489597      4.2019976024732051      41.924676988450571
   615   4      38.888867135602474      8.8827273935830693      3.4813426130108045
   616   4      7.0590115448851476      19.916390886620714      18.222692699933898
   617   4      21.760816566650952       34.64907279289293      11.731238187731297
   618   4      20.250362848390548     -1.3312657755926973      17.381419287077886
   619   4      33.499773159150877      45.431994469335578      47.403260278260142
   620   4      35.949039713578316      43.891037500753761      5.4890881054920433
   621   4      22.981593395242545      33.753041804296679      36.160003359956761
   622   4      32.735160697493413      11.028468621814975      5.4130600662673256
   623   4      10.862231893817706      4.2457458103459844      24.496377876857675
   624   4     0.89459149920567793      9.5465530568758759      41.381110619829315
   625   4       28.82506023045535      33.869327185004622      35.623854174863986
   626   4      19.403063261250807      30.975331364711217      19.102739274773732
   627   4      26.403906370675919      43.817697425178288      32.314161241736883
   628   4      36.848089329998224      48.476132695165404      5.1999586756117218
   629   4      25.250622969768742      25.272967718138499     -1.4708989526585732
   630   4      8.2605822576349688      21.736178014127251      24.151325858127304
   631   4      7.7458709666100818      31.612506378607446      23.514928414031992
   632   4      26.892693970998515      10.757557235443832      32.496238763865804
   633   4       28.63922548313926      18.495088739520817      14.663131567047486
   634   4      30.214273142500581       46.07605036125409      42.216857129618042
   635   4      10.220691259329172      41.580228376696624      38.851105968905863
   636   4      28.652166500989392      1.2186049640727055      13.554262926707699
   637   4        10.6625714250798      24.107941797924259      16.728348574554875
   638   4      33.354555543965546      15.450420072693497      42.916826455629966
   639   4      15.845249835101477      31.182413262501584      38.296965289793462
   640   4      29.895362126165615      36.956440709349991      34.388216050165376
   641   4      38.261821542501067      1.9918136194013447      24.602441376460991
   642   4      1.3704675965983248      53.339511718736048      52.561894615637215
   643   4      32.056802463996533      30.191349381500252      42.559997616794199
   644   4      28.979564675815364      39.683857636481555      47.387932488486499
   645   4      22.047000608566101      33.277409930346131      44.952265392985034
   646   4      40.022250215587931      37.448814650658655     -3.5170891900397301
   647   4      1.9335004207626478     0.27485113853621085      9.2906590872840553
   648   4      34.298098580653317      20.077160602515033      30.298946671326906
   649   4      24.690870551252988      30.927077677145245       7.700460320850671
   650   4      33.803120809034155      25.394149807706249      44.026623615856217
   651   4      44.935396883330519      27.544891832394431      50.853932637943743
   652   4      50.017380447195045       15.07986526569252       4.464653834919913
   653   4      4.8239242235485724    -0.48671916256219477      43.846051578923479
   654   4      42.479518126375297      10.948353924289467      9.9053347535535323
   655   4      12.238385252145111      11.670056583478329      39.210227587727275
   656   4      30.569722711335451      26.876397651029386     -6.1586642211650879
   657   4      45.361580917992441     0.51633171320062532      31.034027560889818
   658   4      57.643679571170324      32.125564105350819      36.121474196004677
   659   4      2.8582941118310776      19.774217286675654      57.803880255671828
   660   4    -0.55016750465873199      7.7738277345436524      28.091659646101938
   661   4      15.826570023108937      39.309207530721743      25.151602993262657
   662   4      15.823144198374621       7.421609490160936      28.047909967136803
   663   4      24.942847189146349      19.274416208503698      27.078242392050264
   664   4      8.6252758593272834      22.069897636111474      31.801894445663994
   665   4      6.7629137179744321      5.4777493385069436      47.700314252934795
   666   4      21.433767284997856      30.157764166351342      27.839993408812045
   667   4      28.991687287907606      33.507363086959323      45.369818807138415
   668   4      15.977105784258317     0.32932288924854353      23.649519812038243
   669   4      20.747543837906985      19.525873928242834      4.6871739819782281
   670   4      18.858789751219057      19.737315485092346      15.640214186903725
   671   4      14.736282181703931      18.104140350669752     -5.6438632283395433
   672   4     -4.5080703042061465        21.4320639893206      27.380188490552825
   673   4      36.696300834926646      31.091170088240922      32.736320459622625
   674   4      11.047187889261153      48.706433162715427      15.622258855139291
   675   4      19.530860828266686      4.0451520623543979      18.233833747386043
   676   4      50.545232074835752      21.905080941362069      33.071446703428713
   677   4      34.760434375991871      9.2554897091679855      46.309319898707706
   678   4     -4.8710997752287986      15.834990145064713      21.180033452583196
   679   4      43.889214822373013      37.650532434104157      37.030998147787059
   680   4      34.839148405254669      4.9865204612027449      44.674938113927759
   681   4      24.138256297901922      36.548743542631726       3.032675896253699
   682   4      13.712305117619989      27.336373410577433      6.7387635288713748
   683   4      13.915544696643702       23.73840386085967      27.924794870399708
   684   4      33.490248724435141      4.2392748173632784      11.724802931432208
   685   4       7.367374493428243     -4.4861892646225527      15.540835170745682
   686   4      13.706876476372939      17.218920936637378      16.088063217183663
   687   4      7.5082218825814069      8.6010908950356928      13.287633959765387
   688   4      4.2456029465431939      27.189341624716654      29.373331365080102
   689   4      10.500239071443726      22.459248649845296     -6.1629388454983616
   690   4       45.12747429248693      40.571655633394968      10.002161275934354
   691   4      11.588801903106946      35.162642716126754      8.7301166255609832
   692   4      8.2840723373927521     0.74183819939621243      50.460778479908804
   693   4      23.427850597042504      30.693828086755993      43.415969106089598
   694   4      19.072616056358044      38.042528486732145      34.889059979739777
   695   4      20.137724877909591      38.906840190003358     -5.9606527945416827
   696   4      20.900912923859948      41.220349641166308      35.459554530329818
   697   4      32.607167103591024      32.298244340734385      4.1042050148573583
   698   4      35.999979662769192      23.422237683454274      29.608165777206352
   699   4      41.361665433217198      27.825133409230947      27.260716715018976
   700   4      30.774932083070663      12.550843527112807      21.533664616794017
   701   4      10.063953801415666      26.351066203316158      37.831807840830116
   702   4      3.4720671060386543      14.603157698880507       11.62161277940943
   703   4      7.0559566343707472       37.48538613849535      28.195443782785581
   704   4       23.47945076868621      45.668495786890176      18.150950400192965
   705   4      16.611578130149869      7.3096777667700037      37.308037657974957
   706   4      13.609572643906242      21.406484069851171      9.3806428755917182
   707   4      39.551859078713399      22.887262747734635      38.648014244268325
   708   4      8.7477229275908872      18.471616029883155      11.631096370328594
   709   4       21.51608000045259      35.740719716623019       33.43860145536317
   710   4      51.921692052601891      53.007294716297231     -4.2362972611138785
   711   4      32.405291697604667      7.6048429414166883     -4.9365449563338188
   712   4      13.836471016645449      3.5728302431863961      47.294524682613059
   713   4      40.632804078045041      42.746111185465487      19.671949853809153
   714   4      41.626287390914463      32.921265437701472    -0.66718949138862538
   715   4      22.202899727096632      27.925859711229151      30.111528261128793
   716   4      41.520974921009454      39.768971630759573      10.619216922284764
   717   4      19.814869536499547       17.00299681941155      10.401436616861114
   718   4      9.7204763498427909      10.182523664824014      11.167931640948572
   719   4      26.109663891968253      8.3140491002384707     -3.6240530830437416
   720   4      24.230382849299509      14.730045393144737      39.142290886684108
   721   4      29.620978242275076     0.42328813177527896      8.1850676658714736
   722   4      36.806521546983944       13.88894597858774       21.83093737765336
   723   4      10.536141367166111     -6.7279890034630352      7.8914824580995155
   724   4      32.104584319866795      13.372854178119921      30.956729219482707
   725   4      19.788280675052398      42.126324973921442      7.0292964050315359
   726   4      39.597866248210607       22.37606468030636       2.601333402980504
   727   4      4.9713786129933935      2.3600939836386021       46.11069059977671
   728   4      43.245944787826119      33.604194202378672      14.936262289986237
   729   4      9.8304098926828321      17.455827306405759      37.653161768371184
   730   4        5.87034416610474       46.98695001939776        20.4376926846072
   731   4      24.063878532624319      8.4194271435389325      23.587163349677848
   732   4     0.15902015977121151      34.134849074859005      21.090842144518195
   733   4       36.30492492163971      38.031601876057707      24.457021967671995
   734   4      5.3753635076141864       49.52386322311331      49.161931137399563
   735   4       18.67074205249968      36.631380800037029       10.64084387707495
   736   4      33.121836662397797      -0.793125927554715      40.651954830501602
   737   4      32.763123593346442      21.167087758888279      11.451552005726349
   738   4      3.9412519728349245      26.107009721789552      16.351885475203666
   739   4      20.588458109394512      23.362506190582241      10.103447977408534
   740   4      43.473799740522544      37.843134647031313      18.036423582589908
   741   4      21.744858946510806      31.327588122981176      40.920615939594185
   742   4    -0.44599349757756213      38.856523502609889      30.191678288627241
   743   4       7.608218611051023      32.925406148135544      19.859110498105739
   744   4     -2.5087618111034167      27.211321924869285      33.272255574861298
   745   4      40.080044864960747      9.0218879812795159       20.82388950575746
   746   4      1.1586098431100924      26.438444326368643      42.673008979928071
   747   4      7.1048601136923359       7.138879087961949      40.439006989155608
   748   4      27.545781865434506      23.177690929444935      15.451808649144988
   749   4       40.76271447034258      26.133159754765629      8.7899807962691998
   750   4      54.471523869846401       12.48231046953606       29.83247713096112
   751   4      12.776269655754009      6.9498379139435791      16.423049317136588
   752   4       8.932256664485088       25.55323313417405     0.71840005065456869
   753   4      24.100442887291852      8.2168414806150221        39.2803575168384
   754   4      21.639824352406674    -0.30162302163403437      33.353669453461919
   755   4      16.832214308858752      47.333885748040245      13.278924467279037
   756   4      44.129152531853592      49.458961822368757      16.482547580747344
   757   4      17.788484272370422      18.127300330134108      45.438138604270392
   758   4      -3.068806444381361      32.505845130971672      20.363436346722608
   759   4      3.6925432634363311      16.755023572275505      39.152814931147567
   760   4      18.806772535506955      8.4577239296802418      46.954259712933052
   761   4      32.823539143674992      35.339758078334746      12.332926489414433
   762   4      36.220001321222966      34.640631819344939      23.901092517111806
   763   4      32.988421356999019      10.588090224747702      16.326377800015319
   764   4      13.008828814869519      29.122155149558047      32.072057887541639
   765   4      18.427526474771387      10.400443510499882      14.980305826305257
   766   4       26.63022055748257       19.70348620543923      2.6029924751357116
   767   4      23.053207733107755      13.549912494598708      1.7138912254779908
   768   4      1.1671650791022559      33.304419361422383      30.091830888669254
   769   4      4.8885729791872228      38.594526878109207      13.718449709482989
   770   4     0.88066813072622152      28.320958899170847      22.262485640639117
   771   4     -1.2741550283673913      31.139739723425837       5.367728192798455
   772   4      29.083022634353249      19.040041390763143      44.449402261938801
   773   4      42.306696877372666       40.68493517212832     -1.2427915992585594
   774   4      51.162229153070477      36.195826581299386      42.161840882455841
   775   4      5.2072723365934133      18.494168681392313       11.94092532762026
   776   4       58.35006143164491      33.781835757792251      48.537474671696067
   777   4      27.712717364173777       43.92902956963713       20.02881069713349
   778   4       28.57743241413564      47.732280790884083      48.142496753109896
   779   4      47.602106221128082      43.830870382396235      47.219562709529818
   780   4      12.188516778738528       43.81077856853112      21.777618175746564
   781   4      1.1367806940254357      16.571352723904269       28.24701932902871
   782   4      29.081129032707089      26.670656014826804      20.093259819164093
   783   4      39.494554157560401      13.890021899105017      29.162104859242326
   784   4      31.736986635316025      35.653418673078043      5.0892339850740429
   785   4      8.5931330452287806      32.172275729352933      32.056566686173156
   786   4      35.641386318454877      38.260976450787417    -0.54812201240922886
   787   4      16.554516241290045     0.50113164372502228      19.932888061952578
   788   4       12.48358268993535      12.979930288229653      10.721948549764045
   789   4      15.571736047279421      28.564532639516777      11.604869391705421
   790   4      3.5840594361769016      21.710234333609016      39.014497557940366
   791   4      11.368513627544253      3.0189493023565133      31.619683405512731
   792   4      25.468398444293609      28.021946012907915       36.63865920038824
   793   4      11.171328300012163       31.16142924470066      29.879287217752601
   794   4      20.045177265320945      27.090990011763438      4.3376694689052453
   795   4      8.6549913223389634      19.587971682190215      3.9274533350697896
   796   4      26.924496951334884      10.016913573316399      17.685052207337407
   797   4      58.529855612281452      32.640762207511187      39.658757428890134
   798   4      31.077554143699288      24.255305549448934      25.345968491738461
   799   4      13.559775516906244     -6.9410042231193509      16.795864525234713
   800   4      20.669009494061967      32.432808081093306      3.2795581816582628
   801   4      20.803576779052214       29.13693340714201      1.2759825522570358
   802   4      43.211070401465214      2.8296509354712445      2.8650137470049883
   803   4      43.180729636952748      45.395644998810532      35.956831622824978
   804   4      32.573891492443103      4.0733008388709928      31.181822645865086
   805   4       27.24837268515606      30.356174999195442      27.787034319636597
   806   4       22.34915673823042      6.0326442978158834      25.927473094157634
   807   4      51.819601334879401      50.761930102898155      42.192581320084869
   808   4      41.056097969793413    -0.43032336851516018      39.320202324510539
   809   4      23.191482184189763      40.186768619802109      37.735197175394077
   810   4     -1.3907553819955436      7.0894862641514971      11.927348955353528
   811   4      35.955906530586496      27.473491149143996      14.798490870559878
   812   4      7.2311797048601569       37.07746420606216      43.021515482707578
   813   4      1.6411316174675181       8.392264091143101      10.144071071003415
   814   4      13.974757598276801      38.384144065643063      3.9583788032886265
   815   4      34.162366476153309        13.7627092629576      39.765543639328165
   816   4      39.377053276652845      6.3733778398790184      16.658533287342379
   817   4      2.1661700695441279      10.362509872125141      23.883714434317781
   818   4      33.366021931344456      8.0990736975716509      35.592771369369814
   819   4    -0.87949850247907591     -1.0279925075482141      3.8084243465500083
   820   4      33.695239103417805      6.9820964885817682      21.638446102967841
   821   4      20.786677192796859     0.43023990460333661      5.8174448701625785
   822   4      8.2568476768023462      29.253590927012237      6.1994340255853606
   823   4      5.6736682636878175    -0.10075224142573938      34.133541226410557
   824   4      40.252857633923846      11.751331900890328      37.109309926086667
   825   4      26.604575470240434      12.755087547456819       26.96846601852409
   826   4      41.811186343880941      6.4652525838428243      26.487841185968222
   827   4      25.756166046610595       2.266142872407956      36.354171438213008
   828   4       39.01127427954772   0.0034398575923023037      27.599469032985439
   829   4      6.0143915445258394      35.034999382497816      12.910223461643101
   830   4      20.634197585534924     0.79578556834965686       40.31868843271512
   831   4      1.5630300615726658      17.217000743348073      17.522208164268442
   832   4      28.387918899953654      7.3890364087971747      33.590784607743835
   833   4      20.099843920035529      24.142111140755514      44.868264448365778
   834   4      45.323030124544132      3.8821006092013626    0.055903584070670052
   835   4       21.57087082035433      40.822288673178797      14.662188797395658
   836   4      29.955966452019993      20.436509667697905      4.3962308912549162
   837   4      43.797879036728219      30.752768768695759      39.321292344453646
   838   4       12.07305627829297      15.159021677661865      23.547482556860523
   839   4      25.193846164465601      24.226962898379295      40.264312334373528
   840   4      34.677581226062081       47.31625853267245      6.7721426609466517
   841   4      12.312412506576006      20.789282621392054      37.858645409406563
   842   4     0.96109680930692531      25.933828124553123      28.396150309083954
   843   4      36.667778628874991      19.760587723969614      44.172915319625311
   844   4       31.23590980221887      14.158665373580105      11.844366300312535
   845   4     -3.0416265962966138      19.858500517917705      13.517109119098745
   846   4      16.695952760617772      29.968130303838958       31.57951206629939
   847   4      13.548146464503885      13.583739595650927      32.874493227181574
   848   4      4.8729852654172126      26.596938387897051      35.276568770277329
   849   4      36.422431036326891     -3.9434307139008555      13.780682588492594
   850   4     -2.3289094616991575      32.044224946298556      13.807828864891878
   851   4      5.1997379588504629      43.281355372064432      1.0947948982653473
   852   4       5.501699356555191      13.075878269738082      45.173847020250662
   853   4      40.491897449710756       40.08509243359714      14.338422009420754
   854   4      18.957045328479335      10.160680271430829      18.831630973364764
   855   4      38.043045113455939      39.332908526534546      1.5728264256218238
   856   4      14.801398350134079      45.304932758735028      49.003749991321961
   857   4     -2.5794027491036537      22.006568915658441      19.812413748362154
   858   4     -2.6769259089909596      23.546161710811326      9.0998647508483614
   859   4      20.606011049631864      33.908538771818833      42.252138219475754
   860   4      23.214219596190848      25.715782478154633      24.595070754932348
   861   4      37.504314272545983      40.422201344044353      4.9120668380706034
   862   4       17.50490526805568      27.873926720870305      19.018158350992518
   863   4      26.783086850565251      13.045813132714343      41.450435203968063
   864   4      46.206581334284252      40.092078958400613      46.884548369561429
   865   4      3.5021416988602199      1.8744034147549271      34.581156062459414
   866   4      10.869109975854434     -3.9620027865683061      5.1454971037453614
   867   4      47.291282390623657      12.479525959586823      5.1009330224391833
   868   4      41.741392077237272      16.965955464119869      35.409420317851918
   869   4      18.964117862015602      20.395247990709727      26.159684102423732
   870   4      7.9532281405998084      6.1618881840904374      30.836240697286883
   871   4      11.151517152235842     -2.8367652699936499      28.105348344499365
   872   4      21.618243795832022      6.2646405857054432      32.930726650101533
   873   4      16.412471398005156       13.23999548457763      50.010170562361068
   874   4      7.1804886750078394     -5.3986460334114641      8.8088556410174039
   875   4      18.159903283901009      36.619042164712091      41.646263385975608
   876   4       12.47488437223735      12.083651713975263      21.595179864362773
   877   4      33.724936533495651      34.006223701045286      26.059225176487605
   878   4      6.8941907236138036      53.136491547301347      7.6903381824669239
   879   4       31.87014167743073        27.4552081861316      9.6970434070242959
   880   4       9.131799525192843      6.1925284214684186      37.228443158877283
   881   4      11.486973371211775    -0.48155843550544863      8.5936259657354377
   882   4      45.435365076273079      18.158431552049095     -8.6473592560196728
   883   4      34.383017496082708      28.620409459916122      28.222257413598054
   884   4       2.876041577435891      20.864896288525046      24.648239481465886
   885   4      4.3847286385534279      35.990380378441486       45.24020568426981
   886   4      8.4420659391082662      19.919702289263228     -4.2008267173962102
   887   4      29.438476906446162      20.584654519223552       39.21587490593825
   888   4      30.754206789376919      21.643228098853246      14.716733969024945
   889   4      8.9593023199208854      46.876171329416259      7.6279142474794641
   890   4      27.757836242726729      46.262068751351364      5.7629945484191856
   891   4      45.157510600205299      6.1583919204703887      39.099131462430336
   892   4      41.085939778757393      5.8862614802604725      35.590617075941665
   893   4       2.085676538164194      7.6100885389167772      35.498029652474507
   894   4      15.749769529657863      39.541321920877643     -6.6192203586000193
   895   4     -10.220869589330082      24.782616868635891      21.022944420409868
   896   4      17.093153954529747      17.853367745091216      32.646127127910255
   897   4      6.7884463094400616      14.266507582505456      6.0924646291753417
   898   4       28.15142238743206       8.430482190353926      11.516604187678382
   899   4      22.000614854774579      1.5099512684695406      -1.703916709910807
   900   4      45.931045088159159      17.798943007187528      10.687041001147159
   901   4       28.01074023984707      51.671485927210327       21.58777246045657
   902   4      29.585630511700639      29.822717267782867      45.174661191397846
   903   4      49.500171129049498      41.922355839736426      6.5333642280072457
   904   4      16.642089055797214      24.224991021877077      39.434564621079112
   905   4      23.416262483404065      43.636954754178525     0.48702178803309126
   906   4      10.363713873924972      37.713797625839845      30.472007157722729
   907   4       17.91208541250867     -2.9198754038203383      24.103583139052027
   908   4      2.4563085518364254      27.275873706929186      12.316351198528714
   909   4      5.2119835713390872      10.690109131730157      54.485240568302665
   910   4      43.820305308233223      7.1135908618225869      33.579394189458384
   911   4      13.176319165413869      38.841882041562563      44.607952435762769
   912   4      16.569051090552065      29.078536972692621      7.9726244956023402
   913   4      41.293565110620214      12.802573002057938      15.855281422496192
   914   4      6.7013085574301829     -3.8925262316074889      43.548075500566796
   915   4      32.517372124796132      21.598932269169016      22.934558331416611
   916   4      27.840055107800321      38.807980075644402      39.364601613977293
   917   4      15.255485428393229      37.077371008845248      35.821968710546741
   918   4      41.734246396920227      44.592578529696986      4.8822475169721331
   919   4      17.973336471724568      3.6738050902935928      21.331747333473633
   920   4     -1.9002540522709057      29.678954342902422      20.643879395980818
   921   4       47.14968404074547      47.627060488352697      14.973158756000867
   922   4      39.238903931705835       19.40830910151487      33.876526400138012
   923   4      32.569688050138289      49.110189370502084      19.298556248097633
   924   4      15.821509334536254      53.179840236591652      10.591000167108652
   925   4      20.137918915675208      24.864451484954163      30.404672533911253
   926   4      1.2727256596188494      10.910329339047069       15.63051196283388
   927   4      17.476522527965084       40.91875345654055      36.385952082658974
   928   4      29.488496527928959      35.759608419535944      7.8737298756338747
   929   4       2.486181962031337      4.9465622088175474      23.505425913828461
   930   4      44.335875629646459      31.954276502679541       29.95004240267259
   931   4      25.460875446788418      3.8682649311031923      4.8101549174737919
   932   4       25.35637287479878      44.918300225206444      8.1305364906039532
   933   4      10.492093296905015      14.591159214713183      39.578016460604459
   934   4      27.053174172486518      17.750743597537806      33.573333630152653
   935   4       25.77747494838399      6.5731511721905642     -0.1441376811560634
   936   4      11.579020634320983      10.015140033632504      45.855905302839091
   937   4       12.83751146973975      6.8272616864794733      36.446995835096331
   938   4      11.802206624754575      8.7720809221538811      5.0229821442549731
   939   4      33.967133058911401      35.272112495882439      15.950077454460583
   940   4      34.129234130935771       23.88924850056895      51.577187455375629
   941   4       3.663618463195363      30.428809210503843      1.6745547592489363
   942   4      48.462215411832709      42.924310487944652      23.573795499059791
   943   4      42.804904048421356      12.877409457154927      30.695384321670709
   944   4      31.437514452972465      20.039526987810557       20.57108815112128
   945   4      45.346852502159749      36.542350219687812      15.865161680960528
   946   4      1.7169101414080545      24.062318152026709      47.529808566194603
   947   4      20.615630057385253      30.834538608752659      43.672063284441613
   948   4      29.346231403916171      18.333249855340082      7.0793248599896863
   949   4      16.938834780305402      40.059287940315528      33.036774585557893
   950   4      5.2073553694565282       33.53598032189602      25.570710906734572
   951   4      20.709651950250159      15.078356595007971      38.101565492107397
   952   4      9.9977119862051875     0.23125796272836258      39.175366290445368
   953   4      10.504268409619662      15.735602834126537      48.889204012812108
   954   4      -3.807884386882034      13.795996009216211      24.233216004383081
   955   4      27.211523907305317      36.702316379340402       15.68069757464848
   956   4     -4.4357296459013043      30.185797745338018      11.203061108646317
   957   4      32.936591888046706      26.011534796523854      35.356523924961813
   958   4      43.610059351422095      11.717118240922064      48.168975362434232
   959   4      12.950030268256471      32.758995837622621      15.624499939472017
   960   4      5.8791468921808097      18.856051739304259      24.280784862475819
   961   4      32.038718311433698      33.311895876117838      18.674958374757477
   962   4      12.155803314283395      11.291107625328038      29.998872960864457
   963   4      7.7951581421399885      40.846355284897278   0.0056274979199303953
   964   4      25.484866545890462      5.1102950937015494      16.120371165596485
   965   4      25.603154735846758      19.501804860354046      43.455403748470623
   966   4      19.170537053237013      16.330016290239293      20.770608884217271
   967   4      36.023016177602742      19.292945357952867      17.711131647253382
   968   4      32.401633695858422      13.001490606900946      26.997246995778838
   969   4      25.708978814244254      31.609472911109957      21.992491581637889
   970   4      24.908744183752322      17.444053744351926       19.99981130374228
   971   4       48.24868210050326      34.541078898997462      15.684633787532997
   972   4      43.902612254574898      12.525568586055535      41.808799413993619
   973   4      23.674298845411148      33.274539767049326      41.891345417361102
   974   4      22.342673822228402      6.3840712218106681      10.321645801619338
   975   4      40.957513984387511      5.5458004563431755      3.9769511295893447
   976   4      8.0962621764174969      24.258060310466266        9.85925720155962
   977   4      34.153802497856596      52.106837565599534      20.610189777646735
   978   4       24.45887482317255      40.763383072209088      40.245749347382812
   979   4      45.971589611510815      20.067649465594453      33.693556702562148
   980   4      29.530414175868632      5.5244799271748741      25.873626057632009
   981   4      37.516122119930998      25.085214892416797      4.2405045931512415
   982   4      6.4752139187563698      28.812479541236957     -4.2232515113517364
   983   4     -3.8944966554625711      5.1837661894550262      21.326674209073449
   984   4      17.498538311859669      11.701792683343889      42.414698966835473
   985   4     -7.6808006372506323      27.093607713150615      19.817424496928137
   986   4      9.8431132210811434      30.858645924542795      15.292275728557932
   987   4      51.033034185275639      46.246399513746013      29.430221864274692
   988   4      15.949004173298597      46.726755586299547       33.92950530521005
   989   4      25.167261705483789      45.415149929316748       21.10196674135582
   990   4       39.12622069872284      9.4005631334718203      10.065470212766774
   991   4      20.033752651937828      17.861907252065503      40.892153969769822
   992   4      8.7303031414773873      5.6701626656566146      21.721283856553029
   993   4       7.618921843820643       40.02099377179443      19.311114139871048
   994   4      37.288365076077085      17.748608664218068      14.681874213654517
   995   4      28.625047602394613      13.355020398709717      1.9563216667334526
   996   4      39.217680941131022      20.206236847449077      10.031422364753878
   997   4     0.30969720848447457      42.945907381313752      19.993456917800845
   998   4      14.421603706311126      33.978470017794422      24.437579713588168
   999   4      7.1341622343174116      27.092700255666401      20.860136686004981
  1000   4       47.87494638438065      34.613201596483641      40.751094389183713
  1001   4       41.42305907540819      15.766357326517596      3.7854773597620359
  1002   4      17.359774422307073      13.943879834344214      32.819377435369731
  1003   4      13.960485331338024      21.178596987365669      41.795630982131826
  1004   4      26.773559166881249      29.698607640825291      13.650453211266074
  1005   4      36.436979961903702      21.653589639215777      32.836631389955507
  1006   4      47.732942901480001      37.510356393312975      45.455715316246689
  1007   4       30.93555004018399      46.365308269374509     -3.5188824196774848
  1008   4      37.661434255111153      4.3794290658700827      35.772050226934105
  1009   4      40.261996590688362      15.901906258197187      13.914243908277202
  1010   4      32.415189567116194      33.870306840264298      36.433254411050008
  1011   4      37.575133644111915      9.6952302255684248      48.796090030869088
  1012   4      40.018983703986372      30.623674286592792      39.811304243196652
  1013   4      41.599488228476353      46.984581223847854      25.335999112809787
  1014   4     -1.8508510877566502      12.832998512733655      15.224582611970579
  1015   4      12.725643854219379      10.510874340227042      35.547598990754921
  1016   4      40.506466980344641      26.146262563377469      45.458387003356798
  1017   4      18.083978758682548      13.168789992839674      26.558106456926719
  1018   4      42.464451370555338     -1.8015672457712164     -2.3983254254792166
  1019   4      8.9006287648490314     -5.5256081376072341      32.360030402063856
  1020   4      47.448069596548123       23.47003333183654      42.122342720797064
  1021   4      19.265044682918163      41.351686200704577       1.191050463720847
  1022   4      24.370395927141704      31.034605251585251      38.663274478548274
  1023   4      34.331957527016172      15.817920750332705      13.364937423356384
  1024   4      17.779469821720092      30.259981262471811      4.6736482132042276
  1025   4      20.303053143367066      49.708150836706118      20.384370723560227
  1026   4       17.44154268961881      1.7192262381983425      16.510307752503376
  1027   4      -1.273381804069829      15.652074328187171      22.051129112596424
  1028   4      17.708294131231426      34.801588222386869     0.25802620377640823
  1029   4      28.606469079433907      54.333130630397065       4.754343031121401
  1030   4      31.368859845401623     -8.7794971006600075      32.844338278811442
  1031   4       38.49961008752738      45.713957144477284      3.4402099078686277
  1032   4       17.99839001058147      15.682380449574476      35.671413603594978
  1033   4      39.125087389006893     -1.5906073212203333      11.907284257869255
  1034   4      6.6062368663600628       18.73220317865497      32.188031743910521
  1035   4      4.7340972290813852      38.159882923979794      35.728161225803397
  1036   4     0.54796162634295043      23.431238347363145      20.297508939872319
  1037   4      22.549994303764205       33.29718472704073       8.391037583847222
  1038   4      15.126823036125009      4.0621678432592798      42.071434590631434
  1039   4      28.809958695357317      19.325973889323723      26.065062159140979
  1040   4      7.8415682917880494      12.732895115414927      17.615475249184655
  1041   4      26.422128481852642      24.598989050280718      7.8463521015676339
  1042   4      31.608700487556305       28.29103570710755      48.057438583873257
  1043   4     0.54999013045140277       27.04634375266324      45.551641694281052
  1044   4      34.905313056158377     -4.2500249071870009      32.226735212224511
  1045   4      34.031020635259139      5.0225172602694386      5.1403923751571465
  1046   4      33.713838698259153      36.826813451278788      42.246310996887104
  1047   4      39.797749786585527      2.1131922766882849      41.689311073357409
  1048   4     -5.1864965264032215      36.686135794597199      5.4244103200417957
  1049   4      15.422998589534215      36.801913842862461      46.761396245968214
  1050   4      46.487861962310099      44.473111796657093      41.288471462049586
  1051   4      24.725158999120467        9.99505555896285      41.777468200961856
  1052   4      2.7086038065953293      7.3717221889520106      26.355630625220122
  1053   4      1.0512661083360528      29.189269921261126      40.054849093724108
  1054   4     0.18909262349826972      46.161118942907912      17.857650013262038
  1055   4      4.9544698441550157      13.076183908346426      23.959369577750671
  1056   4      4.9648504574830827      36.493665268515642      25.314339927598791
  1057   4      14.859692757052676      9.4450525118197888      23.271188843842644
  1058   4      13.124275448960235      5.4123034130279279      4.5953045050435293
  1059   4      44.144914302946745      3.3262947264971734      6.2850812178036701
  1060   4      37.287924812657565      3.2030937310059091      47.222282144311301
  1061   4       14.09973012540031      30.123230300696534     -4.7555811600496511
  1062   4      32.752400894715983      18.247608369219698      5.4968414057440649
  1063   4      33.310366597104263      36.846359541422672      25.620505318284085
  1064   4      11.770486561142237      39.050246415530438      14.606093050086169
  1065   4      15.062420920115098      36.327047662095325      9.1026460279695645
  1066   4      36.649625078501636      38.055279438885833      30.956779219566272
  1067   4      47.435434480777936      13.603087565481248      35.436982405836801
  1068   4      14.636801964263398      23.335316788335987      3.4812773307193399
  1069   4      20.745365484600708      7.3134068734874367      4.7308165214686335
  1070   4      21.432201866499522      15.348127604347926      31.570741030646428
  1071   4      33.406351007367832      43.342289641593339      15.881865604655179
  1072   4      19.973479018699692    -0.62410145132736738      46.209502184471745
  1073   4      25.593055768894892     -3.4414712005845081      2.8502822150471991
  1074   4      5.9456294981922495      42.774938539726762      25.851738785777645
  1075   4      48.254061559745637      48.904892654940248      24.314478010165065
  1076   4      40.870070056847986      16.809242758032195       45.59401529258065
  1077   4    -0.41466981515267953      35.923791266412131      32.272444627420633
  1078   4      5.8884652053912108      3.8618859289652843       23.39130391647414
  1079   4      49.802636632877302      2.6492520210396457      16.838387765231246
  1080   4      21.596379528615419      33.979558824257211      18.965751687235269
  1081   4      23.764037496911044      13.904970493182656      46.961204905424879
  1082   4      26.824140010910114       46.79927848829653      40.693611313539442
  1083   4      18.967798720290308      12.433842424707072      39.829669916280203
  1084   4      37.888024909415741      43.949521372158173      20.870432358821816
  1085   4      6.3112645955779305      30.848637230032157      8.8205743568827035
  1086   4      23.642580578779473      13.955379627584723      12.111833504525597
  1087   4      1.7402518807226635      32.895064834068627      18.040448953143112
  1088   4      36.246438825538156       30.25383661976652      40.442502989992136
  1089   4      2.8152146393040169      41.679335637964861      13.869280778165713
  1090   4      30.461358280377087      13.300543331529848      40.115158109218704
  1091   4      44.624089726507663       17.52033456097066      36.419606595300337
  1092   4      18.913889468316516      -2.448006430233276       40.05937737058629
  1093   4      26.196657352813514      10.449953551299034      6.7864347352667247
  1094   4      6.0543033957964516      13.217649580206508       35.09512918063426
  1095   4      44.204985909940241      3.9943521503762969      12.336233782511338
  1096   4      21.537648468821818      20.874036704020313      36.414964750018953
  1097   4      20.855633679077879      35.812626860461521      27.477424941240717
  1098   4     -2.3846149597546002      10.155549276750943      17.640939442672398
  1099   4      47.007455212187288      20.461148832791011      51.127098250950375
  1100   4       45.48286892732763      44.349603208840342      15.670838450789862
  1101   4      21.098182267521178       33.72671274739524      15.049634723095728
  1102   4      55.990793521868738      10.861381725504158      52.133559268352833
  1103   4      21.027985078934108      24.856010763464486      21.677693281252324
  1104   4        22.8786454081621      15.880693577908236      8.9046673273748169
  1105   4      4.4599104581234794      36.909782141673212      6.1607206816778293
  1106   4      17.392165736017521      11.514645647469766      8.1313319524761898
  1107   4      36.275532228933379      6.7906320811432508      10.648713726969664
  1108   4      38.338671064429022      34.550082833643422       9.894686716595702
  1109   4      49.275707352493036      37.823402455585992      1.9423078426493929
  1110   4      37.736461402165723      27.149910929148398      11.472187228440923
  1111   4      30.190980051422724      36.382637192865687      38.020943734397576
  1112   4      14.429461974581352       3.816959786944607      23.136520253793087
  1113   4      23.704759789425221      38.863742546378674      22.093324273843244
  1114   4       4.595679942630337      17.635603462288543     0.34910433758570042
  1115   4      21.555122840914134      22.318673296523347      32.707314001419071
  1116   4       11.67472883242155      31.051787546433271      1.2375191395928844
  1117   4       14.40901264402345      24.855993682271635      46.359014025522526
  1118   4      14.449704793865862      28.445316639162364      21.076568039469471
  1119   4      34.342570547210698      14.127917700039298       32.93321200111626
  1120   4      40.673292764137116      30.082847380751275      5.9088641661575698
  1121   4      34.256791793470065      41.316386418017579      7.6119011479522776
  1122   4      31.328465620029842       21.19356798576829      0.9228679651905618
  1123   4      20.462233828064523      28.135661029353763      16.673667831260133
  1124   4      45.456618050067021      38.247912142585882      24.691397954874205
  1125   4      23.604625633533047      27.870732456475448      13.041519188986769
  1126   4      14.052400867874955      21.947447642410143      22.414977545251389
  1127   4      7.0436476984759597      11.216284254990533      26.467583759997343
  1128   4      14.401299572772198      20.026977035714474      34.672664607905652
  1129   4      34.832999519822749      33.355587734769237      10.523210941808719
  1130   4      0.7158844474228846      33.727065720315856      35.098841855298872
  1131   4      49.120871118005972      21.919402646983475      44.699272555702159
  1132   4      28.419546420707814      3.7155295415369993      43.161531006495039
  1133   4      40.386170758771783      33.416067533923552      42.107647853747281
  1134   4      38.531564736344876      2.3277042071576486      32.624502537772813
  1135   4      37.676404358684501      3.4536821797516515      21.301935687107708
  1136   4       26.92540622473215      43.748697560135554      11.407351480969135
  1137   4      51.954634917975774       47.08204960734092      38.217206390642325
  1138   4      3.0236371502490256      25.213031136911805      53.021495408909402
  1139   4      13.834524183711027      16.788462837907392       6.920538336798649
  1140   4      36.049221661996796      8.4978573088345222      28.305933660885582
  1141   4     -3.3848937249913482      21.545341374602405      23.524552551934118
  1142   4      30.683195888997037      5.6598009893559071      40.815746031760618
  1143   4      19.570565529114944      28.039579709798303      32.514642705172818
  1144   4      18.119602930116191       49.69831115555553      34.173269024661678
  1145   3      29.479575982988955      22.986833000490243      15.387425552822009
  1146   3      10.610928410569628      32.130617987524403      31.504896120147308
  1147   3      20.820476648055127      30.786749581740949      2.4035943455157938
  1148   3      51.554453877905864      6.1153945086361299       27.72563703808072
  1149   3      32.803262501843712         27.567150204487      47.016239214725886
  1150   3      12.330880119598932      8.7105589641680741      35.655443997396162
  1151   3      26.392471798144872     -3.2137614638762342      4.6766062677527067
  1152   3      11.192752276224544      19.018007340998135     -11.374560411390577
  1153   3      28.561494218912948      37.435174038711615      38.683226894372524
  1154   3      24.432540387408888      41.493580405098633      38.484925929775102
  1155   3      33.817003007921969      6.2068606691995143      43.986010029015553
  1156   3       17.41417442449692      30.155714736556991      6.3400870721022446
  1157   3       4.300293562039931      16.310013569832012      11.565469493043057
  1158   3      17.078944112230282        36.8856049489182      35.421533005840352
  1159   3      28.466900471435732      2.1132436582174572      15.117166048874632
  1160   3      35.017910570826544       20.50232018821584      31.982962214833066
  1161   3      34.767506092692187       42.87408723011692      6.9099122297532771
  1162   3      44.058853250172028      37.603562164371773      42.264599953707595
  1163   3      40.765740798559172      18.318442069301717      34.542254656330535
  1164   3      9.6321943314517604     -4.3676326734542519      3.9023113910749059
  1165   3      17.774816873637239      41.072902612229029      0.2653770086679515
  1166   3      44.393139680276668       35.22808317619667      14.860276045043145
  1167   3      59.223249025273233      44.213652665288826      22.514575298711677
  1168   3      46.041022437376128      38.234129987260047      46.348155346690383
  1169   3      18.337174256662895       49.01060304547066      20.387522858971586
  1170   3      21.840598173442629      28.645174767644654      13.336293560693331
  1171   3      6.9385694313335176      19.547801643462893      11.812691801876067
  1172   3      48.735266282244901      22.266993071715913        42.8453439057255
  1173   3     -2.4883704167624847      11.049633225399898      16.000122658806827
  1174   3      17.903105653042498      38.318621418460566      33.461922305969601
  1175   3      28.585088710792217      34.936935811832221      37.017921593258038
  1176   3      19.736510560057479       2.300350980736718      18.990562795063209
  1177   3      32.352388391686226      35.015416838673758      25.182433443471158
  1178   3      32.592961999993697      34.251948455939491      4.0447938392354814
  1179   3    -0.65860378191490621      22.083922191070574      20.019437308523102
  1180   3      19.544661710731862     -2.4837853664194949      24.895413504232582
  1181   3      47.636234454197947      44.818239208587123      34.729193027147979
  1182   3     -2.9202264797745614      19.952331035490925      24.059170072135327
  1183   3      51.904521925541772      36.418995310670226      43.870727106961603
  1184   3      44.285908492063392      4.8679161946977558      38.294314431735614
  1185   3      23.270874422859173      13.215227813114154    -0.07184032147251021
  1186   3      4.5495558945554109     0.57335065859508483      35.633668745073209
  1187   3       30.94973249244957      7.0991059141283586     -4.0061212582179468
  1188   3      21.965883801915911      27.144822681123106      17.342181518193517
  1189   3      38.880325636485701      43.309962836385857       19.21303297141084
  1190   3      7.2071219753659959      4.3892865022989493      22.318135854085202
  1191   3      38.369845002813669      51.582162939493841      22.832036484477033
  1192   3       57.34311283604098      49.356697416635434      52.254231939197794
  1193   3      17.770579692921231      29.685692406350697      19.339781654679392
  1194   3      18.492665241184252      2.0102558143694305      14.888802987756705
  1195   3      6.9064306508254187      36.283109716791529      41.497224395781721
  1196   3      24.141620044376928      45.783543885144205      9.2473989912879588
  1197   3      17.475521663662743      15.679196805033566      32.347360228077299
  1198   3      36.828107408420372      32.414580490724404      34.113028068970159
  1199   3       27.05191670095855      19.120783372956154      14.383734972671112
  1200   3      32.650312587846379      32.716525207918572      26.755457584401743
  1201   3      19.223917470932157      37.284720775156963      -5.641298124456231
  1202   3      34.912570915754486      31.309391239640124      32.183238131340843
  1203   3      32.731889843852052      6.6427737519309353     -13.897501616806686
  1204   3      21.242208457601127      23.741773725625158      31.368761954792728
  1205   3       14.88947918882141      2.0742597715196567      23.434258257440259
  1206   3      20.685127175134681      28.556556672980051      31.133918947331161
  1207   3      27.270799435943722      31.143936088795527      22.548578139911704
  1208   3      30.709036243289169      33.440751991417223       35.65238603893858
  1209   3      15.116716185506508      16.737509415356527     -6.7416755975519909
  1210   3      6.0927117950550489      12.141355246347837      28.036133311704198
  1211   3      40.153857939549098      43.116569137680969      21.496368236452316
  1212   3      4.3343715282249731      34.933992822945065      26.450608914789836
  1213   3      41.950502643562636      33.231699835470764      13.744460899895824
  1214   3      13.038104858040104       36.06792846299787      8.8680822095506588
  1215   3     -2.9554386713239298      21.510716904550062      21.520105659747411
  1216   3      4.4757174412694551      25.008484550556531      15.016041435548928
  1217   3      36.257507308567483      22.783186883392133      31.329599179437874
  1218   3      44.469383019570444      2.5326869847005278      4.3622258331312898
  1219   3      31.666791033051503      -3.014869599045483      43.713094875100715
  1220   3      24.750118352852734      44.909715962952546     0.89775859376299183
  1221   3      16.012012129067696      28.647153047325645      9.7430776365756717
  1222   3    -0.57117764856009989      42.056241710708953      18.749985595870218
  1223   3      21.186277605520331      16.787798214322621      9.1824453816533218
  1224   3      3.9090706271548656      28.487620253006682      28.106469478817946
  1225   3       20.86085111459786      27.708211794793055      2.3494072103056807
  1226   3      31.408771492014647      25.730964110763459      24.740098038202156
  1227   3      19.370638691836696      35.200346645911452       41.69525676301938
  1228   3      29.693063120874786      47.174319335437573      43.764362738959534
  1229   3      9.6689759837685063      43.379281594940487      34.252653956828006
  1230   3      21.837160912698955      29.425540539208701      15.869550786425544
  1231   3      18.393411796568977      41.015465148876068      32.965031400455814
  1232   3      52.262160116097569      47.212081090838964      44.410706488971151
  1233   3      27.168095400949806      47.770870161355973      39.196240991877552
  1234   3       25.44898773143116     -3.8636999263932745      33.251145539053368
  1235   3      2.6801984623302886      26.273305444650529      29.213022128874545
  1236   3     -3.5993032656323494      30.317105222371431      9.6429891090612738
  1237   3     -3.5006769862708693      30.999994767846751      21.180690324598046
  1238   3      28.081810486095119      12.513374317638895      40.197997107353608
  1239   3      33.252032196970966       35.12283116944937      14.297491062015338
  1240   3      30.462056252757286      12.598653291840463      41.650066978940245
  1241   3      42.936738188614285      18.494495114811979      36.274416447155666
  1242   3      26.245217478099573       7.599559869582138     -1.6637231855549062
  1243   3      8.0013794421472362      6.4420950027941899      38.792836387753091
  1244   3      17.442137704482601      47.885760823131108      23.912397770156037
  1245   3      37.706258651415894      3.5488522178823732       33.78914328141974
  1246   3     -1.8309054470879074      21.297896007211367      49.534887320540825
  1247   3      26.430207121261361     -4.8949107551883477       21.36811148580696
  1248   3     -4.2794824186744602      21.477706860915166      25.637931981448251
  1249   3     -3.3166328967508787      31.045213228432782      12.428482932452718
  1250   3     -1.4187252810704669      39.746765106885583      31.364444494358963
  1251   3      53.930837385256268      47.000561747754247      33.866809435988635
  1252   3      5.4371310393667276      11.184687356554914      56.124593639858354
  1253   3      27.215179921258962      9.2087287509828446       33.48305201062589
  1254   3      16.701511406990086     -3.5345204505403855      25.338650643705417
  1255   3      34.265936735559293      35.835666565154746      26.928447354751452
  1256   3      42.044227100663903      30.972186074832095      39.749212619088354
  1257   3      29.539700377662662      49.176660879457785      48.311062689974484
  1258   3      5.3944360885869376      36.605488994422281      13.576395923322968
  1259   3      31.461590593256073       35.18430325330251      37.372190186238612
  1260   3       53.41163293461198      50.002528057782889      33.057186917438251
  1261   3      34.386636023578227       32.11294906558139      4.1711707194296705
  1262   3      25.190424547151459      28.876593405498017      12.843424638231102
  1263   3      44.077154200574363      14.684019955847733      22.782640911851285
  1264   3      33.817320674981346      33.967072349963068      9.0566491409747325
  1265   3      18.371552829261198      4.6693856602645507      19.626587296466887
  1266   3      7.7389269713414324      20.469038460009401      31.672524301301145
  1267   3      11.235912693061396      13.240674913254967      38.481227245209986
  1268   3      34.486665468833159      38.308674565904688      25.008099834804934
  1269   3      23.968913965112183      38.814406014964341      36.794855699662257
  1270   3        5.96364127220314      50.016335126210535      47.468725505435131
  1271   3      55.647242752590088       9.927783291202827      53.833557853999643
  1272   3      42.106485355320949      4.1047678352646164      52.305726528351038
  1273   3      5.9871308115260167      3.8141646285374655      47.348361899012062
  1274   3      11.157294165062263     0.54691150717338455      10.056133279226879
  1275   3      43.894234645600946         37.031432367552      19.621894140239753
  1276   3      38.342378761016491      40.005049548441143      3.2529678152105843
  1277   3       21.81462724886212      44.516458837363551      26.121612619958753
  1278   3      41.741110265715996      37.231673645387765      44.404453348099253
  1279   3      39.621044549188866      25.412312988022638      7.8583500865054257
  1280   3      18.267334050090643      12.313850026562433      38.248135134089573
  1281   3      36.435825153439957      33.861948746204895      9.9607288595161609
  1282   3      30.285544724475177      27.851882049255785      44.128809864105008
  1283   3      10.028069311507554      42.054400803530413      36.877464268638391
  1284   3      41.036603295223074      7.0729265829845378      36.903899324153734
  1285   3      39.127288885335282      33.579590481675602      43.408194551946671
  1286   3      36.346610579087589      39.129518975385466      4.9761654899133223
  1287   3      32.674277289046636      35.694047373020517      6.7225287907690472
  1288   3      45.147244412083843      38.283089930441527      17.174466618372708
  1289   3      41.095480002497958      13.049257887751057      30.093626555261618
  1290   3      25.455078553864595      11.718278868855286      41.966843177511969
  1291   3      43.449848332219453      36.445803683204666      16.757610639465707
  1292   3      20.434096610736965      37.165698633849281      33.583365429265271
  1293   3      32.268011701958727      26.164837306156031      43.494992138326936
  1294   3       14.64898596666934      29.834784642670641      31.516874698248575
  1295   3       26.51921526574769      44.166471382157908      9.6175577122659899
  1296   3      4.6278701838869454      20.203986408788317      24.143667202680156
  1297   3       31.09141019678448     -10.749460360746619      33.256948755834522
  1298   3      36.383322263314042      4.3231050473991255      46.053618235419862
  1299   3      7.1408020125126379      20.217149885089409      23.739407079044927
  1300   3      18.401529542500498       42.79687817320719      8.3047199656549591
  1301   3      34.590087916531509      5.3622615182009961      10.946827680903704
  1302   3      31.800779271056321      19.475832220234714      4.4361629562534128
  1303   3      4.1065447926261376      19.280897368700192      10.422999333771815
  1304   3      4.2966243747186077      49.742312085181979     -3.6721344814045258
  1305   3      36.785288433283583      27.622874498857222      13.193433600861781
  1306   3      36.600361164484333      42.009318363503191      4.9793090693672521
  1307   3       26.41284589158354       46.21859641849418      7.2814879704357187
  1308   3      30.234671214022757     0.89596467868616325      6.4930626563889451
  1309   3    -0.73278613217440736      30.014733225898983      21.966646606310622
  1310   3      26.040938000847301      31.426740973259822      39.365870549501857
  1311   3      20.313158662080479       39.58370507066234      34.928969937525949
  1312   3      25.283319130778303       23.07695979085484      21.244591641242547
  1313   3      30.411804761679097      29.230415001374844      46.776215295626386
  1314   3    -0.78265478353029527      47.191775192369043      16.646720442981675
  1315   3      6.8778233413659313      29.404184565381758      7.5202630195084588
  1316   3       13.86720596701533      37.788957191530749      45.933665730653964
  1317   3      3.4350897467169612      48.888567239543143        38.0699188165894
  1318   3     0.47272050892620077      24.002652121869591      21.923047120589299
  1319   3      22.950570497654795      1.4706049112123647     -3.2826002780117722
  1320   3      24.469152890456929      7.9778127862668029      41.155461321763369
  1321   3      13.341733094048696      20.529882770849241     -12.623926580750496
  1322   3      24.843992955668458      29.532845706366178      37.522090823440337
  1323   3      26.191166058948181      40.066591202909407       39.91674880714443
  1324   3      25.264034684078393       13.64821324684295      40.305887380698294
  1325   3     0.24472826640486128      37.458541627935801      24.534583335989851
  1326   3      14.504197241611976    -0.62176660318882881      23.783342574558585
  1327   3      20.516437461450543       36.15841754468989      11.592994009840769
  1328   3      3.1435298631425592      36.753278955317292      25.124624445480467
  1329   3      1.1856162807798998      28.618235450562064     -2.6028579683552122
  1330   3      40.453723112608039       1.181353899625617      40.139705483349204
  1331   3      22.380500814625137      14.353704907866748      39.207331931120933
  1332   3      32.664682631247885      34.474284776586202      17.099466950031776
  1333   3      37.266831885391184      8.1896389878842033      10.215549329851385
  1334   3      19.112801800423046      15.643724167932017      37.078061250553539
  1335   3      39.486889729326499      36.103381249281384      46.332243500485966
  1336   3      26.884665320577859      19.696458088239648      26.331808256348413
  1337   3       11.02457622029905     -5.4769032496061012      6.5096944093670519
  1338   3      47.378814438333102      22.861078161818405      40.469661078174553
  1339   3      20.562041545607514      48.546795815143177      19.091652685680788
  1340   3      1.7054706238594375      44.004746509898773      38.858099219641652
  1341   3      16.893814231203581      36.445668027715485      9.7015523948962272
  1342   3       42.92847772598958     -2.1974291437205902    -0.74967138654131849
  1343   3      5.2098196637356464      33.645319173186763      13.748094649550495
  1344   3    -0.42816342648447409      37.063372783014678      30.758140582955555
  1345   3      5.0753831598561563      3.7276874255209518      44.699436320603517
  1346   3      16.051983354213736      29.789327188313766      12.807794590117645
  1347   3      30.016089187274893      7.1396474922592912      40.077582166107909
  1348   3      29.931443230420221     -4.6012802762269462      42.633095865709798
  1349   3      12.694268506056625      13.612884464934936       22.78357528448835
  1350   3     -4.0948483457277058      2.3183859229371082      56.442902547014498
  1351   3      17.893423519856583      10.876878906628155      40.664692561079391
  1352   3      54.344246437537919      11.518935933620412      3.3538949761007801
  1353   3      45.793094400503556       37.56051838868261      14.427869399357583
  1354   3       12.58233467959932      4.0076268319156938      23.498592861193888
  1355   3      12.215827174890839       44.54428939290392      20.100907704063143
  1356   3      41.444455314491954      48.655539017482816      19.723166494269584
  1357   3      21.527193711221472      48.506380928084262     -1.1342436909402314
  1358   3      28.047175065889991      6.5313290621798812      32.101293449541416
  1359   3      25.830993184746418     -1.9067351879084935      21.877011094852627
  1360   3      19.882041608228114      48.749009801466336      33.643296565787971
  1361   3      1.8438256565413389      26.300308911169889      44.351905620954142
  1362   3      7.0071857756551363    -0.48089532138163782     0.89012791387652235
  1363   3       31.81595379348601      21.191125192883998      12.892225285006113
  1364   3    0.014047677781482979       12.17151669318563      15.512123818646961
  1365   3      45.045264336996304      5.3879529223839917      11.959498359000641
  1366   3      4.4256158808078307    -0.66068171450862578      48.399061838247576
  1367   3      38.674089485345419      19.850382001964114        35.3852397302676
  1368   3      27.562063622102961      19.307610131154963       43.37157055765514
  1369   3      17.876274909174963      3.3130360971616688      17.420201011743977
  1370   3      5.7080283743803841      44.742370387946366      42.040536388092924
  1371   3      20.408777682706265      1.0843123549300606      45.738034393658516
  1372   3      16.564801886270637      3.8146317086145474      22.368608274380673
  1373   3       33.94219513262999      22.268098803723394      3.5197249091049221
  1374   3      19.094874588259618     0.88280180518607809      5.2866199658149045
  1375   3      5.9182163922654487      36.432495492694223      44.419607955992184
  1376   3        5.60254329635824       12.87160342259063      5.7081885796677581
  1377   3      22.958463362279513      44.038739861994046     -1.3707319596080738
  1378   3      30.580245789675992      42.379464877797218       44.86350828539053
  1379   3      18.925810974728051      27.656994942733007      17.685452918307512
  1380   3    0.050694409249429459      27.715191814487476      43.707204429089451
  1381   3      9.9714216271472758      20.992632143411459     -5.1586750149121547
  1382   3      32.270696698780931      14.384964050213012      32.638720737335198
  1383   3      17.197052017609906      48.226797135066029      34.766269944197695
  1384   3      5.6111932481890445      11.732075661395692      25.288010825348632
  1385   3      33.162846710268184      20.340478023298981      21.370878337112707
  1386   3      12.982920525603722      12.383342553208539      31.550725548734594
  1387   3      29.758307125419474      39.991820323318947       31.94491946466151
  1388   3      25.070954106978007       10.95689826946683      32.333799054022634
  1389   3      29.652137192124673      47.330621964021113     -2.2115683468603611
  1390   3      21.167152131840577      42.309964249925358      34.120473954407053
  1391   3      22.212254236138641      50.115783542701294      34.076090756797043
  1392   3      21.090451085789343      21.077373789458044        31.5347047927897
  1393   3      42.526289072732801     0.93233097851575064      17.200971399531248
  1394   3      20.101074137404936      29.890888467242668      17.850228023078571
  1395   3      20.654934589120803      19.716012101751996      2.6882360194368689
  1396   3      43.474392600958126      16.178543462239322      35.635447420236822
  1397   3      18.358338499857307      10.417545209503009      16.667322728063201
  1398   3      34.514349311490264      11.011410104902254      5.8338687851892654
  1399   3      44.569713494876815      44.886449934124741      34.940416196195109
  1400   3      19.305641250524676      29.587525783388532      15.357758093815242
  1401   3      50.871554825641411      51.187823892537054       43.81608110813827
  1402   3      40.846544281569983      16.548661888904764      36.817711972637746
  1403   3       10.85922611610826      32.328621873775212     0.41985299944638815
  1404   3      1.0865431373210102      41.605321305488999      13.995360475210417
  1405   3      21.988379897062909      25.762645420936405      23.090444128748715
  1406   3      40.677141001019223      40.371473905659371      16.277673627150676
  1407   3      29.747161701145949      20.057622738808739      14.513733910587707
  1408   3      37.671654558718494      36.593802709068932      24.234885476496686
  1409   3      2.9042644033022502      25.246780860735317      12.047209380597627
  1410   3      26.897994057442983      44.952116556912806      30.995528316838783
  1411   3      1.1247409613912198      25.742491235007357     -1.8788138997865689
  1412   3      42.748724610450772      5.9435209897014678      34.790605832674622
  1413   3      38.193371679050536      40.652934252509276      0.1923034337979323
  1414   3      18.117054314033275      39.216677318440034      36.062079155944289
  1415   3      14.073983045523445        10.5464273740577      21.977824096385898
  1416   3      36.106446604221922      16.650292175918509      13.865300181412422
  1417   3      18.879116280916424      36.123758514951049      27.190392673938572
  1418   3      8.5316483870507103      32.524455232600729      33.788445011620411
  1419   3      12.811102332374828      41.949938260069985      21.833991748366007
  1420   3      57.605868618047857      32.143926939658897      37.959565082264469
  1421   3      21.421538431112747      25.632111458080203      19.910904956354937
  1422   3      10.090874850457753      48.554164843301862       7.188424158918143
  1423   3      6.2126230253465629       46.81274726922382      43.881564339783658
  1424   3      38.711254279732572      9.7044534544627066      1.7911747356253618
  1425   3      35.567274207785246      4.5789345421053858      4.3799621042061112
  1426   3      21.207671487668573      33.497143041141882      13.009744512928741
  1427   3     0.85903940347277119      27.756627120145399      41.399932172604196
  1428   3      40.451950790983787      40.661341662665762    -0.90803046668936271
  1429   3      21.892868969328756      38.570087234786115     -6.0683117320551112
  1430   3      36.401032713827249      9.5597296971742907      47.296350469801837
  1431   3      34.189007773758277      19.559195041762127      16.807775655948426
  1432   3      23.769521008341059      32.410754995151741      7.0120519298668285
  1433   3      19.471275824534619      2.3258160878134442      21.661293507032997
  1434   3      15.004576675415052      4.7156944867704231      40.457670793162642
  1435   3      44.191561898109278      18.144631017377804      10.580510898386875
  1436   3      3.6153778573297277      3.7135399562653286      24.069652093245601
  1437   3       26.26073685182412      45.309554910500346      19.428905984933198
  1438   3      16.344620233250705      35.949518086386462    -0.60625010819438774
  1439   3       22.43650344817738      13.896961841535205      32.139221902352681
  1440   3      43.608681197161118      39.871776630521509        18.4622423794486
  1441   3      44.491608392260019      40.408522246503416       47.44226692737935
  1442   3      35.084005982324804      13.531137518593765      36.774849543842485
  1443   3      28.410614723691396      4.8562542638470241      44.571134732152061
  1444   3      18.997036764970026      31.624277645956184      4.0130655857160544
  1445   3      9.0134483386056647     -5.8797722861071353      7.9635586297528818
  1446   3      48.309739938443364      35.646193614922048      22.283326534635936
  1447   3      34.984399507674411      48.351128380054384      5.1143430992664181
  1448   3      23.847805612996197      32.510889527038572      37.501283104745262
  1449   3       33.68445226354573       8.857786809823768      -4.024202749554755
  1450   3      32.502431252775494      37.719897949959126      27.030289503851868
  1451   3      17.751049574661092      13.140553691017146      41.370248946868401
  1452   3      22.604122872285629       30.87223824558626       28.91331277811614
  1453   3      15.424066079145561      28.231827802989063      6.8806445224116146
  1454   3      35.622782340328769      3.2698091667535119      21.664501614370813
  1455   3      17.082204730233506      45.536030724271363        34.2743845558864
  1456   3       39.55833319232206      39.119452941708595     -2.7579050319359317
  1457   3       -5.49830286692415       6.857958985363716      31.976139486960125
  1458   3      49.401270946053359      35.096460451863202      33.752376264452685
  1459   3      50.479048039947678          47.06649367939      17.708301395854978
  1460   3      18.322358670667441      14.040995564318207      34.618103833414182
  1461   3      12.070617559254121      16.586130237949661      24.890741760441099
  1462   3     -1.2948759822252918      32.898537005583883       15.21735581948162
  1463   3      15.903730567241848      27.789043879152729      19.910740409171503
  1464   3      40.166234829932556      47.932965868170129      26.289079321881047
  1465   3      6.3806306723111046      41.996215358295693     0.14652768851505291
  1466   3      44.911272288631359      17.716334083338094      38.358516201738496
  1467   3      10.458847787514358     -2.0690401379529395      8.8346220178025803
  1468   3      19.857663063837681      14.153464451385302      39.586093927912806
  1469   3      39.474161045808081      38.432927280487746      1.3284320351099532
  1470   3      27.146444782199236      24.985031312778997      5.8323373255229223
  1471   3      39.422077646332397      26.675268868623156      10.304795223678187
  1472   3      36.531687792530498      38.721677891186651      22.860709629550314
  1473   3     -9.0564205129583861      26.347638175585054      21.010567307106765
  1474   3      38.757805657615464      23.821041172936653      3.2394717499952863
  1475   3      12.587629974782947     -8.3113285213802879      15.741874563689366
  1476   3      36.859188552265387      47.939086968547294      7.0188576577778967
  1477   3      22.699010282230034      14.577851945233057       13.53962484128084
  1478   3      30.142008584298196      37.277361943023003      36.185777070410012
  1479   3     0.53353181621185175      34.638386129709083      31.149817727219588
  1480   3      37.833092132166641      8.5578091811617849      44.676274673457641
  1481   3       38.05473620929353      20.853407068259845      32.818691243103032
  1482   3     -3.0150419128846107      15.976910444104675      20.980374157068407
  1483   3       33.84557206590118      50.338944195148258      19.969271306410032
  1484   3      32.956256968854888      14.984063877272009      12.412858321003688
  1485   3      12.665740815863542      7.2385798260242007      4.4360990678240579
  1486   3      38.254683942429772      1.2042336222574932      26.386847179659679
  1487   3      32.893949662226923      24.997115592733849       3.374019730178079
  1488   3      14.928671704358448      7.0984278698896039       36.62491740316117
  1489   3     0.39527651109051731      41.998342272313685      22.031571154664086
  1490   3      31.818691505655405      23.154019306183212      23.769445959460555
  1491   3      15.171986362274874      68.423149510311319     -6.8563153027323631
  1492   3      29.202095507104087      12.726763148311962      3.4798193042786818
  1493   3      37.147544662217754      27.907240414140336      9.9485710041520843
  1494   3      18.273299827132984      29.552262812385241       32.67645356218452
  1495   3      21.965328628550587      26.178753617896245      30.398973241485024
  1496   3      53.101874828463082     0.46495575636390912      42.334644031866297
  1497   3      36.786496652003763      42.579627608044667      21.266611205354483
  1498   3      18.855550566402076      -2.251069937618869       17.65912770004503
  1499   3      20.109807043340737     -1.1057175363512688      40.018208640721028
  1500   3      42.614279030165811      28.843728951604135      27.864003699781595
  1501   3      15.679067106838536      18.680296053741259      33.164039591992349
  1502   3      48.551020220300629      38.844475862079818      46.167758134403506
  1503   3      56.718969248039137      34.198621258206337      48.866444645634473
  1504   3       8.349386895684221       39.21631036177088      17.808390457200066
  1505   3     0.62245147467225281        6.71192054389895      28.901905176640629
  1506   3       51.74647780848138      54.554887323984239     -5.2156131792702887
  1507   3     -6.4374040210003853      33.145482580316674      16.536118180868343
  1508   3      19.132022753767227      41.789602053729681      36.433070676985068
  1509   3      41.665935765086147      42.498579794108721      18.128723835599775
  1510   3      33.982278771439731       13.33781197360851      30.986693914832323
  1511   3      20.477213891892788      32.523559604635054      19.567802640773639
  1512   3       50.52888532493624      22.969263513875937      46.087648513776628
  1513   3     -1.8041325075885906      31.065212439768221        19.4701182952426
  1514   3       20.66118372335881      15.224535331102983      20.858128357993277
  1515   3      34.189404660346035      14.406339312043974      41.533678831366984
  1516   3      11.086659533513078      32.139776699405552      15.790576957693085
  1517   3      47.179192244148922      33.352523693232804      21.202457895835444
  1518   3      23.532348717179115     -2.9782912054938193      20.022998080723475
  1519   3      30.095829584759187      35.488563158602567      6.1117899376222953
  1520   3      25.522681027795294      19.733565719165803     -7.0527718727669848
  1521   3       8.835275439477444      37.837651163454552      29.515994539137917
  1522   3    -0.20989509512131899      29.943135698404689      38.861506636936205
  1523   3      40.574789297162248      40.688094355864791      19.315517349988411
  1524   3      34.911356750886604     -15.272507230455107      24.603562279875693
  1525   3      7.6593661437257667     -3.6916887791167032      8.0336704839485655
  1526   3      38.026930835262085      30.431739362578437      40.039003875684216
  1527   3      41.680543136771597      38.394540045942122      17.724376106626504
  1528   3      31.507088915103449      15.524824713811045      42.289037045330417
  1529   3      24.217609221533326       10.10497809631652      40.010526384492259
  1530   3      37.267183369484087      44.419129222811705      4.2969486985394143
  1531   3      3.5155932436940964      52.166411867525902      46.447355448215887
  1532   3      18.377122680107533      16.511729820720031      45.429370103253511
  1533   3      5.7839667148420677     -5.6469497093874521      7.7192058242810191
  1534   3      43.334069071663578      39.878708974366191      9.7212944662028811
  1535   3     0.99863605521651777      3.0793881965454806      51.692553571155699
  1536   3      24.161848501800595     -4.2356378827663486      3.3710533965915843
  1537   3      35.249823249991593       45.61616018422432      6.3710149920237082
  1538   3      2.6698784469119303      9.3761636065144511      25.509954727822237
  1539   3      31.297691507789089      37.670781655858043      38.753163436243113
  1540   3     0.69430921849210647      34.245624184358149      17.147934993652363
  1541   3      21.111958769250052      32.852567219671414      7.6339712412841196
  1542   3      35.137416975000818      36.222474244085959      24.180685244779475
  1543   3      24.145687242921397      24.544057569087901      23.510925054350377
  1544   3      46.639265209129626       37.90220639353771      23.151561517381882
  1545   3      41.789443924187545     -13.784245100451729       42.23751187786965
  1546   3      21.016781675342632      33.663941689867137      17.202635723218911
  1547   3      45.888231480710687      48.848535112161706      15.727199356857197
  1548   3      17.821052724257161       17.16059601493415      34.565498548844317
  1549   3      43.714136382827391      44.332122779536924      15.703855695422217
  1550   3      41.743141651382196      15.434501031080657       44.99199191831125
  1551   3      23.101890963330415      56.222300450416029      24.961521742310232
  1552   3      6.7267083328093298      31.506089350885208      19.530768506704188
  1553   3      34.863763125861674      21.020786781496959      18.824522204130414
  1554   3      29.347702596275269      39.746227342236573      39.419986177460927
  1555   3      35.998331405715781      24.139877332392729      52.470981611881314
  1556   3      9.2061301954327384      9.3828185765214602      12.781012441647999
  1557   3       12.34733041586651      10.959771840504498      37.258826968984074
  1558   3      26.824060497451313      4.9956034361530897      3.8673188870732349
  1559   3      29.142861456520905      35.043361974639062      34.292852804429387
  1560   3      36.488979119832457      38.049657803452838      1.1347786356164693
  1561   3      21.700569565780409      28.388375966524041      28.327897534889761
  1562   3       46.82581745631353      35.676152755207134      41.898530892939377
  1563   3      19.168764827187314      49.198058421811922      16.740663941522659
  1564   3      28.989078160567185      4.9210223807376066      41.654552156285632
  1565   3      49.559991907007877      35.527410469380357      40.981785129579762
  1566   3     -3.9719278849626396      32.360543465336335      14.669195609332368
  1567   3      34.753253838860843       21.79767790812399      29.257381118287242
  1568   3      30.787700362855059      27.020511549297538      19.682825253874988
  1569   3      13.085980381531114      21.257782655067398      40.103973211529116
  1570   3      34.487633315508077       34.87868901016423      11.488521893383663
  1571   3      46.097505488823579      46.088489059989037      14.971044991297809
  1572   3      37.636492556558409      3.8478697670472539      19.128553190494451
  1573   3      32.607136084577178       34.47163618002395      19.795521511973909
  1574   3     0.18057503034823455      35.181435000774599      14.144581362784416
  1575   3      44.407977906760173      4.2171175254614539      1.8636462850623343
  1576   3      39.799145246755579      7.2784250414742742      3.2434524455957741
  1577   3      20.743265068242799     -1.9607316556097372      45.099113186928754
  1578   3      6.9971802805737742      32.787668626157206      24.661640383112449
  1579   3      31.177304617645571      30.369444663748652      44.124362244881951
  1580   3      37.227684178822592      38.752840410576354     -1.3562381797024186
  1581   3       16.93232130181244     0.71060571724245125      17.943110966376544
  1582   3      20.357508694410889      3.0198451687748662      16.535008209659107
  1583   3      33.842805852652532      15.240503098553418      38.451049000364627
  1584   3      21.080396094615622      31.806070307526756      15.125662364093932
  1585   3       28.08123420385245      19.840318848407147      3.6817185415750719
  1586   3      16.162696841974771      18.275306612039291     -4.3884708491645847
  1587   3      21.697806689948134     -2.6067961446810135      17.773878172281464
  1588   3      40.792162678875137        10.2329265672399      9.8984773411508495
  1589   3      3.4519860857991045      11.748705476852304      23.760119072676808
  1590   3      43.953811153349115      37.648129005234992       24.03113698690175
  1591   3       10.99496359593787      11.852432067494762      11.212557281107976
  1592   3       47.95663259183786      20.770194102516552      45.275322697616758
  1593   3      22.341487196581056      23.620431247735031      21.610901923045798
  1594   3      40.036966276100188      5.4691672652883607      5.5024221557756459
  1595   3      28.022287978467123      47.947675830463602      5.4289326770675927
  1596   3      36.861108293717656      17.835458103042779       16.87519057149477
  1597   3      19.593635989447712      26.215436403247629      31.403198563073715
  1598   3      37.997559056613341      46.965065418195671      4.7253493139372775
  1599   3      16.418950502380138     -8.1271028654393511      34.829115903400435
  1600   3      31.803445660334621      45.385881236154049      46.656108090700464
  1601   3      24.666086408553269      22.795302937984054      41.201119913031249
  1602   3      32.507968024217938      39.883775815510454      31.563576970451219
  1603   3      44.983886957888778      39.928433748214871      24.958943937400896
  1604   3      23.235722620527987      15.174422589020732      10.796283949579262
  1605   3      31.779270607334247      21.282363533237728      16.199876802927527
  1606   3      49.666419311938789      44.344978228750264      18.879212576585314
  1607   3      9.6225539580270816       15.69478027679027      38.428278860309312
  1608   3      10.839644890629884      6.7101839822282443      36.379554267506684
  1609   3      45.562110769638807      31.703827753713938      28.769773430142358
  1610   3      48.492928799969782      6.9239319968559103      13.309715879302074
  1611   3      3.0271917395285555      54.961242457052066      24.895600259205391
  1612   3       29.53481916529751      44.937947284965944      45.330676340441968
  1613   3      52.502706162051524      36.583312308819053      40.888570845355062
  1614   3      16.597121439621802      37.663637430005856      25.690003751752318
  1615   3      15.665960755721434      34.931724384240169      25.268310335866499
  1616   3      28.204234417647722      46.686851223674495      35.174953493528236
  1617   3      28.420283707583952       37.96158545826318      34.390483565631691
  1618   3      34.698304220771817      44.413857634556855      15.028899323067192
  1619   3      46.764621096575716      42.280258776632891      46.971546130950237
  1620   3      20.492851329735679      16.713412821927996      39.468454068586176
  1621   3      31.172009321077038      6.4827777948644458     -6.3912059495277225
  1622   3      21.544569717203562      21.383506191535162      34.541902002819818
  1623   3      29.348364529096088      19.912928560208751      6.3309626314138683
  1624   3      22.142169684025994      33.535088590299523      10.368776670848906
  1625   3      39.469041100411566       4.802730419713038      35.133773966941121
  1626   3      36.872527439050714      45.245321422825434      20.178420503909489
  1627   3      28.644044069233619      46.331517448557207       41.31732253362496
  1628   3     -2.2219864256453969       14.89580283495026      23.359464199028238
  1629   3      15.462063743915188      13.600655530989135      33.480496435932771
  1630   3      4.3154642918646227        22.9043475469079      12.581385163455565
  1631   3       28.10611919177072     -4.2672898121724554      33.342670242537167
  1632   3      16.405026524010474      12.930574514280345      7.8099750455480272
  1633   3       34.56045300435246      14.794403372076863      34.631197260834973
  1634   3       6.900411511800602      50.702671697299358      50.178807646481147
  1635   3     -2.5660016544059467      19.624043011314935        11.7295860292969
  1636   3       46.75272376164861      21.042169651103293      35.011250093500415
  1637   3      46.587187360604233      38.614038220878008      41.180308828522122
  1638   3      22.091164099559645      35.264990373489525       31.80675767694262
  1639   3      21.205365103794776      34.690299921146888      44.044315157513374
  1640   3       36.72888620409298      19.332149753668528      13.971851173613882
  1641   3      20.681585812183442      41.044630183160926      19.791742151063104
  1642   3      41.097923566395792      39.907989742429514       12.53402918683088
  1643   3      32.209484496036971      19.910790361367045      18.825680637245451
  1644   3      23.110979525107716      39.616295954506533      39.562588612748613
  1645   3      47.019187726823091      35.691363345397818      16.306456813187204
  1646   3       22.05283015129039      29.397453184935213      44.097918243973517
  1647   3      31.983716723122036      28.389768975491446      42.268630148972697
  1648   3      34.180597333268885     -1.2532435272165661      42.043219590513786
  1649   3      18.824005498959789       28.46079048654412      4.5742802533872791
  1650   3      51.881792649786036      51.138353122425457      36.288283999004214
  1651   3      17.412569492568341      30.829466749671059      30.208017564582693
  1652   3      54.689963040184942      37.324104615729183      26.729898922231914
  1653   3        29.9943717011286       22.09292646071135      4.6376641175354951
  1654   3      7.8662111715459657      32.557972327326119      21.890262087843254
  1655   3      16.843052811932967      2.4744465224146177      20.167869178451802
  1656   3      30.343010674520404       21.00541523008253      2.4993947960864356
  1657   3   -0.086321224578665326      7.8784542792528036      11.020351168060772
  1658   3      9.9422912821570328     -3.2957269484762257      6.6805268398356947
  1659   3      39.437844419289597      4.5407231204163097      17.225563403986975
  1660   3       36.53065499117438      34.303029368774503      22.228948993052754
  1661   3      31.366710713667182      18.261294929579943      6.8267799089670751
  1662   3      34.053298778884205      5.2783816503614966      21.010571241183207
  1663   3      41.174830384297785      14.333208145265367      14.784517163739068
  1664   3      31.397515909113466      -1.507790251095253      41.344113739961188
  1665   3      27.777488999836546      45.235781865570878      12.025436083730249
  1666   3      29.331636934919224       31.70027278574225     -3.4387970699006938
  1667   3      28.815440769195604       39.26634216643501      45.697551890549178
  1668   3      9.7345805772496945      30.034844387592983      29.614781974208533
  1669   3      26.563820491606663      6.7624087603987331      44.639074573187294
  1670   3      12.156508529530258      29.532376559502627      30.526028997246737
  1671   3      39.663940451188708      32.056293876831866      40.848462035281024
  1672   3      1.1208844208355131      33.203192886596064      19.802564155093894
  1673   3      27.141383940950924      4.9422105304010024      16.484213121376161
  1674   3      52.713342685160484      52.364287493196585      42.510243803035706
  1675   3     -1.9879023617004292      35.156296841864076      32.577173737577887
  1676   3      9.8015311192351344      4.7817148934781848        23.0682214280944
  1677   3      38.981616653889496      17.488887207073734      13.765507568914476
  1678   3     0.13968300677768261      24.915627116023575      42.298573254665051
  1679   3      11.189091853552203      40.125394461916599       39.07792982941244
  1680   3      51.698047582258084      2.1602555679440973      40.334832325073442
  1681   3     -2.5659767743926061      23.174751552684356      10.787457902669686
  1682   3     0.92227266001919384      7.7390742389661593      26.731953072953196
  1683   3      34.343902375354169      46.493829392221542      -2.519673796911964
  1684   3      3.4794933492422939      39.910068354170264       13.86297825839822
  1685   3      40.237302919143652      39.404729496227674      9.5442986551003557
  1686   3      12.269788286598185      22.646960444870981      42.333215003111448
  1687   3      32.320012641545731      13.629701075611566      39.780713744948294
  1688   3      45.416196728653105      18.750761016828921      35.428602856423794
  1689   3      30.972389423149984      20.881130142649795      22.426006060579855
  1690   3      48.674831920381521      13.495509365411792      4.5759608435982839
  1691   3      30.735910898079155      34.511069247070004      8.4755156396466358
  1692   3      32.443653388574361      35.748700163765442      10.433882501422202
  1693   3      18.973049605278945      50.072760694278607      35.694049270511435
  1694   3      23.284130822671564       32.27407626361186       40.13982388483349
  1695   3      3.2219965917867244      22.605304602682217      24.402359007719852
  1696   3      33.054378369648049     0.94440680913417663      40.987287704747864
  1697   3      22.770469958653393      40.710707592083246      35.828338914240881
  1698   3      5.3823670971344848      34.911869159314861      24.257384668763336
  1699   3      49.248084205204009       22.66221429656283      34.008209411756404
  1700   3       32.38047402510994      12.725272815568438       28.74439487435933
  1701   3      46.650595007180073      19.511499943500869     -8.7039055896362623
  1702   3      46.012421365693278      5.5500373324209553      40.825241968494971
  1703   3      25.105162306963432      8.9771718614421676     -5.0454102931059053
  1704   3      4.0734054430137991      32.480017478438867      24.827209031622736
  1705   3      27.053497241463379      21.808198566607086       14.41781784538092
  1706   3      14.793718854871249      38.581018929127026      43.369620322955868
  1707   3      40.005060582219983      44.590907887133412      4.0420595832257229
  1708   3       17.13870939795752      38.369681345420823      41.745760205750607
  1709   3      37.765158694755883     -3.0563400051857985      12.717695056507774
  1710   3      39.998215530096111      1.4869128493546699      17.896841978039433
  1711   3    -0.45752880031289717      27.465668648358228      21.527940778194992
  1712   3      23.945369182234721      15.963017085828632      20.659678108688606
  1713   3      16.096981357101175     0.15451016611533591      21.768111683178319
  1714   3      46.855729397783826      37.645651465074877      43.798533660990827
  1715   3      12.681213294888748      28.529456301758611      7.4165090400067459
  1716   3      22.472955359359673      35.272267742504255      34.968252948782443
  1717   1      30.731020931357978      41.796016426690443      2.8303225799893235
  1718   1      39.279983195572306      4.1917682499513864      2.9166745222576527
  1719   1      58.251199333957665       34.90573781297374      38.970407059708634
  1720   1      22.087733439293199     -5.9548788756083253      37.354069070044162
  1721   1      42.797146513324599      26.890168511068847       2.287323335257919
  1722   1      17.003990783584079      47.502345559791216      5.5765103469213182
  1723   1      43.133253031533634      38.202101637758489      39.233662763444549
  1724   1    -0.99394408251777711       19.72684403074803      14.576895664169371
  1725   1       39.86028805862491       10.44340811337613      35.161146215132469
  1726   1      56.054403264686805      42.096531347319342      14.926256070588053
  1727   1      27.092292317286592      19.867089901180673      34.699431445646979
  1728   1      30.607482761301423      42.850292870687831      28.494116520368728
  1729   1      6.2882360027718072      10.573076137588462      13.322139740875338
  1730   1      16.370049806477464      19.687954074369745      35.748871999225969
  1731   1    -0.27376351441263841      23.866171539040248      37.531598683258018
  1732   1      40.305713792353245      42.655060260565719      14.688514756101032
  1733   1      12.611561131205441     -5.2260339869917845      15.488465096795601
  1734   1      52.069765022651652      47.871333717221326      28.186609194587145
  1735   1       50.74554820102756      43.825291902145352      7.3894318038460129
  1736   1      37.075803672057582      7.9221166807134908      4.4984806061780365
  1737   1      34.233574030097714      7.2965278842208452      5.8877412027905702
  1738   1      52.199954145026588     -4.7422622464493642      13.743614913645978
  1739   1      24.774276505763904      26.211409968226523      19.342964259805406
  1740   1      21.734207675809934       14.05235486167895      16.576589927560153
  1741   1       9.505033962412039      9.6631070234645691      9.0033858964490054
  1742   1      7.9700383956278555      35.372204667813335      14.320079264443196
  1743   1      33.885911121715516      15.818630110085969       6.971257706030924
  1744   1       36.54715859293281      36.049322142598648      15.383714905374996
  1745   1      33.845857317867228      33.027932617879053       34.68788053610502
  1746   1      45.067240119807032      28.634947045803759      21.892406187524134
  1747   1     -2.8334954218482191      12.663101611265814      37.185965261382002
  1748   1      17.239913970030234      27.008111739332772      12.331987933950858
  1749   1      23.084814649861471      16.905307244431338      31.878828051865955
  1750   1      39.065722186026115      13.748419149018565      36.071113931888924
  1751   1      27.780618361577964      10.242415676224638      19.733742507579667
  1752   1      43.287211212282074      45.950362089517519      26.725667819075561
  1753   1      9.9328722079839071      20.805362188861469      30.119668765480856
  1754   1      31.536733825520688      -3.805674629283132      10.828703709145822
  1755   1      41.257413152214774      2.1304484229503258      1.5346870924984222
  1756   1      5.2484570806367596      37.355670355547403      33.666885064607456
  1757   1      16.009424808719913      37.707173374640426      2.8239880117944436
  1758   1     -1.5874503040920895      9.5530951176084606      26.749326524801685
  1759   1       15.87120343615625      20.856728742304096      21.468750096897924
  1760   1      8.6590505490450305      30.050388642595991      32.417852872747851
  1761   1      40.757016743723128      1.2600228192260798      28.728326935608777
  1762   1      34.925805373697727      27.335229768864973      44.344831672888311
  1763   1    -0.79282998266159777      4.0658146128188459      17.306476691928331
  1764   1      31.634394669910783      2.4570392460748383      35.557696862996913
  1765   1      33.763751349533607      25.558094747819101      37.298409527246953
  1766   1      29.599644054837334      35.250033278292285     -8.8321952720574313
  1767   1      11.918382920956802     -6.8781570945093433      18.300327572995332
  1768   1      27.793022302746184     -9.1958828712311362     -11.863071786516999
  1769   1      14.960079331112819     -3.2708248550003529      31.976287790268415
  1770   1      7.1470292666566122       47.47197281992765      5.8978715402222406
  1771   1      45.805914524430989      21.160297504000575      43.100572090471651
  1772   1     0.84242869095974104       17.56303656963777      26.096998082778324
  1773   1      9.2822900922045637      52.830508857791891      26.307325127176703
  1774   1      36.624989049029494      29.490376777810305       34.60514684818525
  1775   1      17.531524707178779      10.439660986118671      46.674766821096185
  1776   1      16.537352751280626       45.59333887677473      50.629776154689125
  1777   1       25.02812569760691      1.0627409407607631      27.137374019935482
  1778   1        31.1456538024105      49.055245679510634      24.896817075740671
  1779   1      15.360858578350907      9.7500098223906608      36.897501078929324
  1780   1       12.04628428862447      5.4017916627618234      14.885811315247143
  1781   1      40.455326384680646      41.603495098185903      37.566121979463183
  1782   1      31.079969517250525      6.4136183848275223      27.114473059034623
  1783   1      36.432881607894053      4.5002918438119925      42.940371823268528
  1784   1      24.516315739534669      54.212076824504649      18.165653947303984
  1785   1      15.175959674005011      21.544833213805695      7.4953039463424043
  1786   1     0.95131328487719913      49.695735512740256     -1.5968289965655484
  1787   1      17.792884403693265      32.062342210991829      17.591742895084639
  1788   1       13.70846945050666      19.436777201622469      14.816062237073822
  1789   1      47.219556271787681      43.729530283418896      39.288431443154771
  1790   1      51.488343478308124      47.501740422218049      31.442978204913995
  1791   1      46.497244361231552      41.689390123622289       23.18464699968354
  1792   1      29.384378766747759      21.569192891211735     -4.3822752623078651
  1793   1      33.264476014951157      47.317459543021194      48.935450954705161
  1794   1      25.263196393851477      17.186407618772872      34.983564658056459
  1795   1      46.418870745325286      20.813723252412423      31.586526905534562
  1796   1      39.002202729678693      29.211024454088342      11.966272086659737
  1797   1      11.209283175593997     -1.2170237605840748      22.096037886949595
  1798   1      56.524919557398917      45.933974251947163      46.129682136368402
  1799   1    -0.65996258614626624      15.059092410008008    -0.54223502610805119
  1800   1      30.922632085400128      15.144658281165823      29.841027508986034
  1801   1      12.222089794297448      33.020998178854484       56.46762303814409
  1802   1      9.8634233199565973        15.4413879824563      41.641467032829148
  1803   1      6.3740094554704774      55.159094760835956      32.565725483416664
  1804   1      24.226381105938547       27.64319828949499      29.153824806783955
  1805   1      57.610574535036811      11.374784704759014      1.3980587483787363
  1806   1      44.224819045091451      51.366459790560356      10.320512411961312
  1807   1      32.931378585232515      23.171567512753615       -5.05476407364268
  1808   1      26.473847895233376     -0.2500304166916254       47.24141161121922
  1809   1      54.598958049416794       30.48695337034545      50.316886542829614
  1810   1      15.249338390567676      8.0681631081150389       30.26813851928582
  1811   1      27.789348773307733         7.8053810232637      17.861572849649374
  1812   1      12.313601820508264      23.035880236573131      8.2242354418603849
  1813   1      21.106749143576867       1.372912215303751      26.275259129502945
  1814   1      46.556416592919049     -6.8348707839726277      35.922294499589292
  1815   1      21.432919896848556      37.486988790578657       25.74432031395607
  1816   1      46.938766569956279       50.88138830993104     -5.2150688873755593
  1817   1      3.1078081538790046      9.7932981511556534      9.0188783869807132
  1818   1      12.827984963073419      52.035776612562159      42.090211151411516
  1819   1      29.084205313020387      23.582941510860252      24.238613826336753
  1820   1      39.803630667811618      34.881648148011699      40.293635021823448
  1821   1      43.226955637995729      13.380393216996827       16.91776191868869
  1822   1       34.05142786986611      41.609419680483704      27.033418158821696
  1823   1      20.274158443514455      33.638771884543132      50.188055312169155
  1824   1      1.0705434415635684      5.1087035866280024      45.714249538412354
  1825   1      21.672339756276269        25.5882174862022      -2.988452882397393
  1826   1      15.885301903841995      16.838856964462956      17.116520934380759
  1827   1      29.007651656181768      31.015002958909186      14.217599354197432
  1828   1       25.21085792015122      6.6054989326111189      22.869982464672361
  1829   1      10.837165113100154      7.7963388035794337      44.793476896833916
  1830   1      27.617551855630769      40.802322216733458      4.8087402264598538
  1831   1      14.418827017371029        26.0650135080731      8.4244310384389198
  1832   1      19.186490992676564      43.909641664185912      23.320651696681256
  1833   1       28.36056292520502      16.302649434669657      15.545055449004149
  1834   1      40.202968247279806      30.005830480996838      16.001241855577096
  1835   1      40.879037318275316      9.8810057743076882      38.357568986860592
  1836   1      33.863998556525083      6.7670900415320041     -11.132313477927333
  1837   1      27.837148970120353      12.613799811333617      43.624270666818482
  1838   1      3.4534123661431182      19.284956176600247      1.7208407712617808
  1839   1      16.884494419809535      11.376971775085368      27.259686321918778
  1840   1      49.445245181016368      44.554333160710591      31.371087562080557
  1841   1      20.215101786960176       9.436642399195792      48.344592538584635
  1842   1      33.011793492560209      29.047863155494433      20.604032687104407
  1843   1      33.739305755927731       37.34451425692037     0.51349148002789247
  1844   1      14.751014559684636      8.3914895879224254      17.309914366738788
  1845   1      41.797816668220612      45.978343469240372      38.263969782100311
  1846   1      34.824068564347087      43.509755502672306      -2.180535036050808
  1847   1      29.269062517178195      42.301373777913845      20.523694624651032
  1848   1      9.7209204346158273      6.9741982667223086      29.490318065130246
  1849   1    -0.52813922440672056     0.27782991704926702      1.6823397932437567
  1850   1      27.037945051223065      7.0257845300437856      9.6950218770466492
  1851   1      10.704323707044844      16.067252152363785      22.008309530181517
  1852   1      21.699595959811273      42.876235789933069      26.372373552216096
  1853   1      36.795733626052069      6.4497543322841722      34.589137438988388
  1854   1     -7.1343005672624562      15.783654429261158       21.63050801925111
  1855   1      14.473589874933571      6.8558073280635607      14.338471404698156
  1856   1      21.930090798017932      16.943140274094276      15.779097865479621
  1857   1      33.770972226117458      3.0741562203412363      43.586115264652889
  1858   1      9.0382575901468982      17.878847775309293     -4.9790234868570264
  1859   1     -3.1395960523593929      37.166212576355555      6.1158198432778219
  1860   1      15.857326914810491      38.198339213858141       22.75944688125276
  1861   1      8.6167522848716249      7.7315344512050483      32.376806014865203
  1862   1      9.5547500132269505      30.355274251004147      24.381127584851786
  1863   1      36.600002596372526      19.502945133805877      23.647884355818565
  1864   1      37.108188336782938      20.972712263795955      16.498767407501369
  1865   1      41.854297789570722      3.8999135452769025      36.888918431407475
  1866   1      7.1515869610395733     0.59588576168551877      32.264204348275072
  1867   1       18.39243191456697      18.483071067961898      20.855237159271844
  1868   1      50.916708990331806      41.598958915993592      43.944524609816945
  1869   1      5.4377362764918251      43.657489542902638      27.942354368869672
  1870   1      23.983017108866363      40.815485790928797       21.13529827317338
  1871   1      20.257948390566568    -0.58412193793413347      7.9347039158786359
  1872   1      41.839471409495971       43.74030320972826      35.233248633876144
  1873   1      4.6236510073249235      40.412003047337755      35.165136308349403
  1874   1      30.242451708271894      14.338805780276722      13.857259692985012
  1875   1       44.57863316627764      30.116112989857832       41.82699662471147
  1876   1         21.293909320407      5.2021993773143276       18.95230664551697
  1877   1       41.77812956774445      6.3998243315403851      1.5207578529013945
  1878   1      33.823885159874784      27.976274210336786      35.519505154210911
  1879   1    0.011136919430345666      27.437687399270295      11.491378498501136
  1880   1      12.630459070675638      21.096436721289045      20.797134862385512
  1881   1      31.641324695428825      23.412408188111907      1.1405813142919756
  1882   1     -4.2978481870579035      34.405895623560085       5.127506870328177
  1883   1      9.2462228546527658      51.264062785188734       39.39024542361517
  1884   1      30.681541031608504     0.12930630335405438      28.218856663781001
  1885   1     -4.2246172824024608      22.266542514608432      7.7530536749394088
  1886   1      43.243446546213903      9.4296107843146242      47.367464098634713
  1887   1      24.044174057727844       5.427004176835255      32.633024983658075
  1888   1      38.676430516981561      43.303721885199018      27.891578626463723
  1889   1      12.928121258140925     -1.5778420176559667      28.882599778780957
  1890   1      17.317132064282816      19.464248781477437      24.746861726565509
  1891   1      17.759644555841483      30.907230111729458      9.4857077388059583
  1892   1      1.4480232929590828      17.186309838776182      38.885491003514687
  1893   1      10.081170543946723      23.201409983786828      18.647215161694923
  1894   1      27.583695093858111      6.3946791258374667      12.831819141570337
  1895   1      12.196488427181418      45.788066071054011      25.952745586420043
  1896   1      6.8002562909405517      15.095681657500132      36.041303852711259
  1897   1       17.15207654611083      15.367476578276491      20.230883949745234
  1898   1      7.3192216451861665      20.378340215285345      42.371392831417069
  1899   1      9.8107963939891611      -8.600745675674295      6.8759020960568638
  1900   1      5.7073518996511901      30.221890739297276      23.541789737788168
  1901   1      17.941228343092646      57.182985839834132      28.563604361224183
  1902   1      48.600878167735736      36.762023360082878      3.8200205423590146
  1903   1      24.123803913842057      38.679589702359976      1.8332167608362093
  1904   1      39.689675558922971       25.12030100714011         37.796558363947
  1905   1     -2.5406588711963165     -1.4950863871855022      2.3783151134094389
  1906   1      41.861353867431731      46.920199466862265      5.2763876211636598
  1907   1      31.580231858966499      33.460690940157008      30.433319064252483
  1908   1      16.187278621758079      15.674058068663847      36.847921087452342
  1909   1      38.850389941298978      27.782796814873912      45.099922190769185
  1910   1      30.304955095867477      13.334136218362394      26.044967828447074
  1911   1      24.455075232281697      11.274619765888765      8.2327696285264071
  1912   1       10.73842038416875      8.9895571609068714      2.8645043631933169
  1913   1      24.844796770997146      18.748899572535507      12.347741947738891
  1914   1      19.630636805619702      42.808036592184976      45.411304270878929
  1915   1      14.028459740315222      16.368029027680532      22.818710393612495
  1916   1      30.682624097726574      47.974351893576326       18.44032924992678
  1917   1      27.290496745398102      20.884449139836889      11.641342092844774
  1918   1      19.403646569260392       31.09174873854549      12.919300491956641
  1919   1     -9.4916275534884313       33.15112703793654       18.45459851133776
  1920   1      13.169374689606679     -7.0323810682040939      8.6881573401060557
  1921   1      22.928680263384511      35.565737787278785      7.7148841515810069
  1922   1      11.935938435119246      43.994738875960977      28.947073878771736
  1923   1      12.561397667937799      25.471314614476789      6.0313326631000832
  1924   1       49.73977524309565      32.116763509303546      5.0052316557659466
  1925   1     0.54301513110930533      16.876203414040656      15.638064126905327
  1926   1      11.889009032018743      4.6540984604934144      48.413583616133536
  1927   1      22.392110058510649      7.1950350300167338      27.806550627560721
  1928   1      42.127553596901471      18.851346258360344       44.19197048116343
  1929   1      6.0672348064626265      22.958544259166647      8.9289912825547439
  1930   1      11.508095675556978      16.783229674565632      16.025524807160089
  1931   1      19.138814512541114      25.229513005945769       5.145128234363546
  1932   1      42.766417874971623      35.785624709926758      37.689546556258151
  1933   1      20.770243499778292      20.186236526701105      14.277983216304053
  1934   1      13.002493194210485      22.703982001593619      4.7237271212997332
  1935   1      46.095274915014336       5.459433931858241      43.720495047211536
  1936   1      3.1631011599671832      23.683608193848045       38.10598586183086
  1937   1      12.263538925549708     -11.750131289723505     -5.4511821800576667
  1938   1      8.2997937999439646      41.899273088326488        26.5877024365926
  1939   1      46.037808836117385      43.226199672448658      13.614526059267464
  1940   1      33.801375762659291      50.097918846371847      26.649127557381512
  1941   1      44.905418937372104     -2.9520569004743638       39.93005082597071
  1942   1      5.6706756190989953      40.808573483475868      19.130873858866384
  1943   1      44.164251647604232       3.374030250084008      42.067269239536799
  1944   1      41.446294120627584      17.466296202144843      15.259348305608471
  1945   1      44.404691309073129       32.87570420933357      40.173197390419041
  1946   1      35.385340215982772      35.851541784300686      31.917307969642451
  1947   1      34.804933033228593      13.090164848482098      26.490457216777415
  1948   1         21.113970445524      24.758117014387413      11.891834478262044
  1949   1      24.153607855299249      27.639949384927164      15.572260331442488
  1950   1       23.77614565849365      2.4188563037039499      48.210828613182493
  1951   1      40.730873688349945      9.5234402965813647      4.5742223358270317
  1952   1       38.74924162730926     -3.2007470901771082      35.366356554249329
  1953   1      20.294999320677121      19.786986100443848      24.367923867852468
  1954   1       54.30382977671205       21.72192639755994       40.52662824076554
  1955   1      38.403814516049692      37.169764381680181      43.768232046681277
  1956   1      37.875214917476661       11.07846981484894      11.380877949370634
  1957   1      20.907790928777093      11.324164260766741     -9.0277319993206735
  1958   1      37.669329916193981      21.673537215852246      1.2918528915281773
  1959   1      25.085018028223622      35.267280272942109       36.52251685044844
  1960   1      9.8161662395566882    -0.81538997632707155     0.53518418719465799
  1961   1        -2.0405770771472      16.287729540220266     -8.9171688272468081
  1962   1      8.2760432474241199      23.817284750737358     -6.7695673262600042
  1963   1      9.7144931079371712      1.8095783273777566      24.000924545609863
  1964   1      27.788468193343622     -4.3887823157951944       38.61393887495931
  1965   1      23.910743363900668      56.109136316208229      8.8271209512607225
  1966   1      37.311978159929147      -1.932146493321286      27.093610822281132
  1967   1      39.442232551609543      29.298379690818237      27.000837005192125
  1968   1      51.732763135981429      37.352696047639462      12.822118035315926
  1969   1      13.132943424426072      28.971567820869552      11.062387107471547
  1970   1       -3.06926672368111      19.769417496359949      4.4738455695449435
  1971   1      39.194909343759967      5.5744760564719558      14.437066406798882
  1972   1      9.7472211212876179      9.8674973539361854      47.316080764577272
  1973   1      19.693634288716719      14.957312328087861      26.631651164000072
  1974   1      24.675257155322107       26.47455080707509      45.503321938503426
  1975   1      23.151013909680024      20.741855264559216      22.647565111251925
  1976   1      40.102800694876734      36.123711111294341       20.02183806405333
  1977   1      16.229608481611923       50.58195289537678       6.202164316989105
  1978   1      18.522790718428119      29.529618689209375      44.349368790056893
  1979   1      39.490706643535418      16.859282433268426      43.746578936070961
  1980   1      18.527299847339556      8.9051504491951778      37.558917491675224
  1981   1      13.417907186302813      13.352129355528728      35.407106932796211
  1982   1      15.355437559557259      33.170834026377868      39.573829222181764
  1983   1      20.154427274148997      44.436971286772327      6.3855802687311165
  1984   1      24.899168563011397      21.546665801390091      27.609920784111811
  1985   1      19.159016564848294      61.241287876129306      18.750955359565591
  1986   1       16.05801427878291      36.052005038680448      19.356237009462085
  1987   1     -1.7321686708747905      32.443685697413471      3.2242650251644687
  1988   1      44.109702295365651      43.736038470170939      37.469103583576469
  1989   1      12.668618607984419      31.245737224794766      33.571786724487168
  1990   1      16.206228528940258      35.465241997738396      42.105535755611257
  1991   1      11.894787136138858      12.912523352338654      41.438202765205368
  1992   1      37.411762305519197      14.090644201574836      28.396219922136726
  1993   1       30.33095300427313       -2.36987841227283      49.425834538526658
  1994   1      8.2219942995108539      30.382969131920046      16.807289322857393
  1995   1      21.163926251967293      22.197984759165141      45.336967711617959
  1996   1      38.525595519007446      14.211877035004019      23.478665111301854
  1997   1      17.079534350368107      5.3078321523881371       28.68242000502552
  1998   1      52.517649639960482      4.0026821750359272      52.658927081158666
  1999   1      3.9096941581431093      35.224505250022581      4.6442300700288204
  2000   1      6.6537675351257137      22.265846614929973       25.86829338636246
  2001   1      10.139426250928393      40.660842002157189      13.776386450877764
  2002   1      18.335391163108579      39.511410415336492      19.975802848429826
  2003   1      3.1169814652367061      32.500288058274251      31.446180669757272
  2004   1      19.553082735107473       6.381540865263541      2.2850095911890533
  2005   1      44.518809745964177      39.992628177827726      12.373450567413178
  2006   1      3.0016053672602769      46.917561554050735      40.504401290352632
  2007   1      10.317848452234072      35.283456208215178     -1.6972767856392097
  2008   1     -1.0625077385820976      12.795905022553921      13.113259411461485
  2009   1      34.554778041437039      43.496321828965073      18.295541293426474
  2010   1      37.639521931137743       33.68979662584897      25.762252351923607
  2011   1      27.648775838670097      18.968491277253356      46.244029189461301
  2012   1      38.139527610726937      10.859907494241371      4.7313900487649825
  2013   1      30.314188704686106       21.93071151036234     -1.0086933226446242
  2014   1      27.001806407256851        53.1261395967433      20.144939232355217
  2015   1      9.3620424638826059       17.08039831946617      13.244519769776453
  2016   1      45.337440229962318      2.4735820015848753      17.055066529536571
  2017   1      5.3201588569503615      17.136154389483526      32.991446211045208
  2018   1      1.7694167827369551      32.171202566879032      37.117805135574095
  2019   1       50.58128272143658      4.8130834290905291      21.069150474882637
  2020   1      3.0261975595689088      8.4664272872031514      12.101822368659429
  2021   1      52.489839905843965       10.92030914875029      30.406052945249726
  2022   1     -2.0503565026409589      10.143142470445085      20.030117458049371
  2023   1      29.664625091470615     -5.1874488628528654      35.862577295625371
  2024   1      45.427393737028481      30.286098302663113      45.625307904687489
  2025   1      1.4582495919283567      26.173027467841049      3.0247318148991762
  2026   1      16.056181605217095      2.0527846812395478      42.032066237547092
  2027   1       42.42517206751188      44.863770997132207       19.46684333271352
  2028   1      40.692240419488996      44.548283265652024      7.0102968419152232
  2029   1      6.1183604133735159      37.555888717900849      23.401488485199536
  2030   1      44.388462236818256      22.237050216224972      33.412238656300303
  2031   1      40.392558063289009      29.111430372107016      41.542723043276126
  2032   1      35.857846747375319     -2.1842009016184942      32.065761821883953
  2033   1       18.48098464437205      12.205021215754774      13.479975028811225
  2034   1      3.5329078768078777     0.24316486350826436      7.2472197154764899
  2035   1      39.322769674697426      15.727000209730225      30.729044952698647
  2036   1      14.319470451474865      3.4136571546797851      4.3107861174720954
  2037   1       31.85658001726344      26.003015330923024      8.0374360278597177
  2038   1      12.303504437782191      31.042238052529964      45.225964652768255
  2039   1     -5.7399517886150591      21.080950812005476      22.857996189132606
  2040   1      51.524785046299172      9.2703690536335195     -6.0390179495449043
  2041   1      9.9644205642890888      36.724471242102815      9.6263646083436534
  2042   1      42.779599238453436    -0.77902019138403167      40.830832430747257
  2043   1      31.023505859981228      19.138185720479878      25.384244098613884
  2044   1     -8.4603629597253853      19.204847575790939      30.967251679935348
  2045   1      34.081074968192567      60.038081613332047      38.923751744860695
  2046   1      47.233843669154702     0.78478934777002807        29.6164531507298
  2047   1      15.663714801777941      22.987341551845017      46.470126166699224
  2048   1      21.450943421245146      14.086734000085535      8.3798773357951237
  2049   1      13.607408808007548      47.113758901533842      8.8100565220480043
  2050   1      33.839802414030771      26.561962632353737       10.52180468393291
  2051   1      4.5653025774298408      5.8193553588281439       22.11483278746174
  2052   1      25.094929650767853      30.081270363205764      20.139226572568511
  2053   1      36.531687810530983       38.82241417862339       33.31115573434343
  2054   1      48.572786093710079     0.98239906277241895      17.618261047547499
  2055   1      30.608390034654171      37.532932403334485      8.6051200395076215
  2056   1      29.753383180357627      11.607328212704674     0.57137498055749392
  2057   1      24.565631807438013      5.3293254113445601      6.4698541927166184
  2058   1       16.02045899883365      21.529756794627449      52.800280086107563
  2059   1     -24.884114587666133      30.694823144616837      23.228725537862495
  2060   1        24.3023596644192       31.34185174692178      45.572020775275398
  2061   1      6.0134857556981069      32.757102044398898      7.1071132673416386
  2062   1     -2.5312701881310828      48.992367113278476      4.8768430639697229
  2063   1      48.930008572394641      47.426615862867862      13.659916393166595
  2064   1      8.6011072230204313      29.497997741943504      45.092786587076404
  2065   1      5.3809276751745543      21.614138428537597      37.268068818921627
  2066   1      20.938164820364133      48.439466157125757      22.422477688504589
  2067   1      35.419073451674265       44.15425850330832      24.286459247901565
  2068   1     0.70260104732794437      11.976990667499685      24.801244578567069
  2069   1      38.570371540858979      34.289359796873242      7.6429692556323507
  2070   1      32.639013381802926      9.4901502191785649      14.333815946614804
  2071   1      36.027923948874587      39.861429490057631      7.5838134018267214
  2072   1      43.386949795923499      19.330181859707846     -8.3275469202907697
  2073   1      16.783779848137936      40.295431748752428      38.453752442633558
  2074   1      18.123284625562263      42.242669978844305      17.530163482575905
  2075   1      53.066560524345725      23.456415572460333      44.185179720903022
  2076   1      35.939478312198823      2.0888062497546986      24.100427493867674
  2077   1      20.372244555410138     -1.5726894366775306      4.4155849185924545
  2078   1      40.880031663077453      12.776765179663974      39.183071274279449
  2079   1      5.2424123708966084       28.22534640455568      20.712025694060937
  2080   1      23.119339338974939      27.700656944282141      10.796786104146024
  2081   1      44.855753426674326      11.846564232400786      31.751505259141791
  2082   1       16.66166263624536     -1.6087828904072965      40.090063644429897
  2083   1      20.838111246130293      13.536519206828235      36.568101560088813
  2084   1      47.667837738362806      22.400301053630379      52.258204270261572
  2085   1      30.230004799529553      28.896297968877327      8.7245414602374147
  2086   1      29.490903602147849      54.438785660327909     -13.672921794223276
  2087   1        9.38383872492577      53.273620166046626      8.4435281230371029
  2088   1      42.440274647485644      31.815378168635185      24.278483271093233
  2089   1      2.4832260868993794      22.206597748281954      20.061185914793374
  2090   1       6.203117221628677       13.53390305306897      32.308467847670173
  2091   1      27.717863494051564       37.26354389878535      7.9069106688449056
  2092   1      51.964574381796176      25.375673061613774      41.943222357962412
  2093   1      29.176270460006233      21.381375763638587     -7.3882176854959827
  2094   1       12.32923046995454      9.1569783922790347      15.520172449776647
  2095   1      26.866541927989793      11.407219193501334      35.112701287236888
  2096   1      25.813313851137632      30.808288868162951      15.536362908474722
  2097   1       1.378252940871987      35.262333427469805      36.631289276087244
  2098   1      38.225848712884257      52.309224732212769      30.447004508058299
  2099   1     -2.9489546215178972      14.262575577027272      33.904175781977287
  2100   1     -1.8559878131809175      6.3637483226640201      26.573344835734691
  2101   1      23.574756587536914      37.552368046874214      33.145865949450965
  2102   1      29.945812800217965      53.042281837307982      38.504358562611941
  2103   1     0.18822328268734706      10.803203565415249      17.821475390042558
  2104   1      9.9493870806601983      20.006256326303504     -2.3576080545803308
  2105   1    -0.34245722239794951         16.713706815464      18.857335683855045
  2106   1      12.727986759858497      1.5737809546072286      47.423690280735741
  2107   1      46.726128715010432      39.961593684317229      49.040726544021133
  2108   1      7.3532828703346391      18.198699819936266      2.7129640202683083
  2109   1       8.452096858368078      10.169121998089992      24.663302445265341
  2110   1       24.00665889892035    -0.65814325139997831      11.817239828437694
  2111   1     -0.7073627800561948      4.7871063456050065      11.186009210624544
  2112   1      3.8788745150029533      13.346955707035349      34.257728518501715
  2113   1      22.519625455546475      14.917060805887022      29.343176579678794
  2114   1       9.047662087122962      24.416740458645595      36.657775195072091
  2115   1      34.916349846134125      27.530683857560131      30.275588589111607
  2116   1        21.3573412775789      13.038655983958128     -2.4311122473853422
  2117   1      15.290490641621272      40.002582936138786      4.8215082642102667
  2118   1      38.330304771220668        20.4296777000913       52.81364653983173
  2119   1      42.611486288591394     -6.8992616453425093      21.313618816136898
  2120   1      23.790652414115556      4.4028987285754129       3.401307964182223
  2121   1      13.985671220821148      21.356950085381047     -4.4696766490172335
  2122   1      39.645187241415528      18.569008658599024      23.189988096594373
  2123   1     -2.8208160936205062      33.769005079530601      11.966230502842908
  2124   1      33.654076392741018      4.3342861256552334      46.705573093098153
  2125   1      21.637166077927866      38.738382893455451       13.56213115531115
  2126   1      53.765475149612236      13.659757274423812      47.241148686887286
  2127   1      28.822603326513971      23.816653635695793      3.3633079393449887
  2128   1      55.827372096779918      10.645708392433688      30.854339938565197
  2129   1      23.013783610446968      19.279235182351602      28.280663284628755
  2130   1      29.783811833377033      13.174915669464427       10.46994173612336
  2131   1      14.221564882832126      10.974190361071742      25.190893212951419
  2132   1    -0.43188540415283788      7.9446730969477102      48.906281006769177
  2133   1      2.5365107789201078      25.545252776070427      26.365965891892898
  2134   1      7.1267921045372065      17.715068653611091      18.260895965767315
  2135   1      59.064290040532846      21.170920927173288     -8.0961385244877153
  2136   1      6.8235540594489095     -6.1639924917859199      33.641173012146446
  2137   1      18.963315180124624       36.34017450405895      50.348617106614896
  2138   1      25.749464517388592      18.068943236773158      22.241756416514903
  2139   1      44.761944309626081      47.280560412448011       36.68799824085076
  2140   1      23.396393561518124     -5.4156724496961575      18.413317869063835
  2141   1      19.502787785808803      30.827721205337159      28.718421657098112
  2142   1     -6.2028952100358019      26.451115639624017      21.759170323421898
  2143   1     -6.7657692864316648      29.436732601106595      12.651675868850376
  2144   1      3.4749689886212627      28.540499711392144      31.296985699411575
  2145   1      16.820985423664656      5.1817639436088196     -5.5504283061303497
  2146   1          30.57779279947      31.856936872810948      20.195707879545914
  2147   1      17.803883320418866      45.593937180646627      14.361183600147072
  2148   1      40.915395032196891      47.655587828740224      23.092035633115525
  2149   1      43.950095090764037      44.786836389973942       5.817472199087244
  2150   1      17.994215414130792      16.799238916564963      41.595189061881555
  2151   1      51.500388968954013       35.07237106265309      46.691336720073728
  2152   1      24.059990506275533      52.146985311026455      35.232721886126228
  2153   1      21.088983522086263      37.741826506598642      28.915394713386302
  2154   1      12.669152428547651      19.698770247414576      33.030203419220136
  2155   1      24.515541296473316      12.863605231676944      63.252625827115772
  2156   1      1.3886255355403143      42.337905671589191      35.821653706968291
  2157   1     0.76661456747024292      41.802129766253749      25.310778551724169
  2158   1      8.2120382161615648      5.0912179597202325     -3.0013028983788947
  2159   1      37.439651161332009      20.390120586513909       11.41803554817823
  2160   1       21.78981195947912      8.6585213370219734       6.207621132462867
  2161   1      52.569709235809825      19.877215047292733      13.298594388555504
  2162   1      7.9379737352794857      42.818054625308164      43.871894436868878
  2163   1      18.693816271568711      48.005867367530819       11.95681149054136
  2164   1      34.737100291675269      41.344161116673405       15.93937010639276
  2165   1      24.883826135250018      25.401820455110229      26.553297868119625
  2166   1      18.602977816952308       16.38204733695974      8.3136124346374913
  2167   1      20.934755835526779      14.257772032276797      50.304079333488211
  2168   1      12.018344761465384      1.2588710825195062      38.503184262098216
  2169   1      44.812027929114308     -6.1729355407154438      41.008078494879143
  2170   1       48.88173072094223      4.4778542513570505      41.846050725061161
  2171   1       37.69413685680297     -5.0495805020749431      15.626674708496003
  2172   1     -3.2953633931963586      23.220671730457685      28.002735574686017
  2173   1      46.806528788770471       2.763517268538163      39.974850034416228
  2174   1      26.262976526352048      33.160977152187719      20.289081527326871
  2175   1      10.514155098920176      11.252381207518543      44.336699173411965
  2176   1      23.786873674279484     -1.7955595460308953      24.623175395238366
  2177   1       45.18059830927313      11.147992263175849      53.565049092814128
  2178   1      6.3283215540261679      19.292230891776732     0.01690704121297357
  2179   1      19.553797307505221     -3.0092140090071409      42.582144511979713
  2180   1      30.584511769052551      19.927789628585334      37.163665083382455
  2181   1      10.358811435146144      21.527275971998286      36.683413281329599
  2182   1      56.293140986306952      32.730393715838254      40.985803187515344
  2183   1      17.185461777049461      51.621158583153658      12.019761645274301
  2184   1      6.0892180144076544      25.045533425911248      20.712665239427718
  2185   1      23.621925708259688      45.661070749443738      28.899513806680535
  2186   1      25.695737616461667      18.380896711758151      4.3449384335570436
  2187   1    -0.65785407937426565      22.307694919013294      8.3425352512655255
  2188   1       34.55918961609509      19.169507214993125      44.866867690704424
  2189   1      29.765795770807948       9.922032705128041      10.580315392486082
  2190   1      5.8720976474443409      7.1484827546485832      13.922313671236218
  2191   1      47.821537051634593      32.753782322293972      41.989653767282441
  2192   1      6.3497595817377706      26.122038855273686      9.4688290667563653
  2193   1      11.239782596349485      25.903951089646352      18.285052710234691
  2194   1      12.084621992619166      12.117004382785188      46.525596417221983
  2195   1       43.19304572240145       38.18167819045393      32.062085808076283
  2196   1      42.828513982930737      30.827062629176712      6.8053496795090398
  2197   1      44.306652119988271      39.922540601918399      36.571570092774145
  2198   1      31.363736032126365     0.30729645336686939      9.5901278569559185
  2199   1     -11.085906239906056      17.850122275949165      32.885900740786433
  2200   1      36.228945525831321      11.936072324676063      23.290211262515097
  2201   1      7.2562707034428495      8.5362303588858097      10.837434240284749
  2202   1      41.363771734299497      24.291515142155578      10.106046533752062
  2203   1      23.209799149772145      27.299636126200859      37.005628660599186
  2204   1      32.886612155809345      16.222825420109011      45.170371552922937
  2205   1      27.131479734444614      38.142491896949103      47.698874897592638
  2206   1      36.239096660974894      28.496455690408744      47.596309881431019
  2207   1      43.337108338787999      31.206603017618143      37.148024887167203
  2208   1      24.783488312162309   -0.005286841124573248      36.118408046441829
  2209   1      16.035395055954897      10.343877094998957      14.597321183924162
  2210   1       24.38128366549752      13.595134488868545      26.677004782119145
  2211   1      14.062182942087993      37.179283749958195       10.89847076201273
  2212   1      38.108625602606971      22.535318792556488      36.797485516983265
  2213   1      33.447632983142014      20.424242644384268     0.76698371715196456
  2214   1      2.3022902336268487       38.26339304434925      35.402370610054192
  2215   1     -1.3014139595434173      55.081751081926917      38.576069240987806
  2216   1     -3.8008470470219491       22.53119805093657     -11.552351315415338
  2217   1       35.79432163645135      -16.34158943679844      46.458972374144878
  2218   1      40.961985328067918      44.288472074176632      41.076765031846399
  2219   1      13.913338458270612      5.2514161871767602      17.450075655235818
  2220   1      28.638620134095412     0.83787897433540715      11.057654458947569
  2221   1      23.974406214218327      12.759440246027385      34.701286483693345
  2222   1      17.149972997443729      5.0102371302327056      37.936167915933659
  2223   1      34.433286274975444      7.9392878854966451      9.6172737663955505
  2224   1      9.5300725243104214       15.86289915268539      50.991157536500268
  2225   1      31.481022704599635      36.796841236077128       43.16587808728751
  2226   1      37.131460609884691      -5.260457155534179      33.001710986899248
  2227   1      7.4977723510911645      34.288954311977463      36.070878809183746
  2228   1      39.861699279696488      33.096304154012579      21.967047415413461
  2229   1    -0.28206144797804961      39.269958521672628      14.917649509920995
  2230   1      13.900362660421846      30.007798358798212      38.684807178412697
  2231   1      51.939692801197332      45.962665387284311       36.10976014705254
  2232   1      5.9667705405812272      39.219171639598166     0.67977042859023828
  2233   1      15.623211733691438      48.500033831117982       11.90551395673989
  2234   1      33.308261469254482      18.858838589667599      28.448948421764861
  2235   1      1.8757982661479236      14.806453888913051      9.8485920750549134
  2236   1      30.661529674087863      26.769420338163499      36.471090529906157
  2237   1      29.350912719261032       18.48601882273725      9.3834871062853331
  2238   1     0.10564814682168677       37.58082380968775      10.555353683431123
  2239   1      10.494159954062566      22.573642600337713       14.91810325506883
  2240   1      33.219881247321446      23.749517662986747      26.126251301345171
  2241   1      38.404116965890204     0.57009334278942059       42.95433056035413
  2242   1      14.042001005148528      5.8817263305019107      27.758277660234793
  2243   1      4.5250092440489693      42.500181461964985      37.781516387181703
  2244   1      28.387895940352472      30.753335781357002      32.699041561226387
  2245   1      48.726968714281853      16.553027951781793      54.869392871117078
  2246   1      23.671371000266365      19.600057763705248       44.42569289041203
  2247   1      7.6998781655195563      29.107040727576788     -6.6193463387823614
  2248   1       12.54077907941714      5.0555423364496432      6.8292117053535799
  2249   1       2.141303526286598      23.147855893379568      52.520455665153094
  2250   1      58.058073866200708      20.561945591659622      12.876370128586506
  2251   1      27.821862177719915      24.209539902297131      33.690518478093338
  2252   1      11.409266318839499      33.938616846987365      10.693190065301545
  2253   1      24.709566048276059      19.810594653021653      15.504164350431317
  2254   1      38.028324475555983      11.123326832416792      42.249832929361219
  2255   1      47.463675214708957      32.439097450355625      48.566870165894599
  2256   1      13.753891699255066      24.702065079899086     -4.5878586196343338
  2257   1       44.92156424490625      15.740308744636172      25.843355960975721
  2258   1      49.097535884302587      58.093465590176663      46.257738261416812
  2259   1     0.27809635634412344      27.731436132612355      24.473529235614198
  2260   1      22.495301614083644       40.10598213330001      23.883306396410099
  2261   1       26.97133617908851      4.3816416823152347      36.817977008211905
  2262   1      22.063638610421279     0.81200089127846697      17.120242827553504
  2263   1      12.761738896181091      7.8298232998750148      38.638470923310201
  2264   1     -4.1459577584728988      42.904871952113474      10.085857700429909
  2265   1      44.678719607312459      28.189220018386997    -0.30411184958292226
  2266   1      21.116075542631769      50.818262554930648      7.4652921591263404
  2267   1      18.388641243356737      26.691480027779104      34.075091218376478
  2268   1      24.825388010951649      10.769874914922244      18.118114735180367
  2269   1      48.960207482382195       35.85077539997355      44.158114913770142
  2270   1      45.025933754340038      10.670816601882308      49.643422249465878
  2271   1       24.54248475310299      15.405835396739816      1.8729369699252965
  2272   1      24.046336109955284      22.054185785132759      33.171094290065135
  2273   1      27.753595015939059      37.415066523227964      13.689039039104244
  2274   1     0.28787928474005342      7.9743588631027196      7.9672187634824319
  2275   1      53.249041846391911      2.7250783174579984      21.168694986758091
  2276   1      26.647246853203541      31.682171353489132      12.112669874385423
  2277   1      37.664525448881101      5.6630392128449678      37.713098794592447
  2278   1      17.370018103829032      7.4938065258128512      35.209143295152067
  2279   1      41.040026929653401      22.840513512955692      40.270307052140694
  2280   1      13.970962544720312     -8.8969537535602168       18.29762034273401
  2281   1      31.818118764569462      20.473764863491752      39.718225492807889
  2282   1       19.98869879433828      34.231885322431928      4.5683485563315926
  2283   1      18.995866797709823       2.147298854893223       39.23779250467566
  2284   1      5.7668913868055069     0.49326903427549751      12.687155399373324
  2285   1       25.62291104671764      15.182419949079025      47.478034085956978
  2286   1      23.706935064298499      -4.708381228211314      22.687570145615382
  2287   1      24.436621741245474      7.1317717273078021        15.4860087229972
  2288   1      7.7532505444703412      21.993330083066979     -3.1638186121106018
  2289   1      39.182110729835571      26.843404614871844       3.738006999850584
  2290   1      2.5325971093826452      38.709630791440425      3.0272799871906502
  2291   1       42.36545363497099      42.206809362592061      4.8941623656143527
  2292   1      44.491073795641178      25.658524106199096      33.479222776998434
  2293   1      1.0756255342515975      10.350383546436637      13.457362333934782
  2294   1      2.5027021613314271       16.93986567522634      4.2622015438267082
  2295   1       3.065870364824351     -1.7233945749228017      10.024736111953693
  2296   1      28.573315513694972      3.6359074707985326      26.833633929565973
  2297   1      7.0527880037557553      38.964673482203814      14.086151264300696
  2298   1      7.5300948102945311      33.779138106516847      17.600096578127957
  2299   1      33.336975480919556      38.233890211108992      40.577335429060064
  2300   1      49.916706015519914      30.394944032647075      1.5682270002469254
  2301   1      39.413852767094369      11.806273419909555      15.079329817160227
  2302   1       21.29818511462647      24.481661643411272      16.947190731236674
  2303   1      31.401078438848867      32.159017084830232      23.559344556338658
  2304   1      40.286584042972926      10.539913526862632      44.484111713284349
  2305   1      30.642765781552011      19.159812891894877      -6.074293994304222
  2306   1      -8.796785321205558       38.19068120726692      27.377361955826448
  2307   1      12.261549909625725      37.106975243369334      37.225705112756359
  2308   1      35.247695350305889      15.850001125479329      31.849035821164364
  2309   1      33.990925976839407      24.465432016452183     -2.6663445182527625
  2310   1      35.985442279958939      1.4009124135097202      46.614642298289191
  2311   1      19.251709166720932      6.0549657541587534      16.629842325704928
  2312   1      41.471553725143067      1.2566801754013504      43.107235960977853
  2313   1       35.22343549759993       40.46751206337094      37.826364906680809
  2314   1      18.492338940330903      27.722639955791628      8.2135533528945341
  2315   1      26.960557409879751      16.389546542695005      31.772224389803434
  2316   1      5.1758166894071378      19.814381487723292      56.828447523056084
  2317   1      26.474347587731444      10.044957714791307      11.391831617506705
  2318   1      38.107314766635341      2.8222620107816345      10.021417537425345
  2319   1      27.377239565066159      -6.422854715101308      44.513450900961246
  2320   1      7.6182372759223247      52.884584343044558      5.3758778588082548
  2321   1      31.524238290795193      14.151188849182768       19.94637477504838
  2322   1       36.29798641457225       4.280083962437784      49.114075163289073
  2323   1      50.230816549105512       31.91934627670658      44.667922269407583
  2324   1       31.87510744711177       48.08113291902125      21.398813845714102
  2325   1      15.272782813760152      51.311976268166688       9.571384881567683
  2326   1      21.427050006132536      34.222383903068156      25.913224053764143
  2327   1      46.051334183444986      48.224728243218067      12.530620633493101
  2328   1      21.293700475571846      54.104999704972521      5.6229554692407167
  2329   1      49.405454482424616      31.473795766731847      34.095227403831316
  2330   1      46.752764177225856      27.909462133067084      35.386197432453855
  2331   1      6.7772091523435813      17.962202468657143      22.335118757042636
  2332   1       47.20871058337417      40.997714001067926      11.444675385665425
  2333   1      6.9518880156015825       49.90502359408692      43.668082112876675
  2334   1      22.760320231884901      11.054218346012236      2.0191571798885088
  2335   1      6.2517692680505901      19.032166282776974      -3.744470173724193
  2336   1      38.753901298937976      34.456946287330823      12.175658797556881
  2337   1      43.063157453110627      49.581348159657253      14.418158510428787
  2338   1      38.829717127622715       22.46486078027991      9.4489149485776416
  2339   1      13.034273142338394     -4.8885273286447726      4.9352895857319794
  2340   1      46.394752397931164      15.882980468130363      36.667697233552772
  2341   1      4.7006887894122285      46.978055995549703      18.529980080267578
  2342   1      8.2906615071210545      32.023681702035134      8.9788445806215798
  2343   1     -15.358845570880531      11.210966411553784       18.53215394046196
  2344   1      38.044952521342324      12.521684917840396      20.460016597430105
  2345   1      24.112044413619561     -7.9877708574330377      14.490329094034681
  2346   1      30.224690210783081      54.758578482332609      6.6681419108933246
  2347   1      50.350345171842605      38.858593932299392    -0.21586890039307965
  2348   1      8.0980583588600901      28.836435374128726      19.806450670772637
  2349   1      45.953051358653269       8.767697533085844      33.686802395927181
  2350   1      21.792004445919343      1.8519930442987336      3.9382375064173836
  2351   1      6.5090360286522282      55.587406606972358      29.206885386143846
  2352   1      49.501706983712438      49.175923577721051      42.227961707644823
  2353   1      47.108639635979991      29.958476368464805      14.848011892071735
  2354   1     -10.143378123092571      24.390698000497238      18.696723570197321
  2355   1      -2.726394430954294      27.041164756089902      30.882946234296991
  2356   1      22.034302012965846      20.430264745811812      48.808882981045848
  2357   1      34.217278266219168      38.961201815471107      20.121639745704222
  2358   1      17.118370012675697      13.518757511937775      15.994502182983764
  2359   1       42.94550747479974      40.036471908518578      49.765161740406093
  2360   1      32.385105580526286     0.73701175471873637      51.173895733871461
  2361   1      53.633075636383253      32.238423654882517      38.639320086035674
  2362   1      31.196283370545142      15.746566978250696      10.225489658759527
  2363   1        24.6148711724131      44.097106797698302      12.003790738985028
  2364   1      51.494911072286897      59.621062127676694      -8.742830104788192
  2365   1      4.4950670158413315      38.271486004466659      15.995132328140805
  2366   1      29.346659630827709      1.8014926172590595       41.29998498938474
  2367   1       6.900559614666899      30.991817551886104      36.289072711432475
  2368   1      42.005545567925587       31.82307970935819      42.706602502336715
  2369   1      2.1796025878552769      37.407474040188234      6.4708529954209215
  2370   1      16.991304255438795      1.9110701500441911      25.390981348684942
  2371   1      18.203661557326811      13.431112967469829    -0.55985245335895595
  2372   1      36.216078803024253      10.835039746073047      28.894090049957327
  2373   1      42.340274500241321       24.71083130060649      45.909072814657897
  2374   1       9.953792101459829      32.902097225264896      28.756133968617423
  2375   1      27.838422006645278      31.876136399503213      26.037219118258186
  2376   1      17.162078423801258      11.174013133791483      50.679383309094632
  2377   1      20.167128554222188       21.65352831148406      27.721137875076717
  2378   1     -7.0588024454394471      10.637182600413139      31.162421846580777
  2379   1      51.062302605553398      13.584933937676896      3.0460993537448449
  2380   1      13.883919450580803      39.499708432140842      13.172301168732913
  2381   1       6.840974786657692      14.566340613770068      23.865269237677023
  2382   1      36.838937360114734      30.433279104000665      2.2026726755247248
  2383   1     -7.9654649405033293      10.623589966099352      22.225287655053048
  2384   1       39.66193136716155      35.088888524837138      15.055889671342969
  2385   1      32.311236054214326      12.184075079791652      12.166228872117648
  2386   1      32.826395097092785      10.025362996082764      3.3829144613830104
  2387   1       18.73012325254204      -5.646318631532032      29.483630702595029
  2388   1      19.494658630824961      9.0210068075026904       3.850592175126109
  2389   1      21.253627374728431      42.421956312270012      8.8517944916638367
  2390   1      40.130818510370602     -2.2069118769144835     -2.2131504706400555
  2391   1      5.2156527777293489      13.935003520585523       13.11708852731331
  2392   1      19.320558380866007      19.301750154609834     -5.0893762399971259
  2393   1      9.0037435472943841      37.683184766250584        26.6937872263895
  2394   1     -5.1327411067062494      22.011616340246025      20.049249500302643
  2395   1      23.233877833537182      42.577614246665675      41.085031640545587
  2396   1        5.03937161417028      19.463110592698374      30.488325461380786
  2397   1     -8.3219117042603372      15.390448061456942      27.530897183684022
  2398   1      18.696903695204188      23.827366283530868      46.715874826366054
  2399   1      39.052907108917005      32.286490497022207      10.033617881633813
  2400   1       49.90888609651428       43.45617217649724      47.231718529246812
  2401   1      27.455253409617256      21.171816324911259      1.0049627349325545
  2402   1      13.987427498491758      62.062448544901343     -10.417508002071651
  2403   1       39.95197943075695      13.828433262331281      17.482251926958867
  2404   1      2.5388899142389754      22.280819544987342     -7.5816362953449632
  2405   1      47.276457716608178      16.776896671202849      28.489885130999383
  2406   1      24.547124243341869      34.680780914756276      4.1654008421167568
  2407   1      14.683173854987395      38.642111002440416       40.30847449038037
  2408   1      21.787512026580426      38.740335470829287      20.996520755487825
  2409   1       7.536039622579306      58.200171516710505      40.286233390902645
  2410   1      14.129984351431183     -3.2108668259311677     -7.1414754302326156
  2411   1      18.328642134412657      7.9845670846754766      18.798982533750308
  2412   1      27.306277362629956      41.342285873732514       31.16813557589759
  2413   1      19.224247106744901      60.874403441949084      9.4243414930651621
  2414   1      27.952269899471659      12.763141200771562      32.227782568415542
  2415   1       30.89638303409556      4.2901242275535134      29.629939414047982
  2416   1      32.092725505428582      28.841857725544841      11.377534943602786
  2417   1       12.20727058961821      4.2481796835976029      45.662340857308671
  2418   1      8.6884982965157445      35.395105810697679      43.794541602918102
  2419   1      33.879024800380087      31.969749559291753      19.151282379445899
  2420   1     0.42884923400811126      9.1237870638331842      23.046001888377607
  2421   1      19.436587335769474      12.384498129048376      28.476332481124778
  2422   1      40.293429147339168      26.052266614962473      13.914784294855037
  2423   1      10.344267068148346      1.8850596316545765      33.268681617775457
  2424   1      32.968176093772719      34.692817250685955      41.682542313112954
  2425   1      33.688379803431559      28.218632976419283      23.846727930793598
  2426   1      45.921900453738353       51.40147459361323      13.092197724948228
  2427   1      7.4132585762419252      35.240505806706686      27.825055985402845
  2428   1      9.2618970122065924      23.834079221478742      24.371842690235265
  2429   1      49.074059719854652       47.11590634220687      29.174363671014213
  2430   1      39.404393191625871       26.08633599163338      26.710748351651677
  2431   1      38.118622178142083      23.882424115189263      40.224505809092896
  2432   1      1.0749646294216477     -2.3788333193715312      2.9399575170896188
  2433   1      53.442462089924867      3.8662222935559845      34.536710883403259
  2434   1       21.88568239081965      31.441501903622743      25.918825078426959
  2435   1      8.3753521994356017      18.451836627178945      33.552196792938894
  2436   1      35.872072244822725      28.077318049218476     -8.2106381636335684
  2437   1     0.76978098982443111      47.343571338676156      37.802978497807722
  2438   1      7.7701792188260352    -0.16684438873695528     -8.7642044092205733
  2439   1      21.597554280457519      30.340699425542653      38.430923118172075
  2440   1      34.584920694035837       13.64230820080259      21.211257329567129
  2441   1      28.505787674726431      34.799578690682864      10.061406034006097
  2442   1      37.005609524499029      2.9959643213131613      16.311394624623706
  2443   1      40.834848706709053      20.954654239013301      11.362671573231939
  2444   1      1.9239139589343199      31.916710238367987      28.267453392180187
  2445   1     -6.9565286137749274      7.9662253713282798      28.674382645937211
  2446   1      2.1175144523731397      40.895276019361134      40.206098704210092
  2447   1      41.014437198048171      42.187219440873605      10.589382213083535
  2448   1      22.479609928795519      18.207923060161136       3.872800796732871
  2449   1      45.011001764211166      43.782135550752564      32.440969218917907
  2450   1      51.410252740514359      23.818156102660144      32.088889585778269
  2451   1      4.6641174085774111      3.7219412107456602      13.638278815033358
  2452   1      17.589111809960706   -0.055063988651773539      46.009580468087876
  2453   1      41.013270218408884      26.919827455300439      47.593290565883763
  2454   1      2.4661157418034305       21.73233976950722      48.519592128585401
  2455   1      26.614337335287818      13.092166422735813      24.484571022342138
  2456   1       22.13383208339318      25.038690334605256      52.802088386161564
  2457   1    -0.42669819192250208      6.0196677263693283      52.932675297563854
  2458   1      1.9419113929070511      20.140405273490693      6.7486423198159997
  2459   1      16.348325590006844      45.014686045315358      7.8571381059839638
  2460   1      13.059063520513725      14.362166863768701      26.236600052232568
  2461   1      36.565672294833753      26.559941005850973      50.647212952436405
  2462   1      31.503696322272198      4.2098026094891567      10.531914195759443
  2463   1       12.81780242546475      1.0837980524997832      30.896031114202181
  2464   1      46.300823491628414      37.958235507607434       29.32395222991676
  2465   1      15.339999900413417      41.778956221598683      32.169713181158592
  2466   1      35.742049482212309      13.786599507343748      12.718466788069614
  2467   1      40.986153403938104       23.47786480059796      1.2283597241135489
  2468   1      9.4413508231387464      18.164556835241381     -9.0186948043921404
  2469   1      34.642700828159604      17.920366337815636       19.14951128022053
  2470   1      52.736791256899942      6.5720666437118389      34.991832881066181
  2471   1      15.401009192790314      24.332292880878608       14.86318792559638
  2472   1      18.024240899173027    0.042760819712122339      2.1577324140807561
  2473   1      18.866205866606883      8.5159356920755371      13.660202118141436
  2474   1      2.6575172749053526       27.16546257788578      9.9860764235209469
  2475   1      13.067335329189918      4.8067824200873481      37.436948770858621
  2476   1      32.708339891988544       15.25821793062199      26.658705023080483
  2477   1      42.072895397857621     0.34622385768878017     -2.2625750967102798
  2478   1      52.639559818014988      32.733012653221614      50.800907152840544
  2479   1      33.951768079595148      17.524806572714223      42.027206871067385
  2480   1      16.414409880629474      28.806792612207836      3.3527633483722279
  2481   1      8.7077328468203117       64.11418128730368      5.5139673407845624
  2482   1      50.417195735221867      12.162888468907832      47.740683605036857
  2483   1        14.0008056423026      1.2002182272297905      19.560844601585224
  2484   1       9.452562478904035      11.880326336015971      16.314843790679042
  2485   1      5.9546987631675945      24.700009405538804      35.379652025832115
  2486   1      10.165617561688043      24.705130747968649    -0.87495577578439998
  2487   1      26.923940776645232      31.128570368121938      7.0038689482131229
  2488   1       8.165249757509919     -6.1111157739688391      30.244334074194587
  2489   1      32.521391814840285      41.969016327274169      9.0751308444651926
  2490   1      11.622207688067675      37.471895299593299      12.804309611227811
  2491   1      19.995583031920194      6.1460996734229685      25.310785468707113
  2492   1      54.723246997580596      39.025269714385956      42.775307332284122
  2493   1     -1.4823867349331996      25.160786733255598      33.508888831559979
  2494   1      14.840123067648992      39.072644813388237      36.692973070056368
  2495   1      18.534619430808544       18.80572169766937      10.829780962863145
  2496   1      14.698587407470603      12.804116548227707    -0.26459736017401914
  2497   1      42.835908910420166      25.909141175484567       7.178937516965008
  2498   1       34.97030496416658      25.262592302794769      41.885356676361745
  2499   1      17.338486133283652      32.718952551365817      48.232564869187904
  2500   1      18.532004437430249      29.990499179898574      49.784511568688856
  2501   1     -1.6602104284707264       7.898893742149375      16.953796285682646
  2502   1       19.12639139773389      26.269979324820508      44.275326680245399
  2503   1      38.923595153146493      4.9521610011682915      47.397986794287867
  2504   1      24.777313900978445      16.524416634981623      14.574088966099575
  2505   1      34.441887579703021     -4.2396674291432355      34.587220524842579
  2506   1      5.0347209549493499      20.199408607622793      19.396010626072648
  2507   1      5.8274903028792435      32.081188776277266      27.531023167322424
  2508   1      32.106564548170219      10.841358193444888      26.275823790133352
  2509   1     -6.4928194572055125      12.524394314845683      11.623689009889397
  2510   1      27.330004369206531      24.066404057133042      40.789764021143291
  2511   1      26.140643206820574      50.719771903122052      3.6877836174241621
  2512   1      25.511903818727685      23.080711551771007      38.119480482429061
  2513   1       26.97190819190001      24.635286582231956     -2.9296915391436977
  2514   1      42.138758588242531     -7.1852850433442086      29.427371353510491
  2515   1      8.8862710120068833       27.65101387116664      36.223282975727784
  2516   1      7.0986610555910064       55.52897010280973      7.5806493795308487
  2517   1      35.125622971589166      11.477375499246458      15.520727217496162
  2518   1      39.179974935721972      2.1984291949127779       46.03993702101404
  2519   1      -1.381870284048395      22.970549096720202      23.703779027973052
  2520   1      12.613841162484484      35.441498586420408      23.496318402596522
  2521   1     -1.5153920847420361      14.624822057858722     -3.5480107128106622
  2522   1      41.476574034112026      32.374531996433838     -3.0089850113609167
  2523   1      51.395312883112403      42.422500326092702      19.988497145916376
  2524   1      47.837423355998638      43.833496277723732      44.800671464816276
  2525   1      23.441921111152212      19.674156040405478       36.47689755167287
  2526   1      43.799894945632005      34.434921232814361      29.743351308484279
  2527   1      9.7578583439260562    -0.23635864995208838      36.941897483740803
  2528   1      6.7758753783913575      11.308928069873666      46.054229014024735
  2529   1    -0.38678023883740786      15.789432018727457       2.695140869892843
  2530   1      5.9763470765052737      17.834439595368998      14.200260672288932
  2531   1      38.443799941174071      15.655242316905941      15.664346472288944
  2532   1       10.36935818791707      5.2632584793548736      38.949863149353043
  2533   1      17.437323007613447      7.6936329584245602      48.710873793590039
  2534   1      -7.890233246245578      31.498511205801243      4.0983581498726993
  2535   1      37.212930908195183      15.424071405297598      20.145913242998652
  2536   1      47.954427787703892     -2.4617711927721198      40.996713393290172
  2537   1      14.157670147157898      8.7841416816684195      27.225252084936958
  2538   1      7.4947131080680984      -1.011018301378277      9.2840141857145611
  2539   1       13.20647411452688      36.468434522926607      2.5954900850798555
  2540   1      25.845433071493972      25.740451905418308      3.1319400360707235
  2541   1      29.198689226182697        41.4290474954812       24.32600101093837
  2542   1      27.032379899521295      18.061874189377214      1.0942781468131291
  2543   1      52.008985730371833       58.05006376735497     -1.2271463099387512
  2544   1      33.026425897941778      4.5154482848792288      40.281481117467614
  2545   1      18.228855948242032      50.823044124535357      32.106586393611643
  2546   1      18.595103396771094      46.575277787093498      37.558007278061531
  2547   1      8.2718870654125212      8.7647152965335735      15.355788933586343
  2548   1      5.0799573912782279      33.911277592544231      44.427664063686116
  2549   1      49.601039032203211      50.952766639527226      38.092113240569638
  2550   1      29.742601317213929      30.650555167011557      28.499287013160448
  2551   1      10.503982795806451      10.248257755460498      39.609272527361533
  2552   1     -11.447828997977952      14.439766754083269      45.880086700213106
  2553   1      11.814836570338217     -1.5264376782415643      4.0664699373167608
  2554   1      16.419759228242953      31.672392579434657      33.100837749403048
  2555   1      45.001849341071868      1.2289864285321097     0.53341108036002638
  2556   1      13.366060838678788      28.199510177223143      4.4853971488998123
  2557   1       27.25657407397139      9.7442729868048907      41.630145034053626
  2558   1      8.9732325583404986      37.575024713966393      32.305041392758653
  2559   1      54.946631932407556       11.83468166544912      22.560346656557286
  2560   1      49.987112166057599      44.523345767091712      22.716265120616292
  2561   1      43.654723690191688      10.601484078986038        40.4078752326879
  2562   1      4.2473525282821942      57.438675337088029      27.745045260070246
  2563   1       28.10566688366924      22.846207712952598      7.7807863721493087
  2564   1      13.008520921753705       49.78072902059656      56.152106796639785
  2565   1      38.709157208944447      21.612427411054984      24.463561166084311
  2566   1      28.784523219669321      19.463146362232546      16.952839399820501
  2567   1      32.364353593416872       8.200336465669416      23.083133399951262
  2568   1     -1.2824318094538829      3.7685797099435749     0.99092785169525066
  2569   1      21.012709445520361      9.2640473650741075      18.166111994957454
  2570   1      19.592366593501911      16.677133300276108      18.573607757030047
  2571   1     0.41506825164643918      50.939193242259343      9.0169839924048336
  2572   1      15.031343076666534      31.305194270049999      7.9005044250207375
  2573   1      34.629113781644875      49.369193183196963      8.1346349860811706
  2574   1      33.155226962448715      11.896794024683496      33.237878504621278
  2575   1      6.3790241220241208      35.378185397773805      47.196996991068382
  2576   1      16.830406926293609      55.215320231372111      11.574343038860993
  2577   1      47.329147835743221       33.17132501066407      35.739134317205185
  2578   1     -1.7636227485005269      17.885255144545628      46.480862533885769
  2579   1      19.453087109580263      11.918634073736571      43.692246582606579
  2580   1      34.375085841192821      4.5668011770718531      32.782168691263983
  2581   1      20.469276604704678      40.978884240076042     -6.9957102510614897
  2582   1      16.167809190300087      45.499214680885117      11.482251413716725
  2583   1      9.1601282530385149     -10.258311929302165      43.075617550305878
  2584   1     0.53983730233428984      4.6670083732725782      24.269445559017491
  2585   1      30.991481148835799      46.514666347229749      26.242798958640808
  2586   1      21.894964724954914     -3.3743961217236218      1.1831617126993821
  2587   1      6.4704513364351053      46.466337445292879      15.446175523419772
  2588   1      21.861136055328771      30.205330941286004    -0.72839242071762933
  2589   1      22.027330293033256      -1.698955502932886      35.229240389693047
  2590   1      55.412026498209997      3.2816542200907888      16.351867691383823
  2591   1      22.652640035713791      5.7449612857928285      43.564462226383796
  2592   1      43.127430219782859      8.0644968729731215      25.473078107889531
  2593   1      16.464419342036344    -0.41205335491155676      15.294842537796288
  2594   1      3.6746603986789603      28.164158439747986     0.95385411337646586
  2595   1      46.396213332569907      4.2421041750247337      6.0176636639109509
  2596   1      39.382880750789155      42.862045061081453     -2.2329901855139762
  2597   1      7.6814024533344583      11.822662382235864      34.609205280741733
  2598   1      15.173243620455658     0.57385725542936317      3.4109822950916309
  2599   1      33.812513135379831      44.707235943385292      49.739157822621792
  2600   1      3.3790066272544785      42.070146861748988      11.331699633092093
  2601   1        11.4092653693186      45.714073368125398      36.371369179536295
  2602   1      28.107669451828627      11.283353400971604      26.512573390616335
  2603   1       34.68273404983583      39.129445090260795      43.178109183334264
  2604   1      38.302350032380467      40.149094851757255      13.740542179236249
  2605   1      3.4140606087020746      16.334569644925327      36.840948144203779
  2606   1      15.118817151676408      31.855448269719581      24.950229839483669
  2607   1      25.348425060215476      8.1645726798926663      1.5783204024363719
  2608   1      18.927907093252522      43.466588331969412      2.1120687955299493
  2609   1      14.914699161352344      48.998829440086205     -4.5534904250653492
  2610   1      39.331623890461415       49.16656862431752      13.388608440684852
  2611   1      20.997349511393285      2.2945189764264589      49.330768012809635
  2612   1      23.288884547008923      29.358398159474163      1.9584608922098858
  2613   1      3.5143440796790815      28.728740707674586      35.057141790662953
  2614   1      59.415213775679497      33.148493715931508      41.682015981968185
  2615   1      32.947803357339033      18.533557444877442      31.576774542313217
  2616   1     0.79851167012855362      20.726951479116035        25.4822636705584
  2617   1      28.055091437530432      37.714034685038371       41.55533135333819
  2618   1      42.340077925680497      31.665189560500675       28.26690163060816
  2619   1      46.271578147626499      15.698784079094901      58.659635642416752
  2620   1      28.401370377594198      29.952978122421548     -5.7578599140634923
  2621   1      50.516569364254721      38.457482037802528      22.028088708202855
  2622   1       14.15530840337876      40.793845157586162      45.742161681683591
  2623   1      38.818181152141236      20.696714980463046      39.627860826542168
  2624   1      14.965730260209783      15.092186102851501      6.0142952605875246
  2625   1      28.266261249297401       29.18646783633649      19.350077217038951
  2626   1      17.002880772435194      27.514717831727801       30.76249857641821
  2627   1      32.341862405899342      45.229708880277684      16.723621608654586
  2628   1       15.36043851865198      22.972049552107478     -6.9583104923153316
  2629   1      27.349486156814052      34.781668544557483      6.4490324626533928
  2630   1      19.325571130409703      23.494439444192246       20.96878870114983
  2631   1      1.5851938803388184      35.766649207108593      1.0348396721744471
  2632   1      45.742335345279365      38.202885531859671      9.7908765623337288
  2633   1      14.759130529956234      32.447974245161504      36.635235180397331
  2634   1   -0.064772116138428051      41.248562166380999      38.435754511795274
  2635   1      39.770727471870778      39.291319796735962      23.133043473836405
  2636   1      21.551353434587014      11.006873936479915        33.0017494527902
  2637   1       10.36583781555788      62.614673396972634      24.582866855165552
  2638   1      22.547533042562335      41.910048497991262      2.2028393058373856
  2639   1      30.040710019872584     -2.8092155389825293      4.3958049968792787
  2640   1      2.8925523325594167      41.936583451925387      16.313102196228531
  2641   1      8.4819175242634177       61.39745175171732      4.4975635259673128
  2642   1      24.052312122006455      34.352825517951885      44.040122785574248
  2643   1      -4.911933579191099      21.545043601500442      2.1969905424021454
  2644   1       28.40894371706095      28.542413021443114        26.7242135710611
  2645   1      32.049862949419605     -5.7376373426821194      14.020884823276937
  2646   1      21.590271347937236       8.543812765802512      39.746741258695273
  2647   1      24.892430754501852      37.861869729278517      5.0514458533648599
  2648   1      1.6900019536053366      14.155139169516268      6.5246771723348074
  2649   1      37.358509059674745      49.776155565677968      20.677127360398224
  2650   1     -2.7944609174518962      23.023028318029695      17.649007053516812
  2651   1       31.07201828709486      2.2514145951001243      32.510276715067036
  2652   1      51.116421055574051      58.214547523821828      50.685702263808622
  2653   1      57.432017418302173      18.774077311636002      57.851584209184885
  2654   1      16.984375689645471      37.971968094152849      45.553750392312921
  2655   1       26.87615405483108      29.607818101142133      29.879756315582956
  2656   1      40.179326828248584      8.4009333172032203      12.037838312624977
  2657   1      17.987040233093168      31.811904830783089      37.704352200273853
  2658   1       10.77671501380183      35.620708901558167      6.4544334386343474
  2659   1       12.27854588342154      39.564155690134662      3.0213820354986209
  2660   1      51.172507935382342      19.820291443073604      33.958940157762136
  2661   1      39.343469290803746      8.2915243120923066      47.794005487291507
  2662   1      46.244151208620302      13.036695718936597      2.9832886931675473
  2663   1      41.689277807357207      12.489635898346688        42.3577559284684
  2664   1      27.770796684737128      22.178914621119699      17.639116835777628
  2665   1      39.413572827902144      28.523270448939048      38.508987448656178
  2666   1      32.063613784598203         32.189954021195      1.8578645976977157
  2667   1      25.045608164394732       22.57608387182297      7.6800462632013264
  2668   1     -16.552742583160573      3.1930973345072395      53.604019088057996
  2669   1      34.429610577797554      25.004964514958772      33.924916274535875
  2670   1      18.810238982419683        12.2483852601829      6.2217291932832124
  2671   1     -2.7975121910010365      12.476702105342813      40.742401365634059
  2672   1      16.121617298052467      34.471151260481292      2.2237171009495356
  2673   1      12.869622501180336      9.0254523300621212       7.132352238654069
  2674   1      14.550848704245551      16.650050866357891      13.743538972294159
  2675   1      27.553221528699513      43.634796616206728      14.080311096911032
  2676   1      29.457676323825702      27.569966618668452      22.523090680435782
  2677   1      21.985063740254962      36.536373269465741      3.9391928060566888
  2678   1      42.948526721172968      48.822668629657038      25.741916472338403
  2679   1      28.434939428375912      34.571231642252464     -5.3762434399711765
  2680   1      6.7964292983469869      36.176430021792171       6.441189216737218
  2681   1      16.644276521568919      2.1402658334181659      29.415986091183274
  2682   1      24.916166227537545      28.836901087494926      43.416408479964403
  2683   1       30.31384907303131      11.416950432509239      38.549788814836162
  2684   1      33.767727245294942      31.468778730312668      9.6044229772444876
  2685   1      14.655389389665773      23.481950580023831      10.397555262613977
  2686   1      15.139734302070851      22.163512192219855      33.858449635527208
  2687   1      25.018374807662639      9.8754851848018195       21.70673512638346
  2688   1      43.088652576127899      4.0136520843974948      14.249631009100824
  2689   1      36.334283523557758      6.1804413506738252      28.394625965197527
  2690   1      23.596337767687093      23.442900505854844      18.489204395471678
  2691   1      14.827254602519577      13.972932481462665       10.38892823690105
  2692   1      43.218438458250297      17.191761466672503      -2.003218433845023
  2693   1      28.473009302436711      20.260574658565385      23.874515504236228
  2694   1      22.374197928176116      35.351657010725972      41.386967521837946
  2695   1        31.9534231408233      42.382384189719573      39.246034965842362
  2696   1      2.7487693881234496      21.861329584210285      9.7221268723483742
  2697   1      54.293061346531644      36.785709699562815      29.735701393709416
  2698   1     -2.7580666963638003      51.373047728635505      35.868377166180522
  2699   1      4.0156567779476084      45.050586613597382      50.880831720318568
  2700   1      11.047159974930993     -4.9044536449903324      9.7360438249554928
  2701   1      33.704533828032623      30.450604871876095      40.535274366103522
  2702   1       18.43473830290705      28.280088563464584      27.292734912619622
  2703   1      44.263477177093066      14.160915420266889      43.786694357129107
  2704   1      35.925793637812006      34.683264267485853      4.3135524517262347
  2705   1      26.649353606134756       36.57525515172609      2.5568829711184562
  2706   1      13.806104207649556      15.202530879824007      31.301918665898867
  2707   1      56.916442489009683      45.219402981059929      13.515951271030712
  2708   1      27.767145512193654       3.712895903974065      23.663968943211678
  2709   1      2.0153318627608803      15.060108686958285      18.412297842406399
  2710   1      5.4850537194838536      28.345949435024572     -1.9404731764791263
  2711   1      11.582423988172385      43.859512305984659     -5.0565428181936252
  2712   1      51.563583150459841     -7.8252385182758974      6.0473850294121361
  2713   1      37.529271857963252      28.796893573625244      15.999312283747743
  2714   1     -2.9399552208858779      20.041761064966288      28.307320496350428
  2715   1      12.333940306345372      10.733995697809746      19.609788142647119
  2716   1      17.732116287598057      51.562997916050215      3.1265715749829677
  2717   1       36.74455298414999      13.905092073893814      3.1043710247119716
  2718   1      3.5565091544704863      30.185821106073902      4.0231232112517485
  2719   1      37.907239259946195      2.5764846490602404      40.275985118162851
  2720   1      36.315563550367266      36.144444864645202     -1.2285896210451746
  2721   1      27.919000830690944      17.087798523139771      25.173379034188518
  2722   1      26.357890483181897      8.2924840182227229       38.84914579218399
  2723   1     -13.651679977838109      35.382314852759322      18.504368649652839
  2724   1      52.300708404104185      16.363507297369946      28.390004224062341
  2725   1      24.739331891534359      4.2933662771170216      13.934422584327965
  2726   1       13.18145261606098      24.146175955940176      48.072158737901674
  2727   1      9.8818145656011396      29.773162833246893      2.1594710907065986
  2728   1     -2.5420400794614393      12.804168064019857      25.799724156746244
  2729   1      14.299434067299911      52.490634701981975      12.235231043406536
  2730   1     -7.5660894719765057      18.898699507633324       18.70256131067611
  2731   1     -4.0104165787931088      48.273589912733982      18.449811049305957
  2732   1      26.023520181879491      16.309549914738206      38.524140408399511
  2733   1      4.2373957642413433      38.145181806301245      46.063866213064365
  2734   1      9.6555044132477406      47.420450659945253      16.898967582669915
  2735   1        28.8396797547014      16.470638883890757       34.89907593194652
  2736   1      23.821191011967684       32.71465548382541      34.085311112293724
  2737   1       43.60324483205499       28.38222912167312      39.496459046434168
  2738   1      21.069572477879532      32.533176397466711      36.027341519337462
  2739   1       47.46872923663053      35.609588178197335     -1.9932330923072037
  2740   1      39.070110259324679   -0.035933686300868815      33.100477057075643
  2741   1     -1.5620111135537653      34.361067375266487       38.53941677640649
  2742   1       27.19490374525607      45.360375043799003      25.783569404724748
  2743   1      2.4449924365399469       35.54392282024056      21.638899923188564
  2744   1      4.0236211622630105      18.202764826228261     -1.7435498591676732
  2745   1      9.4965308166119513      42.319158585195794      41.010114758893451
  2746   1      52.615570863800841      28.806458931673347      39.994485499434823
  2747   1      31.618322275156295      12.626880454915621       6.993276489162306
  2748   1      15.023465604147617     -4.4268564215286776      28.506477893184375
  2749   1      15.984941914928092      12.816118329619671     -4.9086400001088464
  2750   1      18.804450653366654      27.076533204641276      20.652389680288231
  2751   1      23.003689121047131      12.023804930492021       30.03133543225384
  2752   1      3.7014665354239167      20.830587352935069      26.984107455275577
  2753   1      49.490554594791504     -8.0982310146559122      8.4505500076059725
  2754   1      50.371245886897583      44.552874487847482      27.773481091759955
  2755   1      11.936527411228894      26.241425315644168      36.184303547419283
  2756   1      10.414726095352531      25.587564417767439      2.6081349061961143
  2757   1      53.471370247952031       38.27378330227485      8.3560999721612674
  2758   1      7.2062603819086863      26.533692916138509     -4.2894057040852944
  2759   1      32.962692712378121      40.486843789194687      6.0578442345904202
  2760   1      5.0860377875974416     -4.6287946472908255     -3.7870486391850986
  2761   1      20.074707852423721      37.252321221199587      8.6702443306071544
  2762   1      12.030137243257844      14.215773189965294      49.448738660823359
  2763   1      30.318181715102956    -0.22843633588054077      13.509151899058518
  2764   1      -2.598736180675095      17.182051186057375      12.926996704809049
  2765   1      38.731219333507752      55.464323120338783      19.123127268389208
  2766   1      2.4113834633948086      22.512268379030132      15.071139197752347
  2767   1      18.352254104095472      39.914471240533089      24.772075617244951
  2768   1      8.0082901058764282      34.469956744984096      11.553195601914172
  2769   1      34.708031895632885      16.646907387178285      11.126907558100077
  2770   1     0.16068245824892982      44.554538053232349       15.97198823410503
  2771   1      30.501521649334975      26.322310467920055    -0.67472446141051778
  2772   1      10.282143762066989    -0.62044092871892165       27.17698860280354
  2773   1       34.47639437228522      18.344871319529997      3.6692723289504863
  2774   1     0.42220270751054945      13.106062757112682      37.328664895538161
  2775   1     -2.2856268236657589      48.028924155321597      32.789618120126569
  2776   1      34.017511303511462      44.086737944538072      4.2029314760296463
  2777   1      37.285501924842173      40.906873407948289     -3.3304252250759534
  2778   1      39.507946205735998      10.261496192411093      18.944344778283671
  2779   1      12.872069085366062      38.249048327822557      5.9886486088481155
  2780   1      21.988958824691831      17.041236139160251      22.860454097370546
  2781   1      43.387742534281884      36.339397076172858      7.7210234284130408
  2782   1      19.273166744638083     0.54712746537414547     -6.4510494017821491
  2783   1      47.935429362372879     -5.8922679089280887      42.243399597488349
  2784   1      22.906865037826726      10.433057466994105      24.916772276406707
  2785   1      15.025173969410885      48.836286065465089      32.960788956189155
  2786   1      23.611085280783382      31.126524069025809      13.286485367347112
  2787   1      11.901000161000317      28.442116815669934      22.396661775633028
  2788   1      8.1544770112652305      3.0375048402370468      13.063751234659104
  2789   1      45.316003953975361      5.9712346468628406    -0.75853784392686219
  2790   1    -0.47140707407911719      37.808266914242097      33.714277859336434
  2791   1      33.739904229594742     -3.2751823067705312     -9.5238339420071103
  2792   1      49.864307919180938      17.790467649929436      47.512375845316868
  2793   1      13.796915307707499      38.216932301791914      25.582287583400287
  2794   1      23.981499464087008      35.384094890953719      11.928150358090827
  2795   1      33.930582738483466      23.710924131377045      22.066632956234375
  2796   1      39.706617895222429      7.0599784324310688      25.925971946062667
  2797   1      22.386964447436572      36.266848878699641      18.269048526198624
  2798   1       5.834313849792629      28.028629261775492      36.698784573494279
  2799   1      38.804201410408709      37.140873817990482      31.263313898379945
  2800   1       24.79415143087305      11.914020065648161      46.606961344502281
  2801   1      28.442860194889665      18.514754770250047      39.463316823318138
  2802   1      42.598473434471252      42.735105205502983    -0.51570220141076006
  2803   1      26.160960417914325      21.763348007291338     -4.7676899044397834
  2804   1      29.384045722509018      3.2292118347936767      3.9653733985445552
  2805   1      25.231837061821519       2.648196764480593      16.811553309325614
  2806   1      34.564672640382078      21.471711164746115      12.977721605139537
  2807   1     -2.9911023481832064      18.284439688683854      50.651643217027605
  2808   1      34.141599698151893      26.229714147244501      13.749883479591222
  2809   1      29.276969727493029      1.2677745679254937      22.585414028575403
  2810   1      27.604410045394641      26.106392579745666      29.385915198207737
  2811   1      32.496877270992094      41.133423544307924      22.606679086498445
  2812   1      13.335867892056022      27.016316617950913      46.511381431781274
  2813   1      41.402068746032342      22.151163858178514      37.400953119155361
  2814   1      36.356370587182575      18.903431415636302      30.031784891675514
  2815   1       45.71691180538815       29.89562789523622      38.065666067365569
  2816   1      30.543556345144648      21.312502538317322      10.395507361452713
  2817   1      43.215951534167658      39.110283175910517      5.7298152910965827
  2818   1      19.972992088281668      34.385045237337472      29.069838670985135
  2819   1      27.559314518067648      15.343863675516893      41.797944527328411
  2820   1      52.979469167186487      12.672637061619415      59.168136141900611
  2821   1      41.936642412655672      28.314102109394849      53.946532274151103
  2822   1      18.519537514792116      18.651379094140715      27.579224294684494
  2823   1       5.440856833572016      15.209699927164072      44.549711925759809
  2824   1      36.207586340258956      26.626473804738861      54.124992051168739
  2825   1      31.661801276726802      46.442186618615096      34.911886047864421
  2826   1      22.232253206835395      27.866491298850075      25.753580469832119
  2827   1      11.703945186600588      19.961950193452719      9.0736896020567741
  2828   1       1.967949380416596      20.038729659356893      22.641241595203553
  2829   1      40.796570459541741    -0.57050860950528348      10.976249684177533
  2830   1      39.979542050927321      47.128700561623674      2.4981636653271146
  2831   1      33.804953370238529      5.3698369759872113      29.653104410897246
  2832   1       4.065217343773524      38.762033504394182      38.223905196182734
  2833   1      29.650813789937235     -11.715190257895397      30.182169390108655
  2834   1       22.37872419904182    0.033728082957669062      41.677592983760569
  2835   1      41.686828371316565      38.006903654495083      36.240108410235401
  2836   1      26.152400211279826       9.030028804619457      24.571891647683444
  2837   1      10.981370323984716      55.088041401087473      25.164666210499373
  2838   1      10.875580915158714      9.6366727222201884      28.719067219454917
  2839   1     -2.3909685564419672      7.2167682112734886      29.594642634496878
  2840   1      22.020400264695059      35.005059982540956      37.915319358553027
  2841   1      4.5473083286739095      8.4359540143377654      5.5196436211943158
  2842   1      1.1738476382955605      23.548580214449622      28.423909594309308
  2843   1      20.895859182970764      16.444050441725498      42.707223290705883
  2844   1      35.342023599975811      3.8196768547274367      36.932038192836302
  2845   1      29.738596326833424      24.543067710220136      27.240052130004564
  2846   1      13.932852830587086      5.8721809340720474      2.3996559364751922
  2847   1     0.40970040799054724      25.316620167465892      18.630227420662504
  2848   1      26.454447903695261      32.982444250843066      50.510258668533773
  2849   1      34.240048675263751       8.527109822877204      17.194112800897589
  2850   1      38.235366418637241     -9.7065267575725418      39.843031173483489
  2851   1      46.050881072914805      45.060915779830701      17.791553138954374
  2852   1      16.025435160972147       35.07225964124396      45.326269708925373
  2853   1      39.455723493979292       8.497391064102187      15.784892820644332
  2854   1      28.173235040409267      22.704941508514274      30.686108454007027
  2855   1      11.066569977942091      43.429546603573044      31.858696777192055
  2856   1      7.3660595286151489       17.37366805694532      30.293903999086126
  2857   1      16.414719862221681      51.687504114286213      34.431397766256168
  2858   1      41.053260825477246      15.492381940682991      33.765419860718133
  2859   1      9.6092044653622786       24.40108744152403       31.25610858299267
  2860   1      13.092226941523762      6.3142426871380604      34.323919716438787
  2861   1      7.9289495097985467      34.265397384888246      31.069965450874712
  2862   1      49.096728753984863       52.84001604742523      30.399702879710702
  2863   1      58.146791328000539      42.286265064516428      48.215070867373065
  2864   1      18.768398106908808      38.902249233574942      11.039598831954473
  2865   1      20.488097535349862      25.290720538353714      28.271645160294934
  2866   1      26.220995152436366      7.2994180656720857      35.096443113655027
  2867   1      8.9615816223988105      12.378170743511326      26.826116359632429
  2868   1      60.645902146620649      32.137750104760393      38.806219198984159
  2869   1      14.139968184691751      13.023235371253715      19.954597722859695
  2870   1      30.701651728868111      11.699970297523841      31.062177105333717
  2871   1      48.787721627664922      19.280108321096982      51.503013470334338
  2872   1      41.859062493362188      23.655284822146644      31.418286522105625
  2873   1      43.563407858416092      5.4443348224153469      7.1336231226688698
  2874   1      54.844513772190545      4.7000843746578616      25.580022278845281
  2875   1      37.090057543309598      17.535601256525954      49.950368035780166
  2876   1      6.3659358690762575      37.749917943881556      19.331152938116201
  2877   1      9.6255804799801776      33.781062039936558      23.651104943664279
  2878   1      45.825967341405473      40.505458369871562      7.7680598699020171
  2879   1      20.516867995411918      47.475491851388291      15.083754767745196
  2880   1      24.792227688430767      40.038705528230707     -6.3188511616300795
  2881   1      34.761122808592596      5.0247060634104033      18.385137890007616
  2882   1      53.303165313060056      28.480643035204942       43.23939497933894
  2883   1      52.522817951766342      24.715425600640511      47.982784450814165
  2884   1      46.296910745579197      40.371445362699049      44.458952255283869
  2885   1      27.116827716656722      49.404771274639415      8.4145488573141041
  2886   1      1.6902318592235768      8.1831177311083678      33.133108257509512
  2887   1       49.74116575870449      19.052301193660345      10.624620417714107
  2888   1      33.632146047718741      19.764111203762951      9.9375215107236841
  2889   1      47.535107342028681      35.643326850039898      19.743367001083776
  2890   1      27.819775132961539      6.7013786803016302      27.127136853774601
  2891   1      1.4479767158791177      38.467129015489597      42.272393252660315
  2892   1      33.847233321914032     0.48892144085385514      17.398629692582809
  2893   1      24.865248957519047      25.636135652284874     -6.4440521035261176
  2894   1      21.260040750383858       52.76734838947047      46.721408146589404
  2895   1      50.602032199750539       20.48013778029669      38.202216738320665
  2896   1      6.0905871325227068      53.175140735738218      9.8919058513673299
  2897   1      35.118028046750958      23.824420281961448      49.285190357514125
  2898   1      2.3351441607234142      26.391336591006695      21.603746670034262
  2899   1      55.740246040157338      16.933762275869395      11.320063902325924
  2900   1      25.899559893999431      -5.967556854528806       27.38271133854278
  2901   1      36.546537957938547      29.719297617619262      28.351009353970394
  2902   1      45.801408579636302      -3.479819366985947       43.35830412433026
  2903   1      35.457576934183585      37.256530110793513      36.211598970617942
  2904   1      -5.152374302900034      17.881110558302971      22.424373585943997
  2905   1       16.35597674970106      9.8568178143485508      42.508342944573727
  2906   1      19.887101017021596      19.612458738716935      36.317039169278083
  2907   1      24.877993582204169      36.765824188461551      15.080292457015142
  2908   1      5.5449385809783287       33.80202824146221      20.183811392538669
  2909   1      12.339370938606775      51.557401162077326       26.09397913731981
  2910   1      26.561415686360178      26.409547831990455      21.634987391716169
  2911   1      20.472583825356427      26.900576690076733      14.746202052573361
  2912   1      31.147484426187606      9.4156719319463988      17.194939683050134
  2913   1      24.722620971393631        14.9413351257228      17.285867596423213
  2914   1      33.421430865382831       47.28284834693995       28.63424805204226
  2915   1      24.284349990415073      21.869377879317895       12.35314431903973
  2916   1      7.6795861770394236      23.783271551154161      1.1963879256089509
  2917   1      42.409539257313206      11.959129456150201      36.187823746559502
  2918   1      3.0397970950978466      6.2457942278010625      30.759778269447981
  2919   1      12.098002337775506      37.534578345661892      28.802227183855656
  2920   1      26.731020562863598      27.568517927104722      38.594669276150363
  2921   1      33.120682764506242      27.788729558581892      50.160665873875459
  2922   1      38.081492752333382      1.6046989399395242      6.0723769329352928
  2923   1      10.184485657934609      50.953410435836751       1.131976668172948
  2924   1      32.923329857431725     -3.4071815534388792      31.459886907063908
  2925   1      18.922818093683453      6.9849963897673142      6.4667149838319817
  2926   1      32.980996638864461       23.10096931830304       10.41935524534882
  2927   1        37.5867085175786      19.507957851861601      8.2980160957628364
  2928   1      31.105610525088096      42.357395783043678      32.663430514732305
  2929   1      44.554409246058626      7.6343366626684093      37.076410657622503
  2930   1      37.157005589102134      36.400146387336378      9.5973757968486488
  2931   1        23.7070165291357      13.803924729295785     -4.1657104132837359
  2932   1      6.6946734076917656      39.623707197905183      28.721102478844497
  2933   1      30.715716128074472      16.264501247318094      17.429946718274266
  2934   1      1.2807615471980671      38.301860716492129      28.401652270890111
  2935   1      1.3660920661798364       22.80144024924974      12.302096121451164
  2936   1      21.773071123251903      13.640759022115571      23.500236095100647
  2937   1      37.103786586994588      47.276307825021988      48.530717408612709
  2938   1      31.159631408967797      40.297924015523868     -2.0701615905426496
  2939   1      27.572065659924796     -3.3450087141150351      47.247238336317835
  2940   1      10.187488371599306      21.165437118713001      54.242286008154494
  2941   1      25.362452077688879       24.68051909888079       31.36652281198484
  2942   1      34.402222243808545      36.981513998988731      8.6105685441040229
  2943   1      42.374489714690753     0.48545948298665925      37.504375950060165
  2944   1      35.856005590841775      30.078277860306034       38.13970955595569
  2945   1      3.5354357258345388      14.845693052702224      23.173957026004743
  2946   1      14.728314215936408      38.527450279386919      48.738402858333252
  2947   1      22.744366958338418      32.132750904198225      4.2181590502578272
  2948   1      33.850757484075885      46.097035880823213      8.7507888855437912
  2949   1      18.707817515618714      15.873911134924967      23.033839128984965
  2950   1      39.262261239158676      16.440705082844168      4.7668183914344811
  2951   1       31.50099122895822      33.318410490494756      11.765562874435375
  2952   1      37.275470948037459      13.792976730332001      7.2257757291775198
  2953   1      27.791708913185058      26.512501903213384      7.7557103566820356
  2954   1      16.039767530259088      31.693095372036566      4.2524967895354138
  2955   1      40.762422227171861      8.1872384071958741      42.538161000630978
  2956   1      26.397591349774306      35.143570925958123      17.594377397722674
  2957   1      22.282877598078084      7.8241201179192528      34.594287340256649
  2958   1       14.29006591762664      19.239145460325798      38.564098285298456
  2959   1      15.215669177780271      5.4259055545083186      24.448130223928789
  2960   1      7.7460638504311632      27.247421395308255       23.11723128924001
  2961   1      36.943098083602067     -4.8358993907502779     -10.892653655320094
  2962   1      56.987176193695497      44.145813989895615      36.722573579956261
  2963   1      40.051347942791153      34.376681391174444       27.75256202905187
  2964   1       21.18367199025143      21.169529036120323      10.829835307952903
  2965   1      22.319143754759747       12.26492154007871      11.782156855512925
  2966   1      24.090150890593257      23.450182017618332     -2.2580147117114833
  2967   1      39.526305951776529      7.3695719757959592      8.8786176426933601
  2968   1      25.614200207213887      29.298880909447909      9.1212974317931828
  2969   1      31.507130272395102      5.9159844690933685        32.2981443003927
  2970   1      17.972563899915656      53.034619056636259      9.4931077368582972
  2971   1       10.99728991691611      29.287962239258565      16.582635999363969
  2972   1      46.828176530848289      26.174114613122526      40.590395798541635
  2973   1      43.546486254799731     -11.421184657111965      28.460832166623788
  2974   1      40.410635178112763      21.546230028121386      34.133942864651246
  2975   1      29.552238318052972      17.823272396914064      4.6245585105323519
  2976   1      46.309657026269818       14.24710981409925      6.1835550149631473
  2977   1     -4.3558822240282105      28.593245866917069      33.402332671718533
  2978   1      40.356197869774299      44.477579683375396      30.682004757448251
  2979   1      36.181600541357341      12.883487182703437      33.235405029923626
  2980   1      31.182384334664096        53.1643955267051       48.60900036273334
  2981   1      40.138563963120667      30.553429920078795      35.205376614281569
  2982   1      36.485794692314542      23.625805717408991      27.048777242410626
  2983   1      51.478493605183225      33.859932682832991      42.010905959011005
  2984   1      2.8818326876639637      6.3289739573620372      10.239453551990973
  2985   1      30.772166211859332      39.750962379413295      12.250223036240127
  2986   1      8.8122188017226826      39.465203081648355        21.1052108490465
  2987   1      31.645001157261184      7.1476758323909646      20.578961061692439
  2988   1      58.288647993285934      30.161914095408338      40.072835381857615
  2989   1      21.158691877111178      17.390267406700371      49.538751311661471
  2990   1     -6.6160142777589561      37.340202733376984      11.537631975694136
  2991   1      27.417627700885681       29.43209998429279     -2.4637345964681172
  2992   1      1.0858222848252752      3.8195475343891419      27.334970679882272
  2993   1      29.771165531489501      32.325365031753115       4.397972844196925
  2994   1     -1.0819759881330826      17.762590027319813      22.921781051441673
  2995   1      11.656665907632732      9.0693551488880644      11.154393082296686
  2996   1      33.723554805327346      35.583616940666253      21.850650395140899
  2997   1       52.88496931077762      48.071427208854374      21.920799369735775
  2998   1      26.539453924108575      23.964902720441223       48.85575416899156
  2999   1      25.521767454309938      22.123400861447838      24.254328166071549
  3000   1      9.4989678987007462     -7.8863114822397522      32.806053341185532
  3001   1       17.54656947910226      35.970703773555272      12.696910217673274
  3002   1      45.198125075806452      11.805741919388872      46.588265810903458
  3003   1      41.655467804657121      28.278283255715266      24.845362837558973
  3004   1      24.089691903884333      18.589701981449757      25.147747040149074
  3005   1     -6.5169384942126625      22.528849535848547      27.682135250627951
  3006   1       18.31571467084024      23.838793556180292      10.440318506580121
  3007   1      17.112078313300067      9.8841465933856476      23.110257340256268
  3008   1      12.097149628065251      29.455475758692451    -0.30301304057214151
  3009   1      14.001290163071271      47.415377612697228      48.999674022468341
  3010   1      19.930587043462356      22.186709059915589      37.389656436061799
  3011   1      31.291078896569513      9.4736499915242458       6.241720655003637
  3012   1      4.8857524430753765      7.6327765414027136      39.919122208714676
  3013   1      12.747287912934537      9.7147675491978358      31.505204417816195
  3014   1     -6.0508098355638724      7.1297767572517969      4.3258532688608584
  3015   1      43.382455645511335       14.46686830107992      40.580751350076618
  3016   1      43.211374566995126       14.57681216483177      51.842527848721147
  3017   1      16.227808249378434      29.582039077479656      36.629432487967215
  3018   1      3.6221767910141645      22.604719078392705      34.490898127396584
  3019   1      28.890809871982714      45.343126431801849      21.484442173199199
  3020   1      50.698245472688107      8.6230360285473733      16.071079712617351
  3021   1      44.394217055000532      9.2541731926009962      17.981931679207047
  3022   1      29.105381099742395      18.526710221549191      32.628153548874067
  3023   1      5.0350938866425317      35.301020019112052      59.578601268721719
  3024   1      35.766652625662601      44.604571643088718       30.07079707805833
  3025   1       45.69425926317669      45.336540187319919      46.806765666604356
  3026   1     -3.5167736969543917      18.750405107119821      15.575485299167809
  3027   1       26.42203924624441      3.4710000197052024      30.266172320467138
  3028   1      11.102319173765025      15.695517083045795      46.513274153383364
  3029   1      19.461927660794323      19.089188536429841      46.493546163774162
  3030   1      19.210868052221254       40.81942549856813      14.568087309542115
  3031   1      27.837955461035584      34.388482162371709      14.795383628305826
  3032   1      32.965646885395039      37.653245160844108      16.602849486752838
  3033   1       37.01181007637453      5.5524457538287955      8.8712165752865779
  3034   1       27.59199490710548      4.1457768286238164        6.45612915306062
  3035   1      28.945961786948146      16.802825560813957      44.390439913547027
  3036   1      37.595046565543434      19.455033610981975      19.414653849200739
  3037   1      23.071431388329348      9.3095644909851671      37.092480866615233
  3038   1      46.961826597714655      26.866356585647484      46.234761898168671
  3039   1      42.327665154031173      35.032691981152986     -1.4210673788209289
  3040   1     -4.5715694441279702      37.789568210581351      3.0153480185105632
  3041   1       11.03556233587258       17.84002983070538      11.038221885135327
  3042   1      19.237445326297085      6.7415819496372063      33.017586365344748
  3043   1      7.8924774730716853      61.910546794088042      7.7647042026061124
  3044   1      28.078557816032749      39.680344398750584      27.973690914338764
  3045   1      26.296996995457096      45.063671159974731     -5.8221992664010749
  3046   1      19.390778217523462      34.403227247764335      33.386696434315063
  3047   1      45.635777361806475      29.676307620175418      25.765775329533518
  3048   1      17.082955348877256       25.22926276614611      18.290147084804079
  3049   1      48.514113732876275     -2.5212867897046518      47.117519932097267
  3050   1       43.33458278528844      3.6025341629264336     -1.2727191961527697
  3051   1       22.52358577296885       50.75300370145105      20.305566337191088
  3052   1       9.301280419607366      22.423648744253544      9.8248230784055082
  3053   1      25.413806403701798      31.886057795918688      42.583105628137922
  3054   1      2.1367158780269904      14.684534191670888      62.224551945919025
  3055   1      23.876987379088153      39.125468574592752     -2.9258742612894513
  3056   1      23.620598370313704      34.743612454625762      27.854868790849174
  3057   1      20.332227083819888      39.032513957103163     0.92860664997189135
  3058   1      40.593299520099592      6.9981235511873647      21.785077485391042
  3059   1      42.020875786976298       47.15506730610393      34.918181801343003
  3060   1      44.403875443922104      35.131780945031082      44.236545603136058
  3061   1      4.4473434470873459      24.932859793462882      51.090624996809993
  3062   1      37.191123596876018      29.146802353448077      23.390512499095866
  3063   1     -2.1962789854293465      2.8964480967442938     -1.7601048028562167
  3064   1        21.4124143456546      4.4836239748310405      9.5897635934259373
  3065   1      16.663122326236895      19.706842420222671      16.496391307510581
  3066   1      3.9941877174981748      29.687367413425811      8.3637896167353531
  3067   1      23.549299721895139      29.526614091634428      41.087694930774887
  3068   1     -3.1169972573491345      26.734775843300916      4.0946312629970416
  3069   1      -1.369243730830678      25.931121401504512      15.628237560085728
  3070   1      42.116566928418315      41.111585979197777       45.06662385627304
  3071   1      20.933526514895544     -9.0707487352413381      37.801362622163772
  3072   1      21.599270613495495      41.473469361650892      61.195376353272181
  3073   1       15.52307915053184      24.875283739083535       29.32033243441462
  3074   1      26.020422873818369      13.750152289370359      11.776366794618131
  3075   1      9.7097924501157387      32.051276355865944      19.256138325732039
  3076   1      17.444738888186102      11.255942153800095        33.5426153529149
  3077   1      31.938623393566569      32.752979646495405      6.2506378452052198
  3078   1      55.035557481010507      50.467560304663365       23.50947104004744
  3079   1      28.026350704426999      6.4602238306773971      0.4561751472433308
  3080   1      5.8883566743961087      15.281551742605577      52.748091258921114
  3081   1      51.773686597579655      4.7056490365579089      38.539111913700047
  3082   1      20.931377318280404      19.201812608254158      6.9196048255474389
  3083   1      5.3155164499861414      5.7254107369256158      49.689540976566633
  3084   1      16.923601911840954      17.908431179140951      30.275995850161564
  3085   1        32.0303211319968      27.986546605850268      27.956361033744972
  3086   1      31.143685457437407      50.929687327857927       19.53618307421528
  3087   1      24.377083376726173     -9.9036168992439002      27.700443060239589
  3088   1      36.920469228533292      30.581145140155446      42.736312864274417
  3089   1      5.8652005979196886      27.081676084874772      16.261812460828541
  3090   1      7.3806834507943373      18.574192230377552      26.152948927106692
  3091   1      36.514182987708622      32.969748168773258      40.819501293706445
  3092   1      6.8185463031298124      7.8180593056922785    -0.86572503029841696
  3093   1      14.535675597867769      2.7396861444993696     0.59200870844860776
  3094   1      36.579974443684939      50.135211620020492       3.325748736819198
  3095   1      11.280967172326532      10.679773432646009      23.042920690908844
  3096   1      10.070014569557824      20.523602134701459      2.1895424514922914
  3097   1      5.4696031722639011      12.351578922651997      36.981478680481793
  3098   1      38.563999202781936      28.836183268278877      6.1350279879431797
  3099   1      29.274475843872562      8.5742483971748289      13.590422192994204
  3100   1      17.462635615975302     -4.4309184080457102      40.292241397658167
  3101   1      19.213157125683214      46.881884551935116    -0.64951954748290219
  3102   1      18.218116266036866       18.15259683220798       49.95986986435463
  3103   1      26.998909579990311       18.24316790429063      7.2827164062667338
  3104   1      39.608598388585627      27.780192321331771      18.393152514250254
  3105   1      40.088514281744018      13.432983061779536      3.1626552937894541
  3106   1      42.504416221375863      10.892859933111081       15.30846497721806
  3107   1      45.524834409740997      22.082684657803981      13.479931080458639
  3108   1      43.940818744556431      18.922762790016527      -16.05518822921486
  3109   1    0.042475637041047745      25.899294178193887      30.390979721116263
  3110   1      37.832454481152425      11.445003190370954      37.721485658621582
  3111   1      62.812368766593032      10.739763039637486      40.479213602821126
  3112   1      44.888982794900699      11.923618014665012      9.5396943971069685
  3113   1      21.691400046274396      41.789221552289554      30.291627547147488
  3114   1      31.041878094365053      48.470163739854605      38.700172141730633
  3115   1      33.053462475175962      17.289004837947932      36.031494527281723
  3116   1      5.0885261428351694     -2.7498479564557901      38.345888238045077
  3117   1      15.065405953096793      30.619297051833609      21.150961467235209
  3118   1      32.713175616944312      30.466382671257794      47.688469397847548
  3119   1      37.990641069334522      33.770986616140291      2.1462411134867616
  3120   1    -0.94223776280923388      25.812877495220498      26.967995019409628
  3121   1      34.207454014990006      2.1406531678257159      11.044671710808485
  3122   1      19.052220013053677      29.910356142633045      24.084768504795733
  3123   1      21.856290537397083      19.348659509954913      40.882019281506565
  3124   1       14.60952708476065      46.733394031979998      35.915306891938577
  3125   1      24.358676658859189      15.172971518519848      23.236776909336434
  3126   1      47.106316217365055      28.412937672702558      1.2692158680306267
  3127   1      31.569171249902105       17.75996721586603      20.904969925962135
  3128   1      58.030794368250369      44.202835334930768      16.676660300350402
  3129   1      3.0711911162867054       9.768724900044397      35.374481209286429
  3130   1      13.748541751500643      9.4668829702224269      3.4180346781925532
  3131   1      13.530819006532671      35.480827881746571     -1.1584835318510449
  3132   1      23.306797644147146      37.110188470403919      23.580827573533451
  3133   1      30.169463489463915      25.968981780291571      5.0851246830358452
  3134   1      11.177890606634717      28.222005057145562      33.266579721065767
  3135   1      18.415098386300603      23.151206111956938       40.41124610383001
  3136   1      26.752513458816768      33.253737981062343      33.941937777056161
  3137   1      21.689480556674184      41.692347833560461      5.2147487999925985
  3138   1      12.915197788085756      9.4786789720666267      47.550220963822184
  3139   1      32.815126765574277      37.466801141309752      4.1486721453167288
  3140   1      18.685377491800686      34.040800262603341      10.056129439711709
  3141   1     -4.3241492500307475      7.2910166292486869      22.479289150948457
  3142   1      9.0254663575483107     -2.8634094018192791      42.934898393132826
  3143   1      1.7163623306066949      29.318455627050625      20.100162098216565
  3144   1      16.720714326863018      25.853156021274579       41.40596240213943
  3145   1      43.286080172967495      13.615225909416543      20.187459307659712
  3146   1      35.919926614793262      36.322707276614409     -7.6144882323876732
  3147   1      48.600037639272841     -8.5607466069743889      5.2086748716846847
  3148   1      27.092495232489203     -1.0422353265476962      49.866495924995363
  3149   1      17.658143149101868      25.445705151334391      37.860792306643468
  3150   1      1.8148474418718132    -0.12350041240136775      34.130423456052782
  3151   1      28.123675976638602      11.756200774562787      17.061705565735839
  3152   1      35.133649434673778      52.313268910516697      13.540661577114815
  3153   1      9.6635037066708165       21.12883022401007      26.153508983473614
  3154   1       10.29751979071415      18.068695883506635      3.9265269952314719
  3155   1      5.9030681583277573      11.582716833583452      17.515174109850168
  3156   1      24.915174887535393      13.421991790165521      37.388385671394119
  3157   1      16.083239842846211      41.983363342695085      9.5860351379288637
  3158   1        13.3660282163106      32.767664564362249      30.052956140623511
  3159   1      27.543951349634789       11.89863713453617      8.3477317243626246
  3160   1      39.249071791912868      47.608291936795275      37.977844171180372
  3161   1      20.150533110546991      57.778732611471241     -3.6104590428589503
  3162   1      40.794538107769036      20.492535115531915      7.6127648117025686
  3163   1      16.498646253376904     -1.0569835612260998      28.145365653568962
  3164   1      19.994450387659946      39.248423608568061      45.082552994351552
  3165   1      3.6417559221467539      51.296938502398177        49.2093429554564
  3166   1       27.78600767514175      50.037388492328951      19.759139459001339
  3167   1      34.380742745186424      30.141066132383173      26.383371903995361
  3168   1      26.338961770442538      1.7529659692765989      34.002956769731234
  3169   1      41.904004083290232      2.3389313426006804      6.6580822177443046
  3170   1      13.126326781888579      18.469241774577142      17.971199912841623
  3171   1      24.753690397236234      37.280549296060613      20.557762804573979
  3172   1      22.640375269418556      10.971965512170556      42.766244317548448
  3173   1      42.618577872444618      8.9095230261846172      34.186755481819134
  3174   1      21.223349430880972      29.973177645149768      20.375728974190793
  3175   1      16.456496112884942     -5.6140506115855331      36.420929957841722
  3176   1      31.382253334798641      8.9161344930801114      36.153561624230967
  3177   1      44.360720808993662      5.7700861168026885      19.148428980678311
  3178   1      1.2259003125212826      52.955773023809726      6.2566713475526807
  3179   1      23.642202611237444      18.396443784628495       9.105539818928273
  3180   1      40.817397879440414      37.904126901989144      15.051020173698214
  3181   1      41.822166357786877      11.575779550101718      49.652695439681253
  3182   1      30.901536928011929      36.113862127150824      13.485091985031255
  3183   1       6.005594466036106      5.0355153345981751      41.004137854898104
  3184   1      9.9134845619851042      26.946559849228063      28.402125615515001
  3185   1      48.175628462310385      10.978087527566457      49.679278850312244
  3186   1      26.939667082446618      11.541527512743016      4.9229460359720179
  3187   1      24.877613016800794      38.665550662191556      9.6524346437448667
  3188   1      34.063510083047738      7.4691223688646797      41.759518084663164
  3189   1      9.8207737567373563      17.817696991430882    -0.30382595312369826
  3190   1       33.82264556527408      11.137895419345815      47.566897259425218
  3191   1      4.8849747970293356      23.825940560937696      54.113819722734462
  3192   1      45.614081283115965      32.408029594754133      31.874436503857321
  3193   1      18.204955350212838       23.40470744863158       30.46933433580627
  3194   1       37.01772959609491      6.7153153236193139      16.327119227528257
  3195   1       52.87796993419078      44.808960194282271      30.026002257229788
  3196   1      23.442503864674414      32.665422660108696      18.618425331474057
  3197   1      30.444253498381372      51.722904884222409      44.399402097506908
  3198   1      34.946613987892192      21.311055285623517      34.616093761726638
  3199   1      31.660775490538359      25.749012465564771      40.494540901996665
  3200   1      35.718990018773603      6.9463864631576291      45.851778323374376
  3201   1      25.590239021017478       17.83379261853511      17.886897046894493
  3202   1       24.50668686080515     -0.8824426432485093      18.098673787773041
  3203   1      26.792220634934797      12.447954023348411      49.643536726858152
  3204   1      -2.488377534985458      36.666569995528164      26.116378269868814
  3205   1      60.834679347573669      31.678723348170507      3.5715025352356466
  3206   1      1.9003115826188499      25.177361839258388      6.3426852330246533
  3207   1      42.302564803712229      9.2381548609895727      20.083989456176536
  3208   1      12.840050591920173      23.147692400739157       16.95800065434873
  3209   1      17.010803207592055      21.029568813855558      27.378668148742999
  3210   1      11.994873054925455      34.552635960851916      14.722266298794818
  3211   1     -1.1895528547638798      40.831973752367716      28.548508413903697
  3212   1      31.763950065354081      23.600845557481477      14.062338884855544
  3213   1      37.656570341276812      43.358170323179444      7.0900349865137366
  3214   1      4.3695719526958721      26.735621136215883      53.878600050540967
  3215   1      30.833522278705338      31.654806122265125      17.061695054742682
  3216   1      28.746158150072031      45.326638966977306      18.407011417932544
  3217   1      23.780907318070998      29.466906579054211      31.524063576009191
  3218   1      13.986463277510946      6.0322323963763278      9.9752425255061343
  3219   1      36.947551070196795      25.017324168527082      11.657247135580853
  3220   1      21.820792063986126      49.810570678277671      30.396923647842801
  3221   1      29.315016875824377      6.8768987677234259      23.969375439750884
  3222   1      29.535094500633484       17.80776269170698      27.793867770578309
  3223   1      42.064335065870466      27.145239834850937      43.881129499189704
  3224   1      42.715346578902398      9.9007063712202257      7.7451772582577201
  3225   1      8.5607883799752784      35.553982660179891       20.43761222480628
  3226   1    -0.28497796317323137      31.416965936770268      30.787944673859808
  3227   1      12.317510885027046      4.5932090658281242      30.448853519730388
  3228   1      27.560685301571329      28.899165002542222        35.5728083755426
  3229   1      6.6881689922442149       38.64947437641505      36.438678692836788
  3230   1      5.4921085919755521      15.558092746065562      56.287712968860525
  3231   1      37.367762682339368      22.312447891037365      20.807340863419583
  3232   1      50.426531645599098      30.962202082971764       41.26443914894827
  3233   1      8.4312513860912883      13.381599083106474      39.768217332423113
  3234   1      29.010512972110462      44.265452950866056       6.759247278315514
  3235   1      35.548921042650242      26.875829160850667      17.416149145670111
  3236   1      39.677030811896358      31.997036695249395      37.803424498536373
  3237   1     -3.7264286038677232      28.003898630355206       11.49036590791013
  3238   1      24.969032121857772      14.101737552658442       31.94972360031592
  3239   1      21.865481421271809       33.92463798819729      21.674705375459833
  3240   1      4.5440394171982597      27.633077222956594      12.927261395045974
  3241   1      30.473314781815215      31.533104646937879      41.431956885037145
  3242   1      42.323563238256277      47.190822397504519      16.234807475146592
  3243   1      12.417329538739645      23.324706956101451      23.185750611415319
  3244   1      40.036418820892152      15.798031417325502      47.279750810790084
  3245   1      10.350942699198788      -10.74074305504201      15.882188508735746
  3246   1      24.037499214623693      16.440804042770534       40.88699436716373
  3247   1      39.256615985195992     -3.0205835557946927      10.074121040809949
  3248   1      6.9715122661062869      22.421591896946413      22.234854692301948
  3249   1      40.904016727687882      4.0025063780283148      40.656586848423892
  3250   1      51.243822731578376      7.8673633905033515     -11.114992918548104
  3251   1    -0.94322945960212856      9.2514380051554959      42.809161235062774
  3252   1     -4.9333285407081622      16.429757884497086      19.055072343656558
  3253   1      23.449261994583047      33.959072229616716      15.657317199031199
  3254   1      27.423175339913648      13.699205970410869       28.77614401030597
  3255   1     -8.0621633856478994      4.6374304178614416      28.034695827201354
  3256   1      6.4639512067862812      41.928404954538884      23.689383095543359
  3257   1      25.104685465262566      34.933499570330227      40.654923499459265
  3258   1      1.4173423378835286      40.154215878292803      31.351625635359117
  3259   1    -0.26295830085014393      31.978297743322603      12.479758985061334
  3260   1      45.561345642310087      53.633412766830411      23.450152710578692
  3261   1      37.951491206402032      10.455804956436237      8.3363931501228432
  3262   1      51.497425035962891      17.353407859771274      8.0156706744781783
  3263   1      7.0382462020615213      44.593513668650751      50.972772295629852
  3264   1      11.375367943659285      14.124882914619839      33.343512054701471
  3265   1      11.881119118376375      25.525611265551529      14.994507113754604
  3266   1      5.6299135664995195      25.088465887134927      29.152751254561409
  3267   1      4.9230752251722301      38.784060900018375       4.912857822143879
  3268   1      5.0879591255067904      36.124527275742231      36.893801357317628
  3269   1      16.272860243422798      24.215423873572202      1.7581402076673969
  3270   1      15.472713738558141      2.8471178256832816      45.961031005055673
  3271   1      28.063313670210771     -0.6580052764758928      29.387666418098359
  3272   1     0.55507886228161984      49.245515700852188      4.5903476394375158
  3273   1      15.471913132900484      41.234459990305048      23.657267203743391
  3274   1      13.906474767763889      26.958819956068741      31.676786165452235
  3275   1      9.3959279286165387       44.68505612579046      27.368099496858605
  3276   1     0.56136975637413955      17.097966230429009     -4.5937604601285544
  3277   1      49.545621965808941      32.884211859155286      23.059955405691795
  3278   1      11.984308713487241      43.477786205187058       39.31890751712659
  3279   1      9.6967907702982785        30.9364987556099      6.0513767992006962
  3280   1       20.64167964711082      25.352482325973234      8.4243211618261338
  3281   1      38.060517714391807      32.496960059939703      31.409758294913569
  3282   1      43.079049720143196      40.574719300661648      15.012800787177088
  3283   1      3.5507962482504705      34.817045594477641      18.145081210092926
  3284   1      29.249935517902955      25.285364316554713     -5.0560284828890589
  3285   1      20.595572112802902       16.09010928039406      34.073134548377389
  3286   1      3.2836233831150161      11.801024093578425      64.831062903948975
  3287   1      26.408555895213588      1.8205511609842984      13.153112112193947
  3288   1      24.286272877963594      29.753170796521804       5.709475508710157
  3289   1      30.141172950297044       33.23729543251978     -1.0684239236972777
  3290   1      25.124026982402309      21.476277439904834      3.0422791868787074
  3291   1      40.492956775493568      19.611425604819409      26.418598490620081
  3292   1      26.620448075445776      25.662183291198726      36.197543359330162
  3293   1       10.86476544288619       13.42651347354467       20.52643475917408
  3294   1      7.6473730059988938    -0.46343983220185553      35.275734059424558
  3295   1      27.960853850694111      28.173713545705937      12.334628904351838
  3296   1      2.8050686585703626      34.774330190828302      29.077404314085129
  3297   1       28.11841057602571     -6.8670948493949551     -1.3278949590513223
  3298   1     0.60760189413519616      31.035014893875086      17.882640551865673
  3299   1      37.564788886411947      4.0429825412620941      25.464579068245254
  3300   1      13.715161869956995      26.095860168965945      21.253182956703995
  3301   1      20.419858058371176      32.004505465804819     -2.9310589027342173
  3302   1      26.634080697048351     -6.4893771807419176      18.450534740377879
  3303   1       32.67868281709076      46.518287752539592      5.8114791022767758
  3304   1      14.865077286978551      7.6358796476316408      21.448200633299169
  3305   1      22.343214138278071      16.156946899144774      6.4415246080997228
  3306   1      1.9855106266368077       5.760637272201822      50.691407898332066
  3307   1      23.375449963852905      19.237385711596325      19.842313022698058
  3308   1      22.595429898206511      13.046418634700181       20.14350690034912
  3309   1      13.590410933146371      16.736341246459936      9.1820177339506142
  3310   1      50.770345273823409      14.935912399010066      45.686943482086065
  3311   1      13.588014979122955      20.569470324397685      24.249796670953732
  3312   1      22.417855806421482      16.560124662999726     -11.431305454175018
  3313   1      19.811583253103468      16.993638163945828      30.545529328700361
  3314   1      30.146732083732264      35.665239042893447      2.9971705028896554
  3315   1      4.6932136580128327      6.2740170820191539      46.143945615069669
  3316   1      7.1323672852557367        14.4167302493432      16.176941089378239
  3317   1      3.8441956859346242      26.054742654019812      37.444738621786634
  3318   1      19.763400101986775      43.983938416788433      19.946313565036046
  3319   1     0.21484976082690369      30.467374575767664      7.8150838507595752
  3320   1      6.1531659323134171      21.815991832657495      17.038638150154441
  3321   1      25.387680396166097      33.597428726030827      23.039125179293073
  3322   1      42.778863678090524      25.837715137786937      27.318128868038865
  3323   1       19.34038478747226      35.352912844853329      19.106129553593163
  3324   1      13.631592150515642      37.579823748366415      15.681394911671902
  3325   1      34.482992249883125   -0.073476541775991028      35.124461412271401
  3326   1       31.10193476401372      37.643082483035769      24.254988992412699
  3327   1      47.147471989331677      39.110995232418091       20.68594384482515
  3328   1     0.92257278835221568   -0.036273640868625848      11.166003061839993
  3329   1       14.20614032858607      35.885535073268237      34.195350071179853
  3330   1      39.945805170091084      40.060778260359534      32.415970002315483
  3331   1      8.4460212071832785      5.3609593315284458      49.256864228323593
  3332   1       12.14732471422829     -1.3403722511542877      44.936267276911096
  3333   1      11.458771461243687      27.877633031680606      38.845835945077077
  3334   1      42.873322548581257     0.35505804547804615      3.1941120244657477
  3335   1      37.444611851481767      39.222291767627873      26.140899004063289
  3336   1      33.216408589617409       28.64537110256482      8.4479210175174604
  3337   1      39.490941593051211        46.8979209506115        18.0279615054821
  3338   1      12.455369113037818      33.429393978900841      17.894000019615245
  3339   1      21.017302384147108      36.224204293152631      14.715785200808982
  3340   1      14.772290047772339      34.361264276070074      10.220683080324582
  3341   1      45.773628546394498      37.300001337234647       38.37835693563413
  3342   1     0.67184428444637634     -1.5333977640315801      23.365340361515827
  3343   1      16.098850334674328     -13.349365224275688      6.9402937597344634
  3344   1      52.294260612678947      31.566746947525306      18.824956467893657
  3345   1      19.955520678737958     -1.7774908736958293      28.368241180976145
  3346   1      13.849850935962021      31.795804892284469      1.2094735237592604
  3347   1      13.758718945464846      25.644813054448218        26.5294622946579
  3348   1      47.458221809607728      42.848390144894942       6.786625644517966
  3349   1      13.637296138318471      9.7894786775389875      44.615814253110997
  3350   1      35.806196524059935      8.9951998964388302      36.104619583469365
  3351   1      27.710395345301691      32.057691668620294      36.614308659903152
  3352   1      29.953826790794256      41.051503328150865      42.451128687057164
  3353   1      6.9955900301397236      21.212985532815718      3.4338933468798332
  3354   1      2.2491692409592785      53.551423441461132      17.155420298675168
  3355   1      12.810329905244146      28.754444528293394      19.545365213869225
  3356   1      35.026874194535743      32.194566764370038       12.45590123359033
  3357   1     0.64756032257021912      47.715609922179738       7.895662801139256
  3358   1     -1.1082207192054816       47.06886169650177      19.602503339875032
  3359   1      3.1685489077905271      17.569048102882999      41.123481599079376
  3360   1      8.1619257210815856       4.507116432875188      35.965021193257314
  3361   1      25.236743524040907      30.170017928478195      26.840375939995184
  3362   1      3.5129634987411076      9.7576118585902343      22.028903768711782
  3363   1      13.645318962523357     -3.7861105355943114      23.363681414026178
  3364   1      16.208088850144271       22.36214433951579     -10.751242160971799
  3365   1      42.285488616609712      38.272409957264159      -1.420574213088059
  3366   1      29.482591471807797      37.398701260336125      16.436148474272834
  3367   1      9.9227922374989195      46.505930749245799      29.963258464207346
  3368   1     -8.3666602082665804      16.819932746807506      39.853691754770267
  3369   1      44.302208804509604      47.679345415034284     -3.8074022421162641
  3370   1      12.620054621893678      29.340656355573376     -6.6119791374623782
  3371   1      37.406681361942688      39.772079129793809      29.733298901024945
  3372   1      38.237361966080982      29.816753760280235      31.569290742495877
  3373   1      21.147839763369419      43.015958686404154      15.191768850202903
  3374   1      14.667356036463728      28.655008298478233      33.911180013069654
  3375   1      46.218500009420353      47.278158636527678      8.3492181505107528
  3376   1      59.040455649279373      34.967408476973347      50.433595497442148
  3377   1      43.937530289084442      32.521897725324195    -0.90211226136455258
  3378   1      18.526860126170419      23.008657792560005      43.489144650684466
  3379   1      7.7841455304671108      17.992538898833168     -11.935007809804267
  3380   1      11.578218989312393      30.742453366608881      13.478993015457295
  3381   1      15.135364162780668      19.445131589096817      9.8944099104513992
  3382   1      17.622521540849664     -1.6922052320635521      31.999733799157532
  3383   1      59.046656100160511       30.31254903661964      36.325434256593837
  3384   1      10.865860849010458       13.25644902962965      29.546052612073844
  3385   1      43.445365935239849      28.167813637530283      17.605091590302255
  3386   1     0.46631866322449156      15.492963310777203      30.193408956284863
  3387   1      25.005421833915054      8.7999342464002979      5.6111848656705723
  3388   1      39.772677815394438      31.459717141574931      7.3515827150255557
  3389   1      3.2845611213064636      33.669430331589865       34.68311961566814
  3390   1      8.5404049140854976      49.744484882911905      14.908360127532655
  3391   1      20.012226230971702      36.949596046117563      36.783205156147368
  3392   1      37.402517579754026      31.459504721424917      5.0298639618536543
  3393   1      24.429661301937493      5.8839980882243275      38.628764273629933
  3394   1      18.925908512344911      21.526192192956401     0.59109461215970982
  3395   1       48.48451527433344      39.790634901485085      2.3141595552837804
  3396   1      13.195045547090958      66.484521329147853     -3.8349304469260481
  3397   1       26.36189364491279      9.7069698900498746      15.543267330592501
  3398   1      34.312999560670448      36.506384647890314       44.46735918907541
  3399   1      8.4393306321399368       19.95828145116651      16.175944031357758
  3400   1      8.4507738197941524      42.143551064893742      19.111340082270615
  3401   1      18.058478486805598      14.157060677485738      2.7594844702112806
  3402   1      19.018951051417464      54.400284730782523      22.145760151269553
  3403   1      48.717375086493938      45.317259863806626       11.32309451390508
  3404   1      21.852274763732915     0.59360139125242906      38.265743438785208
  3405   1      4.0081672996665096      11.753163918007372      44.301818654206961
  3406   1      14.596432179868531      12.548788513702799      2.8165139138450286
  3407   1      20.860935430419097      5.0108216606081841      34.873046884796572
  3408   1      18.900528702272922      17.791395466624284      4.4890777486197413
  3409   1       19.51113250700746      39.841734128338608      7.1208648943771307
  3410   1       20.06777845961955      32.848728123543076      40.067502889594074
  3411   1      8.1360761450233099      40.648037509881085      38.569780700672702
  3412   1      54.271606964262936       2.523286339317051      38.906671879371196
  3413   1      27.575330132048943      24.950957476415446      13.903101989136841
  3414   1      36.184792152031342      16.725660585389495      37.101239113926106
  3415   1      13.851723551914981      17.745361797302838      35.155271909247098
  3416   1      16.805791192667325      13.728004314059763      24.658219271399421
  3417   1      11.208318560234749      39.037901508655985      46.083892020524907
  3418   1      23.709271329516881      8.6593007547819649      46.105415431910266
  3419   1       22.82605555173701      7.4864602321570421      3.5603339252969635
  3420   1      22.486146976539331      30.553265385223817      8.3357578694208652
  3421   1      43.279242696154078      7.1388617697675087      40.304506261958529
  3422   1     -1.2065147749134308      14.498140861063067      16.575867381880084
  3423   1      21.428882035491139      24.189160528675206      42.513001495326826
  3424   1      27.519941036030193      20.534977293039901      37.859504727198576
  3425   1      19.024921553174533      21.211856027208569      5.0787602626341766
  3426   1      32.379616761902064      30.021127065120943      4.7491474506829618
  3427   1      33.955923698113644      8.9951759416775339      33.596584198848419
  3428   1      30.012123229945434      25.525752694398641      31.188816060376862
  3429   1     -5.4712509803529636      12.380521696166499      24.972317446799039
  3430   1      30.772217044703304      3.8941626551596777       24.58444627987318
  3431   1       32.25304913732316      21.316175090798687      30.486319302844976
  3432   1      40.744210382813769      2.7471777541927902      32.662603592104354
  3433   1      24.789402323290794      28.658217751796521      34.480563448910551
  3434   1      30.004022271429164      34.610234455451355      18.160094729846172
  3435   1      22.668457932319082      13.623061469887789      52.781800933033637
  3436   1      7.7487969826762786      45.717418537128452      19.723645370992323
  3437   1     -7.5146963162767975      5.1947754385916518      24.551765282644347
  3438   1      25.974757683194586      17.777878471760712      28.519528995280897
  3439   1       59.61017565182123      33.745324072846209      35.482458911533691
  3440   1      13.628903516766968      4.0058524718608925      20.838876177354791
  3441   1      32.609069288187222      11.348461475481557      22.150474543644574
  3442   1      16.039064557021653      24.192935229844846      5.4253752026740418
  3443   1      30.010564573811653      14.512862601715726      23.106889996798024
  3444   1      2.9683909445607712      32.719830701117374      15.921280716331566
  3445   1      29.976009868323562      13.508076374480545      46.985309973031754
  3446   1      41.218566109732002      -10.59450705961393      41.765258810284095
  3447   1       18.02542029594721      36.064901313941981      39.161838814165186
  3448   1      13.679142575777131      14.905465322658788      16.261785618205295
  3449   1      21.338031945426597      27.283573557331714       6.239055483591855
  3450   1      33.222574094750605      17.861268097751754      13.648791733704458
  3451   1       7.688510608291617      54.693832526985148      19.541841668571053
  3452   1      23.348294469983269      25.496216996761952      39.878588686358682
  3453   1      22.770115027570373       34.57326714091495       46.84709570745126
  3454   1      24.783661724727285     -4.3357055811579039      36.330446007581614
  3455   1      3.7809254532602199      35.169592879073967      7.8964867862496897
  3456   1      13.791318151236288      5.8253446614535038     -5.6484717912776734
  3457   1      25.571274216554642      37.597993664252009      30.559021750365801
  3458   1      4.5613515842769852      53.065193806695561       6.902895977077665
  3459   1     -5.5085603300681285       9.404535214621788      11.128919329813478
  3460   1      22.154628136699461       7.962214942725323      31.466739551166533
  3461   1      25.908590074070879      19.110810783126155      32.056497829706593
  3462   1      4.9656695361291003      30.305362587276843      15.209740097344223
  3463   1     -5.2161820404082757      25.767527278771027      38.268444265806934
  3464   1       36.85632891765448       21.11975886291393       45.94697178709373
  3465   1      40.998349106166103      27.700816203877753      29.772577748867679
  3466   1      14.240656168033468      16.732190161608919      27.933335355055156
  3467   1       15.96899051007469      17.897278464232667      7.3821162760357328
  3468   1      38.536886794625161      12.557020076628737      31.057058788867828
  3469   1      28.210945051797243       13.64182392684827      20.811490293717302
  3470   1      30.261820727392017      8.5494588086106234      33.236897548788107
  3471   1      59.823673169984033      55.908114463871122      17.908768917962846
  3472   1      44.451953539633756      29.590593259836925      3.0685811802921634
  3473   1       33.71793138631422      8.3761322108870928      27.955570034820241
  3474   1      36.392297302624179      45.546026832250938      43.634022903854863
  3475   1     0.54853376364693518      48.516523741680949      26.522919717246882
  3476   1      16.534657634449449      19.206799208492797     -1.6594742285408275
  3477   1      4.8264817114999774      18.720359579909157      38.665081760602128
  3478   1      38.238853445965333      1.9136919011614055      49.123114380435695
  3479   1      38.028928562740518      58.223732674471393      21.619187682388958
  3480   1      29.331078266405168      11.508365690094891      22.754351015660294
  3481   1     -6.5307822370228124      6.3262250741919956      45.533129423428477
  3482   1      18.263627038518901      32.538507582893111      20.935044927665263
  3483   1      38.892493924124878      11.619372567795264      48.497266218866301
  3484   1      27.750806295557272      9.0035187783418689      7.5926063133171269
  3485   1      1.1552383442218761      7.3333511860982545      40.640300492570319
  3486   1      15.360604682347308      28.143955970417775      23.156264682907103
  3487   1      50.036322222839985      2.1194868154472579      14.817867010003946
  3488   1     -6.3158940364211933      13.265660203483213      33.013706033885619
  3489   1      42.619110013109974       33.91355488273804      33.929638341953265
  3490   1      32.652482355869111      13.129118837064295      3.8240522540093114
  3491   1      52.936135255406185      31.199705963661167      48.040917583958695
  3492   1      35.130485691718768      40.702647153239319      2.5807303578382008
  3493   1      27.194762216912288       43.60642287258942       2.312883057325958
  3494   1      13.015374182082139      34.053051295772804      26.492919561911382
  3495   1      37.809916217414475       38.71738036181317      19.585318992517298
  3496   1      21.190081765202667      17.585697035642376      12.111805597544949
  3497   1       26.08830936899685      4.3347436032896214       48.08096851799197
  3498   1      40.419792989240236     -2.6982202374488686      13.521467463130659
  3499   1    -0.46226807546297471      9.8808701348602295      39.432294888012237
  3500   1      8.1197304884479387      11.414347391215998      19.491415797912886
  3501   1        31.2525423746781      33.903482622760144     -4.0183526026434517
  3502   1     0.18819350137424756      15.211703335601289      34.817216265884042
  3503   1      25.244283316699555       23.71079415650323      15.562456373279316
  3504   1      3.9158370183786935      13.848793892016687      29.889263993617345
  3505   1      36.452599354495909      13.341361968773656      40.229661835945251
  3506   1     0.47130798455650208     -5.7755992818777591      4.2310573704046401
  3507   1      12.734783006792552      19.007153081140281       41.98903432186615
  3508   1      37.113831039174315    -0.57123496629207415      11.249554050155501
  3509   1      19.637950331799445      22.339420727899348      8.1579403250617712
  3510   1      2.8390844071689552      25.640881891579983      34.422266776460283
  3511   1      37.440551378582342      23.910943430638131      33.535523922860293
  3512   1      13.667955367512034      25.202604586129439      2.7417022100606374
  3513   1      16.983059595649092      14.689120932617223      28.013088524066891
  3514   1      4.1133070522230719      43.701393659687909      25.244637869395401
  3515   1      31.374722513007882      24.171416082101807      34.756641021424628
  3516   1      7.3475603428170322      24.004158668408582      12.089132502163226
  3517   1      40.308869746775514      3.3002351996629105      20.455712809098493
  3518   1      10.752129691586113      40.105032444432297      29.794851409480014
  3519   1       8.615434750414213      32.313730946456182      13.975254921164185
  3520   1        30.6033066196505      10.998604515628411      19.872617392232439
  3521   1     -1.9618998380039356      25.728576679575738      8.6404744740496788
  3522   1      31.700795969085203      42.388512706341587      17.812258669080386
  3523   1      12.893244047400815      11.705856124335311      8.8034506249447304
  3524   1       38.02805400452462       5.591881116318163      11.864774866998379
  3525   1      11.844495241283374      42.255326866961035      26.182948016609579
  3526   1      47.253143366473267      36.978279864988501      49.947397619307175
  3527   1      5.1437153007774556     0.68174254637824439      15.459391799224312
  3528   1      24.084499894217679      47.888206811569482      32.374866148372007
  3529   1      15.256030377165883      34.106841666187137       15.98632150096798
  3530   1      6.2546307739961717      57.108401220586657      42.871762070333389
  3531   1      24.551124048158499      47.393823935769255      51.523922135619848
  3532   1      34.168103818062093      19.700759663310023      6.7117652331076672
  3533   1      7.1199192254160897      22.641049119891871      29.776096317395552
  3534   1      16.571631422894153      7.5695053761582161       39.64900420357845
  3535   1      12.919537713372694       47.90086165807071      16.379514071061461
  3536   1      7.7658281541336445      19.056543999778203       5.919579621649727
  3537   1      15.004047583237627      43.567915071140156      17.920171715664459
  3538   1      14.819164462969354      38.497180497162134      8.0886747871108433
  3539   1       36.39987511970606     -5.9283877891444154      61.627986958146373
  3540   1      14.761769382462463      41.703689496374515      41.523304614577405
  3541   1      5.3727474711927634      42.014618974484762      51.996658722442412
  3542   1      9.6217110611827046      38.922758842413273      0.3963069653961539
  3543   1      41.642719513765201      6.4961233816485535       16.99928378239068
  3544   1      36.673444202149966      25.939249049035453      20.815287607785226
  3545   1      27.494450312739581      48.151174043072288      15.123290928931198
  3546   1      48.909188685430401      60.615059398934598       42.02823085035844
  3547   1      20.370646684710898     -4.4289570540392305      39.189595973326078
  3548   1      20.410135129847873      7.5320211831956794      9.5014609216001453
  3549   1      14.678587786112177      25.393410981467753      38.534343867368854
  3550   1      10.410956849554481      21.758074834515018      33.255578962036196
  3551   1      15.361945753147864      2.5846018921716838      15.831111104918065
  3552   1     -3.2648428191343171      2.9346691611365445      31.404049881312584
  3553   1      49.007080596872768       58.35618521584987      29.255651212699572
  3554   1      15.098318092113201      35.752820063374315      37.779796503545455
  3555   1      34.105631889819669      47.212914746925378      25.558890481248593
  3556   1      22.750534625906546      16.146776662087621     -1.9259054927019963
  3557   1      11.385119662465781      38.709451600340621      23.439701035413176
  3558   1      34.845528282428688      26.935883374053844      26.850119697561436
  3559   1       24.73698204896737     -6.5548860085021818      31.964439917838742
  3560   1      24.869535772555452      5.6872987910575308       26.31516886368394
  3561   1      9.9834847979137624     -7.8752723789509789      10.067362624972416
  3562   1      29.714782853185262      23.022380772664562      38.521065262790358
  3563   1      37.279870569099074      25.261623588651066      15.548300038746577
  3564   1      9.8548400396062803      52.602316073816468      19.888551689184141
  3565   1      26.684936735228124      33.078800323084714      46.286448340807517
  3566   1      24.606523152283064      46.224062866391321      40.182944303825082
  3567   1      19.348365199875143      25.321243483055046      2.1627670224219431
  3568   1      38.781439572598053      34.791431032998418      35.623967488558705
  3569   1      25.551889417811577      11.078974268721916      28.418354104940221
  3570   1      37.512589061167979      49.124816477649993      29.206776129061268
  3571   1      32.287546087357605       48.53547065599227      45.009567590801829
  3572   1      11.600490520447146      60.017471831549805      5.0434431806648359
  3573   1      30.837973581647486      6.1149565650869171      16.010656728101342
  3574   1       11.01644232274076     0.48960942408677893      42.122087136954633
  3575   1      18.633502754300402      22.312499323569781       16.22188234494174
  3576   1      18.689970777870734      17.599561597623563      15.043608566365307
  3577   1      15.371428890194583      6.1751644038928992      5.9264537066030707
  3578   1      26.678602496702961       38.78052795362364      16.556475982457584
  3579   1      39.133446899899454      33.091165622299862      47.794863308465125
  3580   1      3.7818316499439741      3.8149684103299117      29.119935624082917
  3581   1      13.953196969913387      22.185226850424304       1.595851780956411
  3582   1      29.535618835581424      3.1174722422306731      12.769939486799755
  3583   1      39.251950216065147      24.646099636640635      46.676040840309973
  3584   1      24.786432720673204      2.1758051776432032      6.2882480323844776
  3585   1      25.962174786701027      38.988917039252577      23.167876327542146
  3586   1      1.1413848163056859      18.664410945662887      28.925125145545834
  3587   1     -10.900437947485299      8.2034998417700535      41.257833825669003
  3588   1      19.974213444155076      6.4987881261803668      47.705769371274663
  3589   1      12.710320894161526      42.854676075168243      35.873095297944005
  3590   1      43.667976835398143      12.389014790521076      28.682070416594541
  3591   1      28.447760055811248      25.783446115431499      17.970515071998573
  3592   1      37.642078147479424      54.390652965630203      21.761817248532036
  3593   1      6.5640029501733137      27.607914436889587      30.059814735519687
  3594   1      9.5313837421258061      4.5413326871871833      32.386694551679277
  3595   1      7.1930376728511121       50.94396837743939      8.1684185474882884
  3596   1      18.766933113264049      33.878316894524581      15.079813698601004
  3597   1      2.8679011026705123      16.125412538603282     0.85084139121142244
  3598   1     -7.9545999593925414      29.264722321128449       20.89199700312416
  3599   1      36.334346028310144      9.1755633896516056      26.058926658512327
  3600   1      8.3114084903885832      26.464436688726693      39.302153872000012
  3601   1      23.201252173855284      56.677320092197547      11.969457965019748
  3602   1       13.50752241682644      11.485554574636707      28.429582744804382
  3603   1      15.317607747699089      28.055224732469902     -5.3377139540019796
  3604   1      25.822367835232019       1.927799044807635      21.914684021709085
  3605   1      14.734363807391178      31.797155258657469      42.547824656473523
  3606   1      34.514601451899459      42.183840669978949       32.03667176449845
  3607   1      18.566029168813003      19.479012498797452      39.992692574585931
  3608   1      47.476631269312726     -6.4374901060176546      33.102116730638294
  3609   1      40.348828687670782      20.116496017366359      1.7842424490275461
  3610   1      40.703960850022057      2.1130297155146449      25.087516894681972
  3611   1      42.716079051533022      17.678047152861684      3.9302976700114431
  3612   1      28.888956347577004       27.16718285148448      40.914323055429044
  3613   1      12.937750776304034      43.974902627375222    -0.92165100929775678
  3614   1     -8.8159989614000782      6.8010259031466536      33.539434964091775
  3615   1      19.445597298422534      34.965112996281128     -1.2433458821508252
  3616   1      27.848583506115411      28.051571765430843      4.8504808195176903
  3617   1       16.49661739303059      29.518451947711814      40.085931300389774
  3618   1       35.08594259596407      33.597950231654337      1.3758852144641911
  3619   1      31.968824345307198      16.242582204456163       4.447900950221392
  3620   1      13.306299200525189      7.9233153568872989      23.973956323196209
  3621   1      22.650283982896649      22.604341138576608      37.809695430460671
  3622   1      46.492501308475241      47.722785173671099      25.020666587382355
  3623   1      14.002799624360323      21.811835248924112      29.471189048690274
  3624   1      39.832513193061821     -1.3875955394547335      41.281601985116595
  3625   1     -3.1608596134986029      24.425523097651176       43.08546936953293
  3626   1      4.8334361756163151      32.099623313228044      9.9914386957669592
  3627   1        34.4794128372505      14.526056055584622      48.314184200404149
  3628   1      35.463657628565294      33.704363930744179      27.984333596152844
  3629   1       27.80860456691936      50.619050377012563      44.507888237365094
  3630   1      29.157139597364967      42.816460136440497        11.6380105845437
  3631   1      29.978035171399966      15.421299438638794      39.272888243043745
  3632   1      12.795066351846069      18.683971266585694      6.1213858135919361
  3633   1      23.574910543556978     -2.5829214536975806     -3.3259237635797438
  3634   1      47.100250992000284      4.9528638607975664      20.841736769158402
  3635   1      12.116145837505771      16.437293463936587     -9.3921978605835861
  3636   1      11.877820588415791      22.625379659261966      26.822847366517998
  3637   1      7.3342720450469949     -1.5882936640336356      22.426066234385928
  3638   1      41.533649145582764      41.387277298219011      25.838999503405439
  3639   1      47.262326699991597      18.181924592194452     -15.150613005473978
  3640   1      11.581269856233906      18.877902798838171      27.094269879132874
  3641   1      47.988181306321877     -2.8074909145162463      5.3632112823181988
  3642   1      27.765778746426893      35.624388833259772      26.631140709811444
  3643   1       24.68364902241499      25.765121880853059      6.6929268486150697
  3644   1     -2.3898034204642054      19.767409422660741      19.209316304006517
  3645   1     -5.3254675599829611      19.769173131005299      62.118185031877076
  3646   1      20.793782833010678      -6.439562992376815    -0.55796657361863689
  3647   1      7.2249623191199426      41.135799813944139         9.9314169501934
  3648   1     -10.624121783684069      17.000634147101259      25.727879911824392
  3649   1      12.267347218225765      38.214108314129071      32.077250217827618
  3650   1      31.865790132002854      14.299739708443344      36.597985236165989
  3651   1     -1.9469745766139235       50.85004262275897      25.382395694752603
  3652   1      26.588764989015754       24.53040754557184      10.135986906846673
  3653   1      40.967932184251417      21.584173607480217      15.244572026245937
  3654   1      11.989247800549224      50.454320192779242       14.25115632901313
  3655   1      8.4718760141742298      14.658967813610685      48.132557806362051
  3656   1      12.297037852365237      40.450727223729359      42.797974238648678
  3657   1       10.27477431722215      50.542705188247716      17.115702894012493
  3658   1      39.877818174618319      17.912630038802835      10.291355774829439
  3659   1      32.347857518186522      40.484467204509635      34.968072448702429
  3660   1     -0.5108370293240212      33.758457916831475      28.420272371814935
  3661   1      14.835704930059801      5.6716477226310644      47.190666369821564
  3662   1      10.199625966514557      7.4106777309543697      21.340041283316314
  3663   1      17.532912067013999     -9.0381028424420773      30.201937076772978
  3664   1      33.339753700325907      8.0855476867045422     -1.0263675618118888
  3665   1       26.14028793692388      3.6832057119766621      42.586511700338754
  3666   1      30.721735954875058      37.808888713268367      20.404612774900645
  3667   1      31.955505439513345      27.594946965445637       16.68629527746311
  3668   1     -1.6267746016892475      32.785880317682029      6.8133658691005303
  3669   1     -4.6265594448659204      24.158407060517934      24.072171395039803
  3670   1      14.880830074487099      46.112190834223803      13.839642080849426
  3671   1      29.329214039990319      15.768003639571699      6.7397758454120167
  3672   1      32.991290058768485      6.0498594922602331      3.2080460869528147
  3673   1      28.074695965760782      9.8189199839016368      30.651009679090674
  3674   1      8.4163370218229332      27.153857140018001      5.4589649701900775
  3675   1      7.8190839867664597     -3.4180946828288321      32.023076841542959
  3676   1      57.377489402601405      32.163989321240514      46.813285250906453
  3677   1      3.7494090286281727      17.596735632102956      17.609829152208587
  3678   1      28.030257460589873      7.7148455869632224      4.6552110771340738
  3679   1      44.879713465024047      36.729196684404798      35.195676531805148
  3680   1      8.1152071045107927      11.979564877063643      10.958012230112761
  3681   1      29.068607297072894      20.142948677772214      20.289363791474866
  3682   1      3.2008335507220891      59.499665214272319      4.5141440485518691
  3683   1      33.585094317877839      20.136990708164831      24.512593051309949
  3684   1    -0.16585526992778346      24.033986648259923     0.13884858612975831
  3685   1    -0.24693712760787695      10.661080654727472      4.5206134613080229
  3686   1       43.85418400090056      25.444418080913643      14.225361678344614
  3687   1      36.227804918920882      46.401279840111336      2.6637764342049763
  3688   1      15.220255584435977      28.433373513668204      26.086311070044541
  3689   1      34.475618453415912       4.264963755579684      7.3733325330828414
  3690   1      14.083072144505767       32.61675870119084      13.373454092922584
  3691   1       33.83691385182351     -1.8737161613407145      19.680054439435096
  3692   1      40.610150781277383      19.011623035206167      46.999987066349149
  3693   1      8.6959051579950284        20.3087682152069      19.756969301248208
  3694   1      14.961374343468313       38.51795729206043      33.444193870340449
  3695   1      40.410884955897011      22.553397837052472      4.7905273685514818
  3696   1      50.872140489159321      29.799302565562684      12.461628935767875
  3697   1      16.027961579730899      44.321051931540907      44.677400438215699
  3698   1      23.811376344200728      25.598973796504396      13.121943444740696
  3699   1      45.134398018710868      43.740753521046365      28.358384755597228
  3700   1      12.428198507323286      24.999576870490632       29.56130931153724
  3701   1      16.607634124060585      12.725823714222493      30.817894017529294
  3702   1      41.374940284241802      12.740051835302909      8.6658364458623272
  3703   1      8.9270505766923307      6.6832348860445432      41.893665047230435
  3704   1      28.249872509502012      9.1671222160694921      44.834876195504464
  3705   1      38.394676879788726      8.3899013448528112      28.149175998924708
  3706   1      46.355802902685205      42.115529414665524      16.469204691961902
  3707   1      34.603090767236601      21.668050478200886       38.49648272970127
  3708   1      43.468940009541342      4.8173790234409708      26.926997359639948
  3709   1      12.572120405433497      32.499608588170169      22.934491638623371
  3710   1      34.846914155098403     -2.8842905745894392      12.435739578081446
  3711   1      30.889530418274077      18.571461971184263       49.21988539508704
  3712   1      42.735738109371233      44.816481499037614      2.8544074021387766
  3713   1      15.840644087146263      40.117185418091324      27.397588841936102
  3714   1      17.621798083700654     -6.6505621307935128      21.283553909197188
  3715   1      35.552784429415922      15.273290671312736      23.627974953825376
  3716   1     -2.7549561879425699      24.192960055944859      20.974677748653512
  3717   1      37.240054927851688      25.200310022796966      30.436160350475685
  3718   1      23.003759917209369     -0.5637481140920505       5.852220297254056
  3719   1      2.7120267485617791      14.757057478335021      40.186252826966609
  3720   1      6.4345993881950134      8.6958265798826062      2.5819809390609372
  3721   1      13.089926956286689      23.032109480471057     -10.918621966357641
  3722   1      6.4780044871426501     0.64116887361247665      27.670760060799392
  3723   1       8.893853734231465      24.699885022826123      7.8250308965832449
  3724   1      48.524850905995663       29.10538020828562      5.1630024498752016
  3725   1      15.360737428435717      30.101518628854226      45.961401693847641
  3726   1      8.8230175868656779      14.451383573887982      18.684192901552276
  3727   1      44.621258655062391      13.713080193675307      49.043433478190806
  3728   1      32.777942522636621       5.661109768842346      13.240209552937641
  3729   1      24.708935856895206      32.594147905573656      9.5979814604531128
  3730   1       17.63750181620275      7.0152052992259719      45.418042714228243
  3731   1      31.917496496746498      12.655853168206631      16.376360093941919
  3732   1     0.92409825659660294      28.252422783431751      27.766892346288266
  3733   1      45.600639176120858       5.631492981784751      33.408499163813147
  3734   1      37.501109490116605       23.88229686175611      55.261679765666429
  3735   1      49.777937349940466      59.438701787775464      59.549421552306818
  3736   1      46.712442577575878      18.839403905566307      57.572107179622343
  3737   1      7.5111229454798867       7.196505966650065      22.958899472374281
  3738   1      22.047086338977675      4.1402450049629556      27.244508213180751
  3739   1      1.2953297274785072      50.301337202396461      24.060703803955384
  3740   1       47.27823065991258      44.230117677786318      21.237410421255884
  3741   1      12.934840202755689      13.336375737897582      13.041853246113737
  3742   1      40.291765199355879      35.749714660350634      9.7830470808647174
  3743   1      16.237427271486919      35.861359028019685      28.265541480514393
  3744   1      21.576704979022612      4.6041371632450758      31.357855418731351
  3745   1      5.2382278182252513      44.829790248777854      5.4903657723412413
  3746   1      18.653079543515922      19.760620948197559      32.858176256667299
  3747   1      15.593986650446382     -7.1269626824731525      15.540098189131649
  3748   1        16.7945355868757       7.850684958405953      25.763242264180573
  3749   1       29.28261072049585      -1.946292345659578      8.3724774485013693
  3750   1      24.617129524454725      27.509121935912887      24.217913248124447
  3751   1      27.835658475173584      1.1348073325884303      36.814323443925325
  3752   1     -6.7957960186900532      33.784652471789713      1.4421320340406609
  3753   1       47.11846600105666      44.143692103004028      25.110984743941508
  3754   1      37.494124024839245      17.944370739665654       45.87320898892186
  3755   1      8.8801933219141471       6.622072068041529      13.580050514222695
  3756   1      19.794553613532798       38.30718299298551      40.535268757672874
  3757   1       38.38130505653988      25.099532628014103      23.234542021855077
  3758   1      5.4098924843213529       38.60417497770753      11.556146861104878
  3759   1      29.806977926950047       6.015515066351643      51.757066215860284
  3760   1      1.3731723189054508      26.926454156320062      14.574269934132207
  3761   1      1.2901460370043709      19.542454712316065      18.036870826487892
  3762   1       14.38793228299979      10.621747487949021      33.849785656336167
  3763   1      4.6282400826419279      40.753232864657065      26.315234718826833
  3764   1      19.919689631543278      10.508381729920258      20.840079224966676
  3765   1      16.272878988734661       45.72566609689931      22.225848490542518
  3766   1      20.142836227453039      19.695672833667903      17.746372563834413
  3767   1     -7.0192359898761234      25.396644910842586      18.221683629343918
  3768   1      39.093612890021404      3.7734032291736357      43.157645103568321
  3769   1      35.942013751838736        8.23821234286115      30.684719426407444
  3770   1      46.547041708988367       27.87329114331256      19.227657203865778
  3771   1      45.723631413962188       25.26356592342454      1.1260393102867547
  3772   1       30.27604629373015      25.905038703888341      59.664153837977601
  3773   1      7.9136338696942694      7.8030488791132999      36.391500512565621
  3774   1      10.898911804024509       15.96926402521863      28.414733070495647
  3775   1      29.292397202500524      18.074413590431668      12.596452985304035
  3776   1      7.8921950118936506       39.68846197733189     -2.0491774546728272
  3777   1       2.861926725576434       29.84673312851919      23.561518753226597
  3778   1      3.6748172589834032      1.7316260020355596      9.8834982939499501
  3779   1      15.413039058633693      27.945681973286472      17.119196286183321
  3780   1     -3.7669675093498864      17.437474360872141      42.512147385970209
  3781   1      11.689256354112235     -12.175633204890536      19.448079566566605
  3782   1      42.967317530988346      32.932210707686991      20.305634684669911
  3783   1     -3.0136987079009643      7.1716322598046176      9.9443979761020493
  3784   1       5.419360540635866      44.557333743491796    -0.81086000212115483
  3785   1      12.132089157795537      15.226197224201927      7.1643880529776407
  3786   1       21.67204141278475      1.5721347234605201      13.595706118345115
  3787   1      51.021913269557309      20.221549032999842      44.747566501460803
  3788   1      16.306688910703212      10.316864147533149      9.9636102931890722
  3789   1     -3.1120418774715621      11.967603431774293      22.620789054381941
  3790   1      8.4948282564863966      27.687450871635285     0.78437180587210997
  3791   1     0.87495529453951382      5.6214970034083862      35.480396868286206
  3792   1      6.9375564144231179      29.260889688193949      4.1771892936021295
  3793   1      35.000506245395329      8.3301449039571374      20.551058131654916
  3794   1      21.350168084223753       2.890894818227598      40.818225463070263
  3795   1      29.230281281354024      21.147678580005159      27.458487926767905
  3796   1      36.556705309597156      36.754491475450315      29.052075957123424
  3797   1      18.758590860873575      32.605952682565672      43.054474388510265
  3798   1       26.36959253302771      48.470039174888285      42.089036568144053
  3799   1      54.277491508542923      43.786642957653797      16.912839701541859
  3800   1       31.93784520437034       22.84810738616547      18.902919714795988
  3801   1      43.725463137066917      51.861807471055243      21.133002017171037
  3802   1      8.5038862023831001      41.291077400509792      2.1412977103654383
  3803   1      25.740348958202528      27.231967555474927    -0.34192624735325872
  3804   1      14.239493982293398      30.982070941983039      16.440421253064596
  3805   1      40.178062552071559       45.24086311718662      25.805435728295745
  3806   1      7.6601764125321257      3.9550521527536726      30.382286815982365
  3807   1      6.4454210790255244      31.671717179122915      31.045021253272228
  3808   1     -1.0875092656372323      11.966989737288067      7.6105208488303617
  3809   1      25.071733648002656       1.859722232246122      38.456191854701252
  3810   1      16.340460513855565       26.24181821700477     -2.3064332432926324
  3811   1      6.0871130747882383     -4.2593284497745012      10.610991771523194
  3812   1      40.428705883857297      16.283251336286281      50.449078678687641
  3813   1      37.784293972744337    -0.13923652485932825      23.456469510279998
  3814   1      29.781460304991374      53.041979291676732      20.691686432994395
  3815   1      36.861242891538168      30.115631726010193        19.0871872928976
  3816   1      11.069323683672625      10.774632746119073      34.003533982207067
  3817   1      19.132290273974991      45.581221713902686      9.3305788985954088
  3818   1      7.4405924736441955      25.744544572555132     -1.0798309672621791
  3819   1      10.847455123414511      47.120480426717236      13.841911968164407
  3820   1     -10.313164604086156      2.3002738909747444      36.693093397653932
  3821   1      1.7033455258108428      52.119156272958975     -14.936603573950626
  3822   1      20.045234767952767      29.726765701486489      41.545285148396786
  3823   1      9.8104249799840488      25.944016182960677      10.839104915598881
  3824   1      36.920989608611642       19.68055721129587      26.880851907926019
  3825   1      15.644110004354367      42.981035792516138      48.769627773928605
  3826   1      44.685555975282874      29.698899564713958      30.572342338989845
  3827   1      44.537086640402777      10.943133083949684      43.453406049986661
  3828   1      7.2765579985880251      23.037108975203349      33.228396817081077
  3829   1      21.633906556049538      39.536832229834175      16.639675252221664
  3830   1      7.4032349179826902      9.2325319532057435      27.146987205791802
  3831   1        61.3120995858783      17.179878640881196     0.93163087590126581
  3832   1      35.641672222459299      21.313665356441788      42.812200461378822
  3833   1      34.354512616569487      34.700763773726386      37.517581173440583
  3834   1      22.554419151153613      7.7535924558128659      21.912980103425916
  3835   1      4.2800427743898926      13.768671882698078      26.206362865488909
  3836   1      6.9043047852023696      45.087789793010849      25.777296166009162
  3837   1      38.358471957945248      44.604041726499887      1.1590106661071338
  3838   1      32.970147301208073        29.8818254684445      29.606020807112998
  3839   1      24.262496937355362      53.848869650292379      10.637449079817584
  3840   1      29.826624523090008      6.5429704579418075      11.045489111692476
  3841   1      41.171614746558113      35.816713333973674      24.580504921338918
  3842   1      43.146065203145163     -3.8447385444454567       45.20305648796122
  3843   1      32.361839793585396      35.987891103164635      34.841979354719953
  3844   1      36.671453312794341      46.677244026754956      15.281003228916076
  3845   1      22.753744080515414      52.936748550541488      24.246536169667078
  3846   1      33.807981201733959      31.589239227590241     -5.3821617731884173
  3847   1      39.068480155628137      14.600070250449409      12.412224261179146
  3848   1      5.9728043481749369      27.127441651149809      33.195360008720549
  3849   1      17.539070543227876      20.169980691684721      13.821451306925859
  3850   1       61.89668085437102      20.980360576353778      11.714155187903266
  3851   1      34.892991252121618      33.017321002619383      15.463782051990707
  3852   1      26.366359900556144      32.460099027792694      29.073992982426443
  3853   1      29.555293570688757      15.358951753553905      1.5089493334867641
  3854   1      8.6123437311701689      29.063909536306809      14.017255825797427
  3855   1      24.679202638638635      41.875158374605206      48.810806374137506
  3856   1      9.2696718458874674      26.147335232874457      20.390381665683766
  3857   1      25.046558284990084      15.358117993955577      8.2572130252142752
  3858   1     0.20685340040027866      14.509771639033087      27.029928099271157
  3859   1      44.433743629412582      25.065387413306233      10.370702989214358
  3860   1      8.5538528392260904      25.290710529439075      16.264147500270155
  3861   1      16.860529480013216      9.4843995765063625      6.7947061663949722
  3862   1        36.6928408642978      42.224271908235394      41.561047148603272
  3863   1      1.5971248264587263        33.8717935199018      10.061005874363095
  3864   1      4.9968802241430046     -3.6289480717334253      21.364636722214492
  3865   1      45.548278645199794      33.237742400226068      18.183969300763724
  3866   1      56.004068900208473      14.117000790194583      29.577404494512542
  3867   1     -3.0988174518033631      8.2580718320454825      12.920364899907007
  3868   1      37.841728641586876      22.080624481271833      29.103766389040011
  3869   1    -0.60501493867012723      24.043320102419749      44.917471368427542
  3870   1      27.145210004959758      14.486351297245189      3.1135299184862473
  3871   1      33.109113771784287      13.236737933570815      43.805278819142657
  3872   1      52.126873557286984      41.899723913213982      49.997331733998806
  3873   1      35.564537838053631       41.61744830233043      9.9371976057422007
  3874   1      24.748810020327351      -3.147262921948518      16.001200545211422
  3875   1      39.031076558831145       39.57541762041312       6.505945985308708
  3876   1      17.549000311851174      33.396076500591285      26.540349416800371
  3877   1     -3.8550396922650916      13.772144777059541      14.172902628854043
  3878   1      34.409501898206791      39.040410560091459      30.511669905616625
  3879   1      4.8134993023496735       17.23188358591462      25.459683105216076
  3880   1      40.741609125284455      28.577606055225623      8.3298768685987756
  3881   1      30.929376721581725      19.118946336730051      46.254201521039995
  3882   1      15.573336112720867      46.003880303685385      47.033476227387951
  3883   1       19.18126222028592       25.46268394606275      22.908556943386564
  3884   1      12.167897779922129      30.922592538937778      27.487763051644965
  3885   1      35.678483643878366       10.94029637935451      44.866110228773188
  3886   1       18.93565436580376       40.62182981146794       3.563183708663205
  3887   1      10.335221546722893      51.248020686559357      29.762969385467159
  3888   1      9.8079597986460367      7.7279139231917622      6.0644217114233436
  3889   1      4.8501613474768144      49.053593469969755      51.815135256101179
  3890   1      13.312480283569439      44.915877576487368      50.629724460375925
  3891   1      6.8354303481058434      29.420621478449913      10.373403105952832
  3892   1      34.063097506742587      23.072008125428535      16.246685198074115
  3893   1      9.8948834954308307      20.441298371452586      22.835760267591318
  3894   1      40.055185452746777      26.444704827251439      34.407945578650327
  3895   1      15.534503607852038      15.523750015096107      1.1878707691713697
  3896   1      20.638954539937881      10.344065075905405      14.992686898509893
  3897   1      15.632330435136032      23.608065588284955      21.996993620338749
  3898   1      14.112818421882285      27.269105396763592      13.477395409281451
  3899   1      39.783110254433389      11.991487274408467      27.337680207436879
  3900   1    -0.94269828993141103       13.96423647051094      20.469975684717927
  3901   1      36.185651697713581      7.8523424312453267     0.88668828105960162
  3902   1      34.868864898597927      54.972443053148204      23.630786354834722
  3903   1      36.271183573169921      11.135815757426116       50.20408073569201
  3904   1      18.620069328154152      15.623833754314976      11.745749970939441
  3905   1      25.560746494785345     -6.3172741553637728      7.8461042980636506
  3906   1      17.165871075386772      41.067490567226123     -5.6996191312175162
  3907   1      10.966735837138033      35.463048702962652      30.676845541214426
  3908   1      29.889535312142957      38.323238316747535       49.20895968431757
  3909   1      23.342073086268204      6.7529424419806059    -0.23544485301988774
  3910   1      4.0561985929520468      24.905518669344495      18.161986779072034
  3911   1      20.918794098807531      5.8812414048940873      12.422530451731642
  3912   1    -0.53914673162295945      11.826814493447973      34.134084866744509
  3913   1      11.063793277598752      24.766199243579806      39.434038789048586
  3914   1      31.750044561545959      27.376233733348883      33.620894330756876
  3915   1      34.594766999931871      29.409566090325345      14.687115206207634
  3916   1      11.251068036200335       3.956328579716184      3.8358824363258783
  3917   1      42.581929960179608      31.988628471264768      10.476958018336839
  3918   1      41.615442934750824       36.01052511400497      4.2552296373599976
  3919   1     -14.808652788830619      14.890685616989909      15.701121141635122
  3920   1     -1.6613379878086469      49.904549187105552       22.60566599162031
  3921   1       5.579061154945208      20.031220899950739      33.772180610418694
  3922   1      7.1441027937020083      49.163529454024342      19.707243078432391
  3923   1      44.803363476302877      33.810628381004875      22.889059302243702
  3924   1      43.349095255295332     0.84422123247159031      32.386856596361923
  3925   1      21.267356770978239      28.234248306916278      33.785935507355973
  3926   1      10.573112759582255      24.487443349875683      43.797884294514155
  3927   1      15.398909882291557      34.086086418482878       21.85608024841228
  3928   1      33.674143461678682      50.920061959915714      30.727658757348387
  3929   1      11.388284046548776      14.746267418506019      9.9783528555677847
  3930   1      38.678173285830916      20.708062701773358      43.582624673139357
  3931   1      19.544275349373581      23.369018664708356      33.318837436740083
  3932   1      44.663027295032563      47.240784610790634      30.426255414541117
  3933   1      5.9862246752192485      30.956508111991774     -4.2641841499183952
  3934   1      50.397134748271732      27.501335118756792      38.460823381181477
  3935   1        5.82364748597898      15.717163214681969      39.882415970879258
  3936   1      22.152325776196612       23.90349745400971      25.588939414848877
  3937   1      42.908134238098398      45.433204377736089       23.82195680743591
  3938   1      22.219194324514326      21.416102624246463      4.7228567155153565
  3939   1       34.11747228222093      39.970367823754621     -1.5166396819723622
  3940   1      18.385613928062675     -5.8000189973442549      11.509991445834954
  3941   1     -3.1745355999034146      29.964360379539411      5.5482680696301738
  3942   1      16.586458499008383      59.558887342526461      19.733640665768892
  3943   1      44.216788815805849      49.916584664239728      29.175846312543921
  3944   1      2.9800967108411016       28.01722567017557      17.380407918545977
  3945   1      19.926886240562965      27.625182389295542    -0.60483825079379572
  3946   1      15.464961606806016      47.102805939761616      19.315957613460021
  3947   1      29.812596027595504      24.493737443498681      21.246568454167761
  3948   1      1.0408339034186616      15.655960112853228      22.177578217742308
  3949   1      6.0957457523499103      16.141692433057489     0.87905416968495187
  3950   1      23.392756497058389      25.309019541080396     0.49042632337301273
  3951   1      15.614142519784572      23.077053767614913      26.570965343760538
  3952   1      -4.900429022601835      21.232138050749995      47.160386661685934
  3953   1      32.553944799601574       45.10854000377023      22.451194035088207
  3954   1      19.103723235399265      11.748305153243262      24.858466336222367
  3955   1      38.545171754967051      45.378976628720764      22.637226129159032
  3956   1      10.457395391047077      16.268874633534487      35.695155470942744
  3957   1      24.008535692496558     -4.2127647527164465      6.1560372131817109
  3958   1      30.233859066493178     -2.1668450546698299      32.090444806361518
  3959   1      49.581166082065501      21.192698909747527      30.969926549374641
  3960   1      10.459241170726781     -1.9473199772987964      39.812721629257894
  3961   1       41.92485614953177      53.334922434104541      11.653355481084965
  3962   1      29.869361467308511       28.98097559201295      49.887701223029424
  3963   1     -2.9448523991427971      12.369302802840433      18.164273299815349
  3964   1      27.094073944459289      16.470339490024667      19.942046637537189
  3965   1        42.3926401705532      15.422149329562149      54.840767583964535
  3966   1   -0.035696650094188133       8.974005310240079       35.52509768027614
  3967   1      32.815671706009326      51.772087795843433       22.38370039715786
  3968   1      31.618749259328229      58.502799203979158     -6.0861139260107979
  3969   1      33.525958341339638      37.487719040728138      12.164931278599386
  3970   1      -8.348683068263778      23.329818435103494      21.170326888516566
  3971   1      27.568957274198581      28.485463752873386      15.424485448912545
  3972   1      36.379538186783876      50.229276091796379      32.189733187492806
  3973   1      18.723301353525262      35.886920627873991       24.36428184620593
  3974   1      9.6981817707836857      28.342321812980515      7.7779783140840975
  3975   1      41.890484664768024      31.331488596419739      31.802187977230002
  3976   1      40.048349668791928      25.101590740345845      43.450590373548259
  3977   1      23.640655967456961      35.563785894317675      1.0764142924731623
  3978   1       34.03549507231638      24.493620981849162      29.208243148362477
  3979   1        32.3534553228844      31.998118958148364      37.682161372560678
  3980   1      2.9577094235612629      1.8916261721539311        17.8195122731263
  3981   1      29.309565173330299      35.641623836607621      22.429342208901385
  3982   1      41.897622117055761      15.940487863003565      61.059791146669589
  3983   1     -5.6905775927257309      19.362568250470325      27.844014550694055
  3984   1      42.014981512384409      12.346132431538029      46.396342208752479
  3985   1      27.666984082827568      27.009700054851749      32.751509485656015
  3986   1      35.157599749474649      48.275178332438706      39.270201183680868
  3987   1      35.877940414300866      7.3701463299134593      13.010094242600909
  3988   1      47.293114968283248      43.647136391786745       49.76024552046502
  3989   1      47.944601685658746       28.63146406675461      32.215364974016758
  3990   1      21.080748228629215      46.002442123857008      32.492853797787987
  3991   1      43.997838650348186       14.94391734194137      30.832203079988474
  3992   1      36.596174146000408      18.250471011502864      42.527424965597938
  3993   1       17.68707969033207     -6.3370673995760525      5.7993079002221428
  3994   1      56.096207484206431      12.945438115260581      43.446689540761675
  3995   1      13.393641006598719      51.960386554268261       33.21030978534079
  3996   1      19.423280329551329       13.79098218890036      31.466967056541588
  3997   1      22.745252918083477      23.380052310253067      9.1178635135511445
  3998   1      43.617562272058933     -3.0414944182472827      11.326195539678187
  3999   1      41.363861478742947       30.62580122953548     0.19162438850065774
  4000   1      29.667331819539996      51.633331600800069      8.5843979539796322
  4001   1      18.813775039837186      22.659268929237005      24.922715713973318
  4002   1      25.691237165920299      17.037034275275957     -4.7083162905198011
  4003   1      26.642058971463531      41.306409518559022      12.173404522943057
  4004   1      28.457589434729631      35.597500949357553     -2.0173024158342274
