(written by ASE)

4004 atoms
4 atom types

0.0      48.780000000000001  xlo xhi
0.0      48.780000000000001  ylo yhi
0.0      48.780000000000001  zlo zhi

Atoms # atomic

     1   2       46.55476966752309      36.753586252930702      30.613732213271486
     2   2      37.018630664874159      9.0438716446412446      21.484809297329914
     3   2      30.193671851982739       45.69427786650769      28.382856053191915
     4   2      7.4020036631371537      20.430776080908288      27.274611293828048
     5   2       39.55352730494409      47.389677683669902      24.736644304561406
     6   2      30.970896431472646       19.26542942100922      17.748751393721484
     7   2      18.911117843327872      22.350865365204118      11.173271959326337
     8   2      16.640783703326996      20.657376533259708      17.837024146796526
     9   2      4.4585986840295666      23.030765190476369     -2.1039135401720022
    10   2      5.5902105998626563      30.289692293258248      45.098811921828926
    11   2      18.629792590769242      48.505019682632664      28.790284678830478
    12   2     0.99136919954359115      25.805020383500167      10.942878357404917
    13   2      30.980204844896374      22.433745031630657      14.645123704378616
    14   2      29.377287836025079       19.93073191424137       37.89601000696392
    15   2      37.611578909489218      3.9682709926463273      4.5897232352812507
    16   2      3.4104830715036369      11.956446492295164      5.0461981754000229
    17   2      7.6440058127774027      6.4169898085659298      6.2015278974619932
    18   2     -1.1748735043319112      5.9332764473784785      10.180787730190996
    19   2      30.234311181607854      14.814943538361632      12.397597564596209
    20   2       15.37893660145053      31.146282006083414       20.59021025445282
    21   2      32.684500154623599      37.042766623132295      22.769280972989709
    22   2      8.2840163674189444      24.612856776585417      46.296271909370844
    23   2      23.133126740429507       10.03666882157475      44.894024486808704
    24   2      22.215463582125103       6.885289521128465      10.369837075397847
    25   2      17.085382162292252      15.118451799291481      40.667632417442547
    26   2      8.8803651509370756      44.295736980373952      16.142788887461222
    27   2      6.3016209155438609      34.666814165386569       30.24835096818785
    28   2     -6.4518070024742906      7.7419394838703806      18.737782834560722
    29   2      22.493925600617928      18.945521582003799       33.39934453588296
    30   2      5.6718896487457338      34.154387503182853      15.099841254740445
    31   2      21.329445461084916      42.216121808614382      14.024311956449987
    32   2      43.316218184903903      3.1123971578771479      37.520474918183076
    33   2      20.502229839378703      13.276979790376146      28.917326436650235
    34   2      4.9335180733579529      16.015223065979129      17.674974375278524
    35   2      12.781466265062516      27.429492771892065      23.852552803532092
    36   2      9.0899964934391786      48.308667624496024      13.255063099232594
    37   2      41.529385891898485      36.387158672479785      19.513074877754427
    38   2      45.523689887747082      5.5854540230944947      39.543172236202928
    39   2      14.105267625986366      4.0801266791973712      2.0214666846129905
    40   2      26.541618494608468    -0.99809948312024299      30.490180636401089
    41   2     0.68110456269071273       17.84655512262524      30.951014785040112
    42   2      29.000341400500805      42.002234080766982      32.539356505011291
    43   2      44.476933092574818      7.3894736991187164      6.0549726329427225
    44   2      8.1674393335844613      12.531938878739735      14.349347397288019
    45   2      32.851578769592322      43.751217986119173      6.1197606815278682
    46   2      23.864570386865896        32.5409012248682      44.074251224344955
    47   2      10.156235437962076      22.729721972077122      25.027986460635848
    48   2      12.859306789904599      33.440389544421578      22.939168450138943
    49   2      16.117058111936355      41.049477808371719      6.9900247075262492
    50   2       9.502912139682623      44.492743808100855      43.060485285697638
    51   2      26.250076781441596       1.224641986402434      42.438281726058754
    52   2       33.96855441536534      38.627362261678485      6.0067760761676974
    53   2      45.062499619891369      32.791011479689743      51.147531193292622
    54   2      47.913741316674475      6.7557366617641188      5.4447436469672281
    55   2      32.968215727397073      16.482572753165702      34.660573590410458
    56   2      1.3543321835558952      28.838798622442738      40.189081991187479
    57   2       7.793653187721886       51.59701779748238      33.107854189713414
    58   2      28.232328976570482      16.607464361518552      17.992321360921522
    59   2      23.752619760369193      14.570554753804755      32.383637841270101
    60   2       17.73807520436937      41.807809083941798      3.0014702725767481
    61   2      18.153005515912376      10.075363397753758      4.3403364046535655
    62   2      47.172212179632588      45.807098730671846      35.527043912194237
    63   2      18.486417325942156       30.16163467628774      11.733382503881149
    64   2      18.336459763455306      2.7903456339144692      45.195178515570213
    65   2      8.4853241942308806      26.394021939922489      12.080951277005958
    66   2      17.895546683953572       17.32138569138732      45.721441805254287
    67   2      10.606260470518928      20.457120998482448     -1.5313491608195051
    68   2      33.967117085296628       15.48218627206419      11.236192235726786
    69   2       43.93118053382657      19.643681596481102      21.633418267743075
    70   2       10.76308902102938      44.840913668840734      28.161700822583988
    71   2      26.511764833228924      15.232416506132733       39.80627395090886
    72   2      11.731011505414966      21.365987760416505       7.334256670837858
    73   2      20.899374730810425      20.952995974127791      18.140213325275749
    74   2      20.702487830486671      31.276074023710905      32.267622150008279
    75   2       36.49253296408969      16.591475880241095      23.515929897929396
    76   2      20.547076316481885       9.267921921841463       13.69223922130163
    77   2      46.236254292370255      12.259473182856157      0.5950426981190754
    78   2      46.040528425732674      12.599470601013662      35.518657046640378
    79   2      28.172300538179847      34.418642315195164      16.477428530998576
    80   2      34.854565116397488      3.9330153319423728      20.523217022706604
    81   2      38.513266444924447      28.361677911235894      2.3934716580140596
    82   2      26.059029809324308      19.291259015904998      31.682274268021871
    83   2      29.710821727691624      45.904939088044472      8.3395568578406838
    84   2      28.390077829488249      4.8261538340229873      41.176618555039127
    85   2      36.378744732915685      21.661540706988127    -0.47724770070037226
    86   2      43.687153078172308      22.893060216672165      24.050258160921206
    87   2      9.2937367557381112      35.703278275762763      45.481729146151629
    88   2      11.226941540181302      22.567901263718955      11.718154571552342
    89   2      12.269174505768088     0.38520866900914408      18.215547211151407
    90   2      21.899028080366399      47.306317801253442      26.982506762184062
    91   2      8.9298168796894792      28.591132189073182      43.632925441399692
    92   2      30.822058671156945      36.321489602199335       19.18530949640466
    93   2      13.399457075071336      36.391420005521937      46.698540792028957
    94   2      44.354316263226785      6.2368286115913723      25.642025845898743
    95   2      4.4523441472856558    -0.53075120880190285      29.059559212348724
    96   2         6.9077764931829      26.093332024074346      31.434170430465969
    97   2      47.023989830172191      37.400913675908214      26.164287838095895
    98   2      41.731679048107345      22.913137601396567      2.6071169531239469
    99   2       11.05030899081896      13.036038252945627      35.381409857530059
   100   2      12.942790776826884    -0.44309376470321316      8.5319779310289157
   101   2      23.210297438458205      37.782546755579958      18.919474624458172
   102   2      14.901695377070411      27.550250258177389      28.677089983447601
   103   2      33.664159828459283      40.381950045617202      32.546225985303074
   104   2      5.5301778331578477      26.753273473197787       14.96963320188136
   105   2      43.333122205236428      35.345082707230716      36.100435883744019
   106   2      18.554391757119234      26.084832919457426       39.16443892426156
   107   2      38.590586239213337      13.887766074884544      31.805542697201997
   108   2      40.233950236360123      8.6611043185587633       30.48779879996555
   109   2      8.4311689949965167      8.7191602347949431      34.762086218562288
   110   2       38.94365304080651      39.795062450664275      34.241610950917597
   111   2      29.231250847069443      17.654054952934477      22.007853965056892
   112   2      7.8837039836920058        14.8486171349572      50.172318887374324
   113   2      26.787089856099225      38.109078826309073       4.165482417803883
   114   2      10.973957249861675      40.953596254151847       12.51192269559972
   115   2      17.156775521769774      19.045306748620966      14.011668086127585
   116   2      10.499016964685454      6.9413123767214522      21.752492754341127
   117   2      28.558789870695687      42.218453240851829      46.642719065334518
   118   2     0.83708783626685213      10.573058694957826      22.411339212793539
   119   2      27.953842142592233      10.113349928176318     -1.1777341244228894
   120   2      1.3819742257553203       13.02457843018988      33.542869954779924
   121   2       17.69245388317875      38.183901255837682      24.372893645857189
   122   2      35.999566919222787      28.180476973309386      39.967252613603087
   123   2      6.8428096196552932     0.62221837440069383      40.201825159512147
   124   2      27.733332419690079      28.078906527875766      27.361361924065559
   125   2      34.758904547017551      22.258353159622949      43.827883896425448
   126   2      35.845836936181229      2.6936939307555852      39.220954313850967
   127   2      14.413058166952005      42.374678463008443      11.356116479549035
   128   2      19.718574895380616      33.325015769847916      28.244296240578297
   129   2      11.388330622650718      45.749343831613459     -1.3171353748987991
   130   2      21.764319323066378      49.544285167210013      7.5272255532520278
   131   2      22.912495328138537      44.625298249193513      45.676026994666024
   132   2      45.243935128453842      23.330136364157823      34.708091927236381
   133   2      40.668442649969286       35.28644384450461      26.586973551013141
   134   2      29.146921975400868      45.548312980277345     0.72141049501111221
   135   2      12.087593847250398      13.584528368707796      25.024953046371373
   136   2      35.903128499670913      18.538279313706724      8.4577077071034505
   137   2      3.3380843416320269      6.8662689128433136      3.6350940722082838
   138   2      17.049228912619618      6.7755860316747976     -1.7577093300859175
   139   2      14.221734664727412      18.044918516284731      43.143427478185266
   140   2      17.006690587716157      25.602083367280905      14.600614308398921
   141   2      17.160990540857913      23.268085474096157      27.919658294257054
   142   2      45.226901630199343      25.258918433540774      43.205043815341654
   143   2      19.095288017007061      30.640375685797956      41.367006483144721
   144   2      19.019675031288763      14.087632280343595      16.595614203374343
   145   2      12.022201060238325      38.519006247972442      17.131354193748383
   146   2      38.982895440167908      32.536317583466186      19.634722164803797
   147   2      1.1318217057710309      6.2920607128692154      32.678914299656896
   148   2      32.311560744075585      48.953695315327238       13.79675568272881
   149   2      12.743241323006165      10.859613217542869      5.8049890036122509
   150   2      37.476488802304267      13.381457432969114      43.811341077921078
   151   2      25.498034227940561      5.2670609200703584      26.498203788244403
   152   2      27.046864334191344      14.126207787321821      14.127676320940692
   153   2      33.812917383341542      45.180961464774533      41.341084438588368
   154   2      16.596034654933554      28.186371221861286      34.093220905449293
   155   2      46.446008275264425       4.361634202836786      1.6174806577899663
   156   2      6.9168576379936342      19.084663145159777      34.845001183034363
   157   2      26.532423451633488      31.543831886034937      2.9716738110713874
   158   2      32.205943663259156      16.066868813201641      15.770963360191599
   159   2      42.022353581286083      32.945136967659543       30.47798247093964
   160   2      2.5467150931747629      38.843060186672396      26.347055072867008
   161   2      26.474936594958997      27.987239357059188      7.8358324328024187
   162   2      28.211613733563805      24.465658296901427       10.11609249596671
   163   2      35.970728936193247      7.6140039301192699      7.3450980236904293
   164   2      27.207593668578284      50.244693533417127      8.9961704112052612
   165   2      26.817100217117833      36.065048594737334      20.220207913348837
   166   2      26.468508357688165      33.081416231706797      33.980786600601128
   167   2      41.080690052350967      36.399963363012851      3.5393088345495665
   168   2      12.759130608283517      37.256519646230387      13.203179522422245
   169   2      44.419274411157026    -0.19956470295784828       15.77726054791456
   170   2      39.931666447797468      7.7209472053266444      5.6149023198769967
   171   2      12.700481267726433      20.591952550601007      50.654694856273217
   172   2      25.917530023594246        23.0378578236094       14.24057091286369
   173   2      31.724147666007465      38.972258893103437      2.3181476716231484
   174   2      12.577657299660467      13.325719762162361      30.966444143247855
   175   2      44.984175771315719      11.490616869948321      42.335975394336067
   176   2      38.819841406320457      43.022823914367549      1.2643201304171676
   177   2      17.903169459015292      11.545143493667908      42.161214674778591
   178   2      17.432978303611204      36.379003399938192      46.008296716545601
   179   2      44.909295610242616      18.272533121593391      27.984647233543324
   180   2      39.461071855001535      20.166381773207863      5.3691599290397551
   181   2      1.2799070552720597      42.529829528123869      2.0961067236884947
   182   2      40.938676556632636      16.486411601761834      2.8221284157839053
   183   2      6.3246931486295166      1.4647688256477396      9.5150551081023043
   184   2      7.1550433317218314      32.091380925780271      41.375170132353553
   185   2        14.8950491062312      13.747625148450879      18.085556632801833
   186   2      34.003362878575892       41.12122192812415      22.867573562592323
   187   2      29.159311849793866      48.746187741989083      33.798184779768604
   188   2      28.014613034230575       38.61815629135824      37.560696833736166
   189   2      32.735597472079888      4.1887891090097629      16.796366033413097
   190   2      28.581522186272743      43.003047536988433      39.453497105953566
   191   2      40.685178410532075      47.243376106130071      19.509327909315004
   192   2      12.053639607613041      46.171355758777835      11.422880852846543
   193   2      3.7639105229762717      3.9532778664988832      40.159574692530057
   194   2      18.983684446217907      25.209012969190347      19.232068031286804
   195   2      14.272971052686023      15.290945900087499      34.662397564830037
   196   2      47.638875949365534        13.9001551670754      44.987634876107542
   197   2      13.844953258930333     0.13785223959480702      4.4872799840405495
   198   2      7.8189751246099428       14.35937969271653      21.904508161178271
   199   2      19.102436945787318     -2.0437956794586825      14.718508216713408
   200   2      11.623587017775373       25.10495886570849      4.6783106947468625
   201   2      2.2652470734793573      34.749493774428672      22.805963586078008
   202   2      31.393465268091987       37.68494140040707      10.937455503870567
   203   2      38.031835422586951      40.177173342010846      4.1477724284515425
   204   2      16.165676634104276      45.670159341572578       11.78871641376962
   205   2      5.7295370208832743      27.860265402646359      37.468456782125585
   206   2      14.163183266624062      47.182086853637458      40.424089990449453
   207   2      32.772701116669396      16.458692946299543      19.122381895458503
   208   2      6.6138213963937318      20.190813363130463      18.989711566605049
   209   2      18.833793298069168      38.070113700692247      8.1888719197940105
   210   2      5.1878001755461751      3.8294204691726916      48.791691796066694
   211   2       5.983012983843345      38.479881324225701      39.241004633286657
   212   2      19.167467490149175      3.4894121879993651      26.144808052074698
   213   2      18.378461970438877      53.055181843397953      32.148485303126101
   214   2      27.891279583569276      45.913901964835802      45.082620491778187
   215   2      13.059902845213868      43.241993071708578      17.773853871258186
   216   2      44.890806513733864      42.727927081877176      6.2983013136452248
   217   2      39.713220940900548      11.108541408465163      8.5552805601943405
   218   2       1.684619785288515   -0.020846724574384568      32.400556384694433
   219   2      25.403026742930127      40.046306893930868      40.695775515678292
   220   2      13.801538377604015      39.948684568324317      39.824285761699691
   221   2      4.9823134493078332      16.988177555797762      21.196682111215555
   222   2      14.417193805033397      39.029978985601566       49.52683862249485
   223   2      16.079181800156668       15.20373949948978      21.533566624151767
   224   2      3.1065405419114795      48.569620716911068      11.090910244912571
   225   2      28.343415998091263      1.7641680822025394      14.255715339727551
   226   2      14.756798760621926      36.138910773775152      6.0241789711078795
   227   2      42.640617915651518      37.946319372362183      14.244514256534309
   228   2       28.43122895685087      36.244911106433413      8.9556084595217964
   229   2      36.164821158406873      30.758125262961816       4.726554655957905
   230   2      42.348458300085191      3.8491773978266854      8.0292869279711034
   231   2      9.5227677816639673      8.7546942840926683      1.1444518769585534
   232   2       37.87318508830834     0.45257310792703304      10.367762197674523
   233   2      25.764073580926262      40.634228640850452      6.8450927331453215
   234   2      24.158821355645422     -1.7063061289783492      3.3401871298367727
   235   2      10.890310106718196      9.1714641226804137      12.000543729350991
   236   2      41.299856834174264       28.13013402117306      39.361510444466219
   237   2      26.791529132855835      23.427412308324826      33.002191624201579
   238   2      7.9226447410370842      41.721154650403854      30.164288522300229
   239   2      22.493763430458113      32.112215264340662      1.9859709381133155
   240   2      15.144940532018458      29.528060179615807      25.284622202764695
   241   2      30.936914147880813      23.054066875628276      40.280347569081719
   242   2      14.183526225595998      31.600267623212034      7.9213199976972435
   243   2      10.219554526180607      32.168547356044776      14.299206407528764
   244   2       35.15368960644409      8.8837102002788253      45.049224011292957
   245   2      23.442181421318683      2.1681017180993565      29.118810596694637
   246   2     0.59293953681201184      44.606933375656716      38.706636091507605
   247   2      20.533416766405693      6.7721556938667007       36.82513009862555
   248   2      42.402244934953117      37.547380141097058      23.740338407654978
   249   2       48.00975467283201      48.924370581194538      1.6328540905411877
   250   2      41.488490428409811      22.812485408526587      20.088147671409885
   251   2     -4.9969220588967795      11.368869305166038      31.032175493573408
   252   2       19.84291322642985      43.748649583341475      34.424645373192774
   253   2      21.164181309661398      6.8825404995204593       47.84552813339301
   254   2       17.44275190586411      11.476604453979487      20.729223463810371
   255   2      41.514080802004514      38.799014373161306       44.28589078640627
   256   2      45.780114646126712      6.3687116828900443      34.890113808948293
   257   2      14.068347446045363      23.399669748601294     -2.1487575077964918
   258   2      30.093094980428024      38.184193025687186      15.348173641447811
   259   2       46.25044488237981      32.018711918366122      17.916072211483012
   260   2      26.109716070993557      22.984782939424619      40.716476014469684
   261   2      5.0620772568124197      28.342904438207771      41.552803853403653
   262   2      31.539348628140161       14.50670288006747      7.8323459460515163
   263   2      46.467225490228607      7.5009057468574989      21.204333998747714
   264   2      15.803847406437393      7.8142143007411953      35.789114473724929
   265   2      9.1002791645282528      26.377266805545915      23.324773714060086
   266   2      33.664038598817811      39.562134577093303      27.355481798189523
   267   2      42.931591197152137      24.686767918506071      37.863096816485822
   268   2      12.861044161896581      29.427299198821029      2.0357398177720372
   269   2      40.606712437409804       28.53530288078333       9.269400491901564
   270   2      35.619036458977291      13.261764989853859      14.097535384493023
   271   2      42.623068003961812      8.8758713159501497      2.5910825355894422
   272   2      49.493803199376877      15.531888732258855    -0.79774034614088984
   273   2      21.961092218838193      46.210050886280776      30.683596447287595
   274   2      45.629726933638224      45.961528223857599      43.383683716577529
   275   2       7.372340436084313      13.212122840493119       18.16982286204642
   276   2       4.170493230048832      5.1458471784674122      14.876086451969751
   277   2      8.9212430232292927      44.105454294498088      12.308672716370531
   278   2      16.257233607924405      40.410723120667932      35.590149354161703
   279   2      17.672632932688742      45.964853335306223      23.656651078990844
   280   2       2.780674482544649      30.156711739683711       37.17011873232633
   281   2      38.247859703481581      3.2600956595096324      28.483651059470468
   282   2      18.778484654151768      28.180057525079135      27.266942977330512
   283   2      6.6371818438338597      7.9011388907961404      22.863411871431431
   284   2      47.134420177268581      40.412728429792814      37.300106650089873
   285   2        1.68804055026527      44.788601596158912      24.729384177295213
   286   2      30.054832291521915      25.657797854896341      29.343995774282813
   287   2      45.556460718694474      42.622446978545248      21.801439472760325
   288   2      35.526669575693205       34.62943177588344      38.991948918579823
   289   2      7.4291310768818688      32.046448252192121      3.9963822626778978
   290   2      15.898471480336807      10.326451713458932      13.235207417050393
   291   2      22.774941394786573      45.203639479886284      6.8000395613377043
   292   2      31.797547246525241      4.3839851104794709      31.283483159809641
   293   2      37.016259972072461      36.686581214435442      1.0942762096076437
   294   2      32.175666640337155      11.938434319185621      13.947756563992613
   295   2      19.956286777850341      22.179004946673984      34.977931982976699
   296   2      23.155587078320178       30.51709366346595      27.492442972721669
   297   2      39.740878093225739      19.964514638912718        22.7646081258459
   298   2      42.803803244952483      18.646434422707099      6.0862878530350359
   299   2      24.625431194509346      40.728236255261535       21.44901238310246
   300   2      46.769828056801487      29.194652474081639      28.457361241174944
   301   2      7.9387336563560114      3.4331744427828439      21.086253343477424
   302   2      22.261964535532552      36.378154736567367      37.927389541810967
   303   2      41.913321829435226      39.576938835798096      1.8014065778661486
   304   2      3.5597096488543021      11.439426529497265      10.614571273098944
   305   2      16.496999938989877      49.946274790356362      24.770121810223309
   306   2      21.586259567299894      8.0796234165384071      6.3384806552238642
   307   2      15.027705026682597      35.035458512811402     0.71830090149285197
   308   2      39.036960572680584       18.21968274891038      28.182392390625733
   309   2      40.068198131180779      40.782896096890568      40.337826837805096
   310   2      27.184503913196931      24.328205465312561      23.137714554430612
   311   2      13.788008591142647      39.031841300969347      9.2213588835763574
   312   2      46.709370749740962      28.432097332947563       13.42648341032964
   313   2      36.110431674524293      26.846263642107342      24.890894941843381
   314   2      44.579759602944762      1.1459001654299557      41.157598123451557
   315   2      30.303163387713063      28.612900751065563      21.909502817655198
   316   2      39.589138649419475      42.749609738115531      45.243510550687184
   317   2      14.091503697689822      3.6298089985771673      6.2221164551025643
   318   2      42.013437090227157      16.867995347250275      13.870817121456041
   319   2      11.816561460180218      42.509379262065963      33.236361699655596
   320   2      18.624532014496165      49.613544370848786      18.531297721224352
   321   2      38.860993893625825      25.885735268644503      10.699705178153978
   322   2      15.621220126442607      43.120950810111864      38.529276653042992
   323   2      14.799733670619794      19.831152677096103     -1.3260708995543762
   324   2     0.56859588889503243      22.593276256117573      7.0372038688587901
   325   2      22.338686341235075      25.484363740661944      5.5923357765799722
   326   2      41.614513890129636      47.371917721279473      14.224868402060054
   327   2      23.621784229151181       4.215586877090912      38.409673082588405
   328   2      45.132025289705552      42.460640418072948      1.3390911104101686
   329   2      29.339286978699612      39.429225182690338      41.724842072020778
   330   2      39.131187841409648      25.897962039478255      22.045561810148669
   331   2      31.240346100344706      14.872462283120587      37.738802647031569
   332   2      6.4217586661656094       7.363371461960428      18.549359201270917
   333   2       35.52780233431168      47.097615792228893      27.504585960637019
   334   2      7.0589174348200396      24.422220854035395      42.705696218375017
   335   2      48.454361270480959      35.525445426156196      10.548841619096232
   336   2      31.533062363660513      18.195902519041617      28.560353559106378
   337   2      27.052482423806097      39.504007244263896      18.267304410953791
   338   2      10.594127243291359      45.263799379053609      35.939260300181878
   339   2      15.230652040806081      35.079251662187509      38.007492558749966
   340   2      42.263714017453275      15.094157922770679      34.593397962149602
   341   2      22.709078965520067       42.77641247097992      9.5367918202280375
   342   2      43.967206705608206       19.54236098738598       51.52317100156813
   343   2        7.87156577707092     -2.4798443149595295     -2.1087578506713074
   344   2      27.655028456538826      31.606739346355091      19.873918853763278
   345   2      3.0652294734454819      34.435158157900403      42.935187200274477
   346   2      24.135721807072994      32.162659349884407       6.124273956310315
   347   2      11.428377836416802      42.330817577567288       8.833753848109323
   348   2      34.814161386919885      33.264255705387285       6.549098084781952
   349   2      34.302722679042461      20.639973005875213      16.220892665766858
   350   2      27.491383978645572      37.822811460955144    -0.21196577007196774
   351   2      31.815546578870421      47.533714127293038      17.516953210414286
   352   2      12.365589926474588      48.508860446515861      44.480986955318556
   353   2      41.036309773998575      18.294791940926952      45.081210634032907
   354   2      15.570052846266073       47.79488862560779      17.227274166653611
   355   2      42.959947583109624      38.570306876724992      39.744231572634703
   356   2      46.705324018039505      37.682549158417139      22.132104124365458
   357   2      18.458311775318307      7.7567630950626194      10.428968902762161
   358   2      23.802188942408641      21.340707907305411      2.3528329832261115
   359   2      24.205166389702637      39.391519186786077      48.843736750331402
   360   2      48.621229299810523      20.358816331989889      24.628952020407969
   361   2      5.6855869554009342       16.14405643370597      13.810350432271706
   362   2      31.290113016396042      4.6287042255302531      23.827233338044252
   363   2      40.774296775283553       27.37578959592776      31.054989536281958
   364   2      48.068052528950844      28.324243149041688       32.91249164254851
   365   2      13.961715307007408      43.095376864904971      3.6737676665225667
   366   2      12.237635709083461     0.59159177688108588      30.971706711416235
   367   2      14.556507062741698      42.870144948632728      26.700462239629505
   368   2      50.966538562134907       15.86714917478754      10.841976211178512
   369   2      40.056889357094875      15.190131222868102      6.8917178504688605
   370   2      37.099145080630812      36.126384742254089      5.0421838473276015
   371   2       31.45796579437723      24.136668964803366      18.242387763355481
   372   2      45.210835793404819      16.253273140413789      18.158050630725683
   373   2      11.474966510442137      18.202089476042527      13.662599570183621
   374   2      11.189583643594265      34.555975290354908      6.7670921922819263
   375   2       7.636144644342691      4.2858698735919054      41.984761466375055
   376   2      11.120816286146828      30.665983020682912      5.6468543471142212
   377   2      39.734661190324026         5.1112984811133    -0.12704057874050151
   378   2      18.658383790780789      40.302205290254726      38.641505344120709
   379   2      22.971262051773902      15.269555316967553      14.792324351125872
   380   2       17.67356217004378      34.968460826363241      10.727614665237182
   381   2      42.335228170954103       46.39354414231709      8.3173168393449561
   382   2      24.859127893891557      34.905962257943578       48.24939122169279
   383   2      7.1903594443571075      41.174528991202031      45.101037907923157
   384   2      37.115748931085747      47.433215425211714      40.734207925942648
   385   2      15.431238801684682      34.870445297399343      26.843079631149326
   386   2      44.614382573311474      34.150973516864155      24.426567329258912
   387   2      25.233052571023158      17.128202736315107      35.586799820544215
   388   2      52.682026820072835      11.592479289732349      38.258119272973033
   389   2      16.007564666726225      38.500083171895874      12.405722484919536
   390   2      6.5607658672418392      27.059401557285938      27.149250527488142
   391   2      29.384919651081351      44.995491616616178      14.002355712873886
   392   2      28.801590191917327      11.354162234396357      38.311112711667178
   393   2      20.000442825493622      10.959301456907125      32.677207558716525
   394   2      36.569267243743703      15.866964655353087      46.549790423229766
   395   2      10.848573785517141      27.907254778422164      28.327273208906181
   396   2      32.435314675079567      47.090135145665094      3.3981920450498908
   397   2       37.33710623504976      26.851667011585139       34.46276632783789
   398   2      20.877026432256145      41.109490474054482      6.2576415397307068
   399   2      29.785644493974793      34.671706598811241      35.958170790377451
   400   2      47.561703966750592      19.224941429927593      5.7126233507122386
   401   2      22.404221134988479       23.90202443804975      22.233360194087926
   402   2      3.4606491328778697      30.524381881606079      6.9311320629904145
   403   2      34.768020480958711      9.2424547829525938      15.224344522488952
   404   2      16.191380942958034      16.643639998627211      1.4744945718631304
   405   2      26.091787737440587      46.334675241458754      11.398149437166206
   406   2      49.665498170153441       5.011402539688083      48.276973489229299
   407   2      20.098538064961055      33.661611251634831      5.5041150727876609
   408   2      29.198332102303976      41.669281927485493      24.345983835716819
   409   2      22.811041887593948       37.64643079083978       7.515861856037958
   410   2      12.124376152522924      12.968546857398797      12.455653161868188
   411   2       41.46817678342839      42.508725298086794      8.3114978353693463
   412   2      24.269366619731073         11.957605580406      29.338159258666693
   413   2      36.259740216789609      25.109983015504849      15.020141090984678
   414   2      1.5437254059977823      13.321383685316986      41.183608406269158
   415   2      32.165871442398029      41.030100923905593       47.24149231680088
   416   2      36.865770288966843      24.533029946561932      3.9607562575034598
   417   2      22.944907911450599      14.318099564002132       42.85952702133774
   418   2       24.92829908099818      5.0422809609497783      18.577987046520843
   419   2      41.452508902653122      34.914204785203715      48.201461259369552
   420   2      47.301756284598447      45.384977665038626      9.2613315940492349
   421   2      8.9716188435654143      30.577662982435211      20.480526870448028
   422   2      40.399011551983016      20.269679799119636      10.132212023766872
   423   2      37.405911548913842      11.169106774929313      28.398789410866904
   424   2      46.390963733015482      41.571699880024809      32.648521995970242
   425   2      36.428505273584292      30.026887900799377      9.6156834989909665
   426   2      47.513520526213725       16.80149472407075      35.075251439518851
   427   2      40.462625799796385      33.568357452402154      44.269493344192277
   428   2      2.8834232019776951      29.368338525004951      30.910804130395402
   429   2      42.792935919946132      45.687998879115568      46.462896214471954
   430   2      31.582917284405529     0.17634565216294734      21.164126579784284
   431   2    -0.40773647951779785      9.2164016752072033      38.762105165008464
   432   2      34.248965942641014      12.592329326320474      18.525420984924803
   433   2      48.076564890308923      32.424929650428517      30.767363255791071
   434   2      20.312040600741771      44.405926525439639      39.566819590315021
   435   2      36.123589952323634      3.0784913846794519      11.858123470474981
   436   2      26.243610530735605         16.208830742516       26.74000288994516
   437   2      53.016606135584489      7.5356865056488029     0.12925786839773709
   438   2       40.79771450954015      44.164401645745279      5.1589566185508025
   439   2        39.3716467774235      6.7888680606987775      9.2581162189313275
   440   2       12.13937500294786      19.741866772011729      19.610326052959618
   441   2      30.936909867646147      24.368321086677341      43.842736612464279
   442   2       7.587789283704641      43.168939124147492      23.375564418739142
   443   2      5.2335568886881907      7.1294669190637281      10.412311460557182
   444   2      18.102905299560259      29.321788254744725      1.2609261163888823
   445   2       24.47802555728612      6.0252967295362421      2.7509807969304183
   446   2      6.0136385829633747      40.277080369425661     0.34063056399720804
   447   2      3.7848337674134505      27.117065527382234      8.4339626872607543
   448   2     0.63372012736301275      20.986500958527554      34.149245556756931
   449   2      10.656683936892092       30.86175466203138      24.884314665906608
   450   2      35.908692372539136      24.904596326010644      38.016292148010152
   451   2      15.926191114922371      23.056725002313303      31.747383311406548
   452   2      13.330258481274621      20.119304707792576      33.405769929978717
   453   2      41.881706274775105      31.013658843640577      48.531900965787919
   454   2       23.26822482661392      41.223560784936723      3.7580430520650938
   455   2      16.480815463015709      34.371619910668024      31.175287123890342
   456   2      28.186098614804347      4.8764526656644751      36.135469598868845
   457   2      33.846660182879127      10.433121702374514      10.353630160505327
   458   2     -2.6210520898485785      35.472008592230786      13.823132592236503
   459   2      11.028735282725723      30.614084348235505      9.9106288056942429
   460   2       2.892564152867017      17.309269299010175      34.334780443390102
   461   2      42.503099439251187      4.7635215778071087      3.0854286305359451
   462   2      23.083554874476505      7.7363123059148879      23.239791107898355
   463   2      4.4645719561430157      30.527866380715245      16.592783551764573
   464   2      18.008491119419777      24.458038506159209      2.3888470266966757
   465   2      28.038752207192957       41.30667387235065      1.8248931519141982
   466   2      17.255126098171662      48.789138622888807      8.4521076227353156
   467   2       27.27725964767286      23.640832584266782      45.594659030476883
   468   2    -0.29516110803405449      30.650148629585658      7.8917250564074592
   469   2      3.0093011040893831      19.703032127836426      17.066547461500395
   470   2      17.795966952677464      45.296106022622034       5.151168296772366
   471   2      33.823408435876637      35.208405516517558      32.884419492816981
   472   2      40.801889845424625      30.774305517344217      5.1991385958577627
   473   2      48.116623861429154      4.0682768764993487      44.109897656840261
   474   2      27.930894865822523      27.344393551879676      37.872802988214396
   475   2      37.468141153438545      46.168824945831169      16.287004718819507
   476   2      33.297811275377441      44.632153795933469      13.192440663225209
   477   2      26.299759949020274      24.761687557629113      18.579449986892822
   478   2      11.184449648241936      33.322925714413756      2.7478123701749237
   479   2      15.917954287037452      12.509990844232771      45.264589920382654
   480   2      47.834283296821411      47.832515474617082      23.800080175522588
   481   2      23.566951068327704       36.32272199597417      3.5462644757935817
   482   2      9.5441000093169457      28.300160822358496      1.9294547742023493
   483   2      18.185831280030339      2.2804021367365217      14.942627446313383
   484   2      33.851012833670175      1.1052507099618096      47.272476294783182
   485   2      27.113056123422126      27.948031237062835      1.2254777845765139
   486   2       31.91356346839931       46.03564417681352       45.62278730533793
   487   2      3.0017125401989397      27.160882029277161      45.152695240819781
   488   2      46.364037512744453      41.527533898159568      44.431107278246785
   489   2      11.447316210603244      8.3920163202637621      37.798834906617472
   490   2      7.6101370805922315       40.14250361310696      14.230811402360487
   491   2      15.445605287276068      44.196750373241024       8.113120528300561
   492   2      48.188660788234856      21.801000022191975      13.905714017774658
   493   2      26.660149818724939      15.845176359759616      -4.893518236476452
   494   2      22.164545153632606      37.568887545781578      29.368521511207927
   495   2      5.3153284958588802      32.048969369722002      34.445684927535787
   496   2      10.043092289984754      39.364079073509032      41.452649996673351
   497   2      31.317988744963937      3.9329209694882867      48.446465575014422
   498   2      34.228553897238577      28.159572818702308      6.7752451221520342
   499   2      15.332615545559834      16.061474053461605      27.485638188830279
   500   2      45.958999680462348      42.749990726440522      40.031577347266264
   501   2      17.561448798982706      42.885342578132516      42.281980738872285
   502   2      47.870368060548707      33.306686225376694      36.018310136485745
   503   2      14.511107783320663      7.4436132719465897      15.337539068652021
   504   2      3.6666460500071958      24.204985461565037      32.344209862912528
   505   2      20.850936303028504      47.002590096445523      21.989284175562307
   506   2      41.804852803229771      41.423637144666991      30.943391914980488
   507   2      17.429792940661237       43.75284697686871      18.365860161463146
   508   2      12.007007591929774      11.134468996017636       16.04466886991171
   509   2      36.027650421352135      12.818698334684544       6.386540705074343
   510   2      31.778140109126806      18.928680151404933      10.195995626520915
   511   2       6.357935823712336      5.6341166869680057      38.480052309904252
   512   2      43.102383454816739      42.815924265876099      43.036193124168662
   513   2      33.621687960192283      27.898296282043759      18.486456253567685
   514   2      28.903024105226557      42.166418309148611      5.4851011437874551
   515   2      6.9455365743753843      36.075813925269024      35.791785180153418
   516   2      10.825099345141789      26.942869139355679      8.3653461470122554
   517   2      38.304458803447098      38.968099021827854      7.9861423408494625
   518   2      44.371683187699055      33.358467074618936      46.131055625104544
   519   2         26.114888536159      31.374978521424804      47.754691265245661
   520   2      47.982472709500769      31.716232493337351      47.281424560380636
   521   2      11.402328878559395      25.398475072094438      43.169218978506024
   522   2      3.8956077425964168      3.1001745281754807      44.219303585428761
   523   2      24.484791695414703      17.642472544480402      3.9869729418365343
   524   2      29.751308424034764      11.384487100525403      3.1614574149760575
   525   2      40.539075976302939      46.068900424480077      42.711487715802804
   526   2      32.651948797768227      6.5892124393237159      38.031522122485384
   527   2       11.46694805085769      37.120183041407977      36.312256320255294
   528   2       31.92321072511308      3.8922017829697682      4.1419537027170259
   529   2      56.119035986070216     0.13745922381749021      25.968552736225821
   530   2      27.165709864931838      35.672215466111361      45.195333811534503
   531   2      3.7234301022930829      45.181124301851355      19.832734546868892
   532   2      18.450534075167308      12.340763979758636      10.427047998141388
   533   2      7.3441330725008918      45.628676718953052      1.8149153197742274
   534   2      21.715236690570869      2.5120321483854222      12.028843500445307
   535   2      12.813872177604537      12.150244056627082      47.766441503580914
   536   2     0.16949761217409229      10.693621581799796      47.467433023883736
   537   2      50.823243518792793      19.469338030326931      46.652279588176107
   538   2      24.870487920352932      42.670347229925561      25.044141446406396
   539   2      30.959196175678386      41.819671354729245      17.023082716476413
   540   2      1.7557989562569807      1.4717438782723167      15.420428086304183
   541   2      6.8971672026463962      23.987688974560538      1.8179404590826618
   542   2      49.787254091210428      6.8321171660977962      17.427521085933328
   543   2      29.552767883355063       28.17964413829538      46.400242296235298
   544   2      15.086344673136502      29.668479145747664      37.797544077297914
   545   2      5.8885198979926123      10.228880629379574      41.899058240694622
   546   2      37.644536375455708      39.319102278795043      23.362600602498794
   547   2      22.082157785617071      26.384892749027657      41.014483701527631
   548   2      30.313056134571344      31.803325090396509      39.423009050628828
   549   2      29.752694329377405       12.37732265256302      16.992606980932639
   550   2      22.699239017299352     0.13109831561154139      19.176987285684412
   551   2      21.505759805123851      5.9449991538885145      13.992549165731297
   552   2      13.517001803258745      10.588865449409786      20.255979908708721
   553   2      14.235931884440774      24.334091791346083      8.8300690690127581
   554   2      20.468484522497768     0.71854254227006176      36.194782123328949
   555   2      12.697460506561198      9.1301411028946706      31.859035401854747
   556   2      20.080996173387184      39.195996512199279      11.291593907274503
   557   2      26.706936243580966      9.3656078721344365      33.996570228208761
   558   2      19.225738345415966      6.8399776947229176      42.875399082715674
   559   2      2.1070915438529836      3.0393253801538775      2.3642836287958526
   560   2      35.638867164764783      8.0492483344848509      30.868133352978585
   561   2      49.661545340502698      42.422129923467168      6.1181388277785036
   562   2      38.296978995802583      18.369635713216418      35.510267090575169
   563   2      26.952221789562103       9.686718404492094      18.791990139637544
   564   2      1.3495922903651512      39.248583806089727      15.925721913647987
   565   2      13.628077721431112      3.5691992679898372      42.878269476579767
   566   2      46.184676003031662      10.707532296271339       17.59134745154125
   567   2      22.949942223386479      37.261095138336955      45.654793596411992
   568   2      13.765487500433197       31.79604578370046      40.550768634065882
   569   2      25.544744157048939       4.529044747548058      11.612716308256605
   570   2      9.9005018268185534      15.635359761886244      32.686273808498989
   571   2      27.972776244914211      15.379273143077979      50.025530046511726
   572   2      12.109213768898179      29.916918615368793      21.252673956635945
   573   4      35.048496435052961      25.499662052967636      48.402953009021154
   574   4      31.830681536539714       43.43497343743082      2.5195930794279446
   575   4      7.6967154739705217      11.389864741879997      7.1772736059776561
   576   4      18.575894892464788      5.1727354387780853      5.8653544800186221
   577   4      31.183560896105185      8.5182426475840849       17.23031881967577
   578   4      28.097364711921159     0.43677666077523403      38.817298063390602
   579   4      46.864617727374785      6.1547881295279048      46.775574026450037
   580   4      29.578653967001252      1.5526490457314641      1.9910563969642672
   581   4      14.090788813973477      24.256009616922444      18.855707530118121
   582   4      35.963362706616103      43.183584672589554      47.276551381128797
   583   4       36.08597506566548      11.601788826646615      2.3136909391223344
   584   4       29.43945919179588      18.166778714769951      41.302421242577495
   585   4      14.019574343358737      27.449525985843543      17.066398095557144
   586   4      15.279050514485863      23.380748924974309      35.489232146646643
   587   4      6.4407901620126555      44.494480453421019      33.876958625226955
   588   4      15.697616560160075      24.572421411856137      42.446781409451837
   589   4       46.80855131344709      44.944246294201676      25.380895516106744
   590   4      19.980690469435945      45.156205675136896      8.5786889134982474
   591   4      9.7673853322312247      46.006409127358111       24.46124737085665
   592   4      37.134370836857485      22.811775339432636      34.073467919669369
   593   4      23.652808229153049      12.146053205710793      17.258051293192189
   594   4      47.872219817230892       23.88532833756847      31.314268858241032
   595   4      3.7250179445733931      35.072178342353816      26.495285465925146
   596   4      10.575223119267607      2.9181404569675427      3.6118052945976507
   597   4       16.87567768093594      34.627572012332699      22.178255210821785
   598   4      15.434402604672693      44.447895784627839      34.802551032548955
   599   4      7.1068847719933954      42.220060136093217       19.19661516403449
   600   4      35.417205233757372      18.101241991623553       26.87997519429538
   601   4      46.868029492787869      24.527479650010292      23.166390379781344
   602   4      29.599647795763911      21.054772324800698      7.9546915063484223
   603   4      27.245625673521566      26.418473459788007       42.08509066830544
   604   4      16.359032856443005      9.0930946916598785      24.989210085117346
   605   4      8.0455759293138147      42.860139959195806       48.01095801888119
   606   4      38.013322228353793      5.7822491713679325      33.260088351764608
   607   4      5.3080708698676426       28.32002634348089      19.860065607603527
   608   4      43.655757351545596      21.250743692426468      47.742644398530686
   609   4      46.951822931647989      22.609479262402033      46.151559462762528
   610   4      6.8451559118806147      5.8540657914159056      46.600898606955511
   611   4      45.573797695529009      22.379448773647482      5.6677834712979926
   612   4      11.656362807177812      7.8453473203011557      8.3605674725801951
   613   4       6.381267558084776      46.293329439946433      10.024545542266473
   614   4      29.310519665892006      26.391221068866095      15.584059401719182
   615   4      48.281841382608746      2.7153427392112328      34.502085556681493
   616   4      42.548689673453161      5.4921073415054904      29.125062010522829
   617   4      29.710381699069977      33.929854443407379      31.591996262149291
   618   4      38.225040281258238      29.812547249107318      22.005767711344387
   619   4       1.847428706285696      35.762631219156823      19.084980119316416
   620   4      6.4292949058630899      22.674294231396136      14.989413201738154
   621   4      30.953228476136328       1.987860039027892      45.154909069756698
   622   4      16.547795314876247      29.013801634689418      44.757328801205226
   623   4      1.9382120668426628      42.809639306981964       30.87213918825125
   624   4      40.986862032210603      48.124258234298573      38.711045788790358
   625   4      30.961689563478405      7.5461901159944276      3.4459128795128628
   626   4     -1.1835544509577114      25.291074179409172      20.366951954032487
   627   4      15.237747860855832      9.3311289205939492      39.590100394473829
   628   4      28.718528522157765      39.817440494389416      9.2816267337218399
   629   4      23.214576594884772      27.793373242758154      24.598945886763339
   630   4      13.562219170717963      46.677654897026017      24.896235960072548
   631   4      45.573601262936577      38.169320574654151      10.359501501201539
   632   4      43.526122244883233      44.469271403330488      33.959607438058235
   633   4      3.6583399680950541      7.6983871965243162      40.167265196047389
   634   4      22.629200438573818      7.6066852332871573      26.948955779775392
   635   4      14.862408452556064      12.259804394149109      40.884913726884896
   636   4      35.131109791295799      12.093169821267708      47.624961390229679
   637   4      30.895849269526373      37.209031458440123      44.760094492840935
   638   4      41.041910878968544      20.814639500013413      29.874644715867966
   639   4      27.334742502973402      46.019595673263353      25.817928481853706
   640   4      10.196783678461365      10.584508304324093      23.875632860558582
   641   4      44.353138673491664      17.480474882864826      37.589780284197069
   642   4      8.0336634726911065      20.236131409364592      12.519857503908066
   643   4      43.562740721068671      9.9391815644847981      22.737967784328411
   644   4      10.863597950850782      45.276123602914119      5.3536837663157675
   645   4      34.189368379494482      24.787970216074676      41.353593836123459
   646   4      35.284224265798464      5.2227533846435668      47.122667999888463
   647   4       27.62454047225955      7.6578617740450863      1.6994976837446474
   648   4      22.511540891831938      22.685350221067754      31.849975794813474
   649   4      36.857140766558729      13.481900389521916      10.165291257423428
   650   4      17.339903451842591      48.647706910395414      47.297090414168757
   651   4      20.077889508535705      47.909260925088262      11.177475981455189
   652   4      30.571875022258681      3.8274943911387806       11.06135248086821
   653   4       41.44258051862785      40.137584390043983      20.770871523587935
   654   4       48.06709908179652      28.999228201632249      37.614264037258891
   655   4      2.7096045280482808      45.314969995518922      33.601083522608377
   656   4      36.850569560267111      46.312770352807028      21.368918858325436
   657   4      43.874066434467622      14.888499112237271      43.812326355665405
   658   4      19.304180431642404      34.703436901183878      40.396714268992881
   659   4      26.939356606400764      20.518853509902414      27.947995181693582
   660   4      39.097341665009779      24.508724311770237      25.848833211494526
   661   4      8.1279289064492364      32.506004844813297      37.426526754663485
   662   4     0.88080162315400834      13.406909334549034      37.658596842332955
   663   4      47.075899154042112      28.177550665402741      21.068027884544584
   664   4      22.438511010953345      23.768505469932183       15.93852404750613
   665   4      43.647035921355759      46.314894241999468      2.4003747904425188
   666   4      8.6029902658084367      23.781882443627723      27.887398731888162
   667   4      32.502857883976255     0.41666609256321607      30.638496567576858
   668   4      15.899670902474707      27.199555806073487      20.254811570476743
   669   4      15.328163665840028       43.20357718829554      48.368988871357914
   670   4      42.157761491358784      27.515136242624862      35.583419374426278
   671   4      7.0512472860626341      22.719747534139117      31.208429413299413
   672   4      6.6877986051006824      29.092835352401266      8.7617604574480019
   673   4      7.8916287322047864      9.9180005510843436      26.671531280101068
   674   4      44.470996420695108      45.744992543825184      23.634961340781704
   675   4      40.569406981625406      44.275769244327968      38.385688166799326
   676   4      4.6390210004557044      41.477288304044635      4.5322034720796625
   677   4      34.655567152928178      22.158337794675404      12.437890823324171
   678   4      43.142789304218461     0.63012985586895032      23.013291876700656
   679   4      14.972348717012709       28.74529301646632      14.437544293175813
   680   4      45.022954634690727      33.030436629307239      27.747290125072052
   681   4      22.074646929255728      38.354704652586996      15.020761920426626
   682   4      30.952652090749982      18.652625857153492      32.342363495273162
   683   4      28.132465719447897      41.343054228640518      14.884043212075806
   684   4      11.950237302476406      3.3503651743156633      47.119189740510492
   685   4      4.3985697261265138      4.5833547935360608      7.7766984635863929
   686   4      12.740386919725424      17.864359558032913      24.236533928278138
   687   4      45.461273433399164      28.893838722380671      48.363321592084972
   688   4      2.9282917583843551      33.799873200929142      36.471995636735429
   689   4      18.291997584846346      28.974119579566661      19.770505014647757
   690   4      43.559520735732711      19.511151416563635      16.767854065729736
   691   4      30.326627422224323      29.708562898529824      17.164450029315436
   692   4      31.637494342652239      42.137287399429724      9.6602082449293665
   693   4      19.881489295331146      14.775398718835957       23.45726709899866
   694   4      35.402199371942238      20.556210752925818      4.9391709623173448
   695   4      42.174902765527023       4.953993682253544      40.996658993853785
   696   4      38.306763117318376      3.1902022559474528      8.5606184559210252
   697   4      20.536330822948205      47.290375195023685      43.131292280029164
   698   4     0.36235075675458228      23.596241536500081      17.127240546339248
   699   4      38.580246303941678      5.8867188998016511      20.409856988203728
   700   4      34.916210398391264      38.821743326928839      19.888891049403838
   701   4      42.320034634517697      23.428492267935898      11.535595603770686
   702   4      10.480651439747946    0.067595464259855506      39.509241275020976
   703   4      33.735040526380281      34.880705604153235      2.8271826303661496
   704   4      27.597603417232708      12.392226194734642      31.495762419375524
   705   4      14.807495995699568      11.345556240589168       37.03994131060373
   706   4      41.592885081292408       16.85174780732299      24.727282300451122
   707   4      29.462550760112382      15.060654170881298      24.983255402160417
   708   4      45.996668052728879      23.637191434539172      11.237865880149611
   709   4      3.9999225635786804      3.6393653507846131       19.12630900074106
   710   4      34.862768374637277      41.313095878112108      1.6074350980149255
   711   4      8.1848479799919218     0.50769767510235364      29.749030104637573
   712   4      28.837283528658656      5.4942592353989408      17.085035695204571
   713   4      17.927838628195115       23.58041916398135        45.3615365984896
   714   4      25.877310632392128      11.361304899157966      41.893407771806217
   715   4      5.5262525339195117     0.16017522726883809      20.185630111472481
   716   4       25.78106068908891      40.524948714303498       34.08573105856938
   717   4      6.1614908826594315      30.599822030855911      12.308408499053252
   718   4      42.338542677426723      25.010653660256249      33.314013690022158
   719   4      27.178050802777065      20.993904051596743       20.85598578495846
   720   4       30.10789732746337      41.372987084923665      29.027034958713724
   721   4      22.321350317378229      28.385535495968448      44.329776154036516
   722   4     0.52328740069173973      27.426032134525293      5.1800712374970157
   723   4      36.672444970620042      24.003110122057304      28.587228459301709
   724   4      1.8509297975709162      7.7488573612252223      12.850695595204558
   725   4       30.12900493291102      31.927437954609278      48.358687926712264
   726   4      47.890132509231577      34.315271990509515      20.926465985394675
   727   4      22.562311656932913      45.554927893860857      16.424807611238034
   728   4      39.496358028111111      23.863836335627216      31.174982163682078
   729   4      32.270114867385374      11.165365904164213      39.028258274149593
   730   4      47.070989412607041      17.773315863223964      21.622636374938775
   731   4      45.020984946408525      6.7412487787423965      15.842340739454015
   732   4      43.160572454129834      41.103604179175385      47.539800573828472
   733   4      12.054040998014271      34.668515547569996      40.294646819920921
   734   4      1.7348874613181269      41.703111444087916      47.207652158360915
   735   4      44.371119980818072      25.212691865262403        31.0859059900428
   736   4      6.6942638382896789      18.296534308412209      7.2527544076229704
   737   4      21.260301119005142      39.159896484268479      34.804656184991792
   738   4      17.777231617455239      13.623188727377178      37.281643834849547
   739   4      35.151626076768345      43.100960607802541      35.508922645661229
   740   4      13.430408499610332      5.5785947277490333      19.037541733201429
   741   4      38.376947738307628      12.047313276770918      16.937530484273676
   742   4      12.392309041059955      46.848925020261461      15.440615032131156
   743   4      14.591417328757009       13.12582267031188      9.4384689556236534
   744   4      6.6420488061550556      19.938758181645817      44.801166876375653
   745   4      8.2836560956490466      10.654898664359974      20.550827310581763
   746   4      42.804621308483803      14.676213294301323      9.9700453421571638
   747   4      42.144144760453123       46.21021826832105      31.126176065747519
   748   4      16.667717412898604      12.921898605334556      30.086606145846975
   749   4      47.349958027068027      16.512220665554214      2.8564532067083759
   750   4      26.437345276095268      6.7722461988113398        45.1200106587793
   751   4      27.374147115340172      3.3585395035769303      45.524980454516225
   752   4      20.681500439289021      21.216233854253598      45.081988533039656
   753   4       39.75206525258082      33.147831746731242       2.395346392150596
   754   4      14.512051856249206      30.553499705312518      31.309647786750784
   755   4       48.66752694478626      35.004650401139841      1.1937821810546507
   756   4      43.118457688278959       48.97451132476089      28.909109135236147
   757   4      41.464311105103754      11.393485448228722      34.985039247500552
   758   4      3.7548944093335739      22.654830549473576      9.1088045749609705
   759   4      34.574703496120563      14.739346621820141      3.9341520838626112
   760   4      10.639660034594877      37.097862231639141    -0.07267556371575265
   761   4       41.04713868608286      25.853263361588652      4.9659952812804233
   762   4        20.9454059934199      5.1438893208553198      20.866992821469889
   763   4      38.296199020739479      26.637361876963194      7.4044356120183803
   764   4      24.278470482484565      46.008293272392137      35.503334731220612
   765   4      10.216146331381406      20.162594506657644      43.499144757110805
   766   4      10.707924376124645      18.372896782415705      36.544430508733171
   767   4      25.123368376681089      35.833436685627895       41.54107830412476
   768   4      19.575367761786421      2.0238868503410945      22.648410736930252
   769   4      14.169635920486655     0.85086315237265608     0.23262634608933677
   770   4      29.097073827186829      31.454497346153325      25.994295743448269
   771   4      12.237854495542818       11.10232974591567      43.329209190384482
   772   4      47.048912258983187      35.657765384085621       18.26509801669026
   773   4      17.812550802286665       18.95768769881364      41.563589112239796
   774   4      43.462546268054922      6.6495627470652501      48.177275777332646
   775   4      28.328067347129913      42.545531203721346      11.441183091791112
   776   4      20.014653011864805      25.054801924117641      30.075374591876376
   777   4       4.630260474113066      14.555982026920278      48.042756093200623
   778   4      25.198201093593447      28.460419495056691      4.2435642692916646
   779   4       39.63920329768537      9.9869984181855109      43.519147006256972
   780   4       15.17854741644771      11.405342895941438      26.870143268233655
   781   4      8.2202903034578707     0.43836098454319339      17.484477293060447
   782   4      29.199576459956617      7.2908226123045843      26.462340453347839
   783   4      5.1554664946271167      47.848368186961167      43.977161052691905
   784   4       8.719419411633119      36.276629431956628      32.029533603303292
   785   4      49.018588849137068      40.629609063403798      22.040963354017737
   786   4        20.8802642919702      25.766975883242015     0.27557406292067138
   787   4      47.195796854417438      45.303072270867673      3.7528485832554259
   788   4      35.911115057805198      37.914632021049883      30.825113294897108
   789   4      36.668735153384063      17.236496865232169      38.822304594034392
   790   4      26.966292855318205      14.353942761653421      4.9730629364234389
   791   4      4.1286565494738019      40.517229260268053      32.850120266476019
   792   4      33.558212024320419      18.763997884009964      47.374895436237558
   793   4      10.128385968159817     -0.3771914106347396      34.317300089835186
   794   4      34.841327622984409       48.25137504773641      19.286820959518778
   795   4      25.788765112339931      42.874995272063813      43.437859196182472
   796   4      34.954045251704848       13.90307949801935      38.856728126154437
   797   4      35.118736762652766      3.8510580421904224       25.32422798841333
   798   4      3.2989490179099996      21.915831011822231      12.750743874800893
   799   4      48.327550203245778      45.277836955838993      15.782006718517268
   800   4      19.215899532243665      17.457151126236209      20.965985878927086
   801   4      30.083037450511696      10.880392800829474      9.6059486769401872
   802   4       49.49386126750953      3.8460526804492332      6.9788813080165228
   803   4      41.355697426289197      1.7742845770205546      16.175213267579188
   804   4      24.552851793034243      47.547548552596503       38.83179645124855
   805   4      28.200163772902236      26.237056211040933      4.6783769795448364
   806   4      37.762799691654827      17.195476149296844      42.501669635772707
   807   4      6.4310881672340177      41.107297666544966       35.80728189082091
   808   4      9.3311952978900532      34.356203215032117      23.222082469349882
   809   4      35.918090342387984      8.0968781876669471     0.85253741782450676
   810   4      1.3144875933069213      15.930424582327777      15.378130423204043
   811   4      11.004451544107333      2.6422858816860408      36.614691642320402
   812   4      44.756809210846512      33.806693922068121      33.103711507779714
   813   4      13.980812550565291      43.708589539335151        42.7415350711183
   814   4      42.157077642953062      13.126857464528271     0.93361171298633738
   815   4      21.199170416477997      22.028967816672903      8.0236480286860594
   816   4      13.023162234800379      40.546906502251261      20.586178927003907
   817   4      15.719348587983804      11.478839902946845      33.342650099010172
   818   4       45.67258173643485      35.480373259545061      39.240916022470557
   819   4     0.95894924603759157       2.949481552680294      29.380418607162728
   820   4     0.22976758958563448      26.506027490526552      22.728573135669023
   821   4      24.501351498976888      30.426506482037084      31.286683220884029
   822   4      25.472987377012149      6.2920337138660134      7.9123168434056996
   823   4      32.937390047397322      43.131956218473455      26.922875474460394
   824   4      17.612537512215461      6.3177406079348337       39.41690490896552
   825   4      28.274438738580614       5.896345767986408      32.357513295709438
   826   4      22.743463175897276      14.868182428136123      26.042323715820928
   827   4      40.376596907690534      32.734395735048579      23.156934176575632
   828   4      11.400859903757969      24.556603091528963      49.246867058869732
   829   4      8.0194684212540039      13.162057836980782      10.289328181196062
   830   4      32.779091235261284      48.201061052308852      7.3000213154848916
   831   4      39.398054410128495      31.314548460967838      40.876946575804915
   832   4      25.147517556312742      17.715732665825545      15.051991816575157
   833   4      28.959795201983226      13.771280074604157      45.853372214552664
   834   4      2.8087205808344184      13.770020447211245       23.33021344668963
   835   4      25.316471527420774      26.809349142193124      10.888513908885223
   836   4      16.550028775299378      20.716214247399776      3.1281428137376848
   837   4      38.627788019264408       30.90211726748263       30.63196228916852
   838   4      22.791611372702583      11.683446240826655      8.9506794346652931
   839   4      27.160547824337815      45.404851635695273      19.383106612817752
   840   4      33.015120286384189      31.365745842907849      42.357567085097912
   841   4      28.555941716127606      34.159589106353671      5.2182500239472169
   842   4      3.5653252429903097      41.163616484074701      13.301485336827392
   843   4      18.216893480643435      29.674938084415899      16.039326645677441
   844   4      33.310037919618843       48.29223689644045      39.090049798629714
   845   4      30.037797484567072      34.451327265232464      12.787333260571602
   846   4      21.246127797535397      7.0717735604985617      32.954514424280987
   847   4      43.524372581834143      39.003260632454982      34.162051808762094
   848   4      11.558386570704927      15.203597988345528       16.38393666352972
   849   4      46.674559781240546      22.962442853182683      38.618208486522207
   850   4      34.929707561155261      10.206302374463865      24.962232724757694
   851   4      47.059828932158943      14.245818976937491      29.873727907148393
   852   4      2.5268562144922191      45.204778231222818      28.533607799433792
   853   4       48.68606597666669      9.6925695725659136      42.831354406182768
   854   4      13.942177820200982      4.8497432966169045      31.898775233430172
   855   4      4.7853733100516767      15.025843217208614      31.802381351087938
   856   4      29.442406961437054      43.100597122313452      20.835330466533346
   857   4      1.4283343020333577      19.674615320169245      9.0331620957750953
   858   4      32.785705868993517      24.686089724809836      22.149772820924685
   859   4      14.434649361915245      32.152670199545661      12.503836000372653
   860   4      28.184902407092135      20.609025960734552      10.669504510691034
   861   4      21.395938590909967      28.270902385586574      21.434624252068289
   862   4      12.149015557720155      7.9556164574886479      41.386195477324641
   863   4       39.33776089907348      24.803619824679028      17.375095446806572
   864   4      42.896288098150137      2.7900070653107401      26.196191796150906
   865   4      11.457703873255108      29.871203796296609      17.610791705857633
   866   4      15.377998546702289      38.762827072139288      27.691244911805079
   867   4      31.303677699251597      24.838581677799286      47.837767687280262
   868   4      3.9635968429787001      20.148567573309339       24.95671314999333
   869   4      13.386039730072563      35.085490143423968      10.172765762966604
   870   4      22.051345216923945      14.895587733567224      46.544889565130674
   871   4      31.385949189227322      32.640033132503589      19.497725528626219
   872   4      45.910961114850316      38.256148140606335       15.77079964944428
   873   4      11.541517012999631      14.598674869358012      44.872598315160495
   874   4      48.276100889432229      47.973009933780162      12.911787916180796
   875   4      11.939357220047073      32.440234783786941      37.057735495211126
   876   4      47.414727063552576      10.127834647204418      5.6872892692834318
   877   4      7.6974087835830733      4.1698113595482162      28.850639454818392
   878   4        9.09264174688224      36.039730657835001      16.371253084800081
   879   4      23.814366885486507      34.408684979578126      9.7616350256330993
   880   4      34.786123633349433      31.015520569573997       20.52126271362296
   881   4      25.328793931978424      7.5688737738171117      41.529947672990687
   882   4      26.861599452404594      31.142620515307648      37.385794544330061
   883   4      2.6098682383082412      33.925784466396131      30.111727057996941
   884   4      22.150689755920858      8.8367392799407032       2.131055189348174
   885   4      37.686616546152763       36.45404185322338      45.622475550391989
   886   4      8.6494973832908801      46.105044844209289      31.612500902730222
   887   4      22.291078037555071      16.051852445352978      38.401895916326303
   888   4      32.567184797399058      9.8133502242387074     0.72342001995135508
   889   4      22.576074787632042       41.53623445259008      32.487668057724925
   890   4      18.182770561325643      2.0139625339764251      3.6908397185237942
   891   4      20.019744398344134      38.595117139266833      3.5471155943996631
   892   4      14.147037534113926       32.07327302473945      45.234923667717958
   893   4       44.77479025901755      38.088480159856267      46.411518289303388
   894   4      44.087411036165378      13.688703547686922      15.938819525659333
   895   4      33.439907474725608      40.701536375349278      12.787201870615791
   896   4      14.754057197572516      17.558777117628335      16.279885604353588
   897   4      43.344159521545876      8.2117531935749515      10.412631272229181
   898   4        34.7256241843588      13.166182528812746      31.335147070269592
   899   4      17.062938215380697      3.2707963950552665      49.034698204885999
   900   4      34.374148190059806      35.062976316860158      26.266934505895378
   901   4      38.253084640810343      1.1503873480346993      14.134684943587372
   902   4      31.875959837616964      37.328912396664485       38.75712581170621
   903   4       25.38249445245707       7.905274425220127      37.690004789312574
   904   4      15.121808956158816      44.272551952959383      14.841958408150653
   905   4      2.7194897614972966      24.266602573615337      42.299084016717984
   906   4      11.463751425528196      10.784172900753434      27.531823199505727
   907   4      6.1876170496661995      14.467683147769913       7.427387685204728
   908   4      23.513697498077796      44.325092286780979      19.917314536327886
   909   4      44.227184288371305      30.421096920340393      10.542004278013708
   910   4      8.1980828989036674      20.760701897501903      5.3634083766256841
   911   4      6.4174282630669151      40.612708791337305      26.370438002637254
   912   4      14.668477584374431      15.301983723846693      46.724905698857896
   913   4      4.3348474340253906      48.596600327798825      1.4274112689405285
   914   4      10.454866744603752      18.437744816151795      29.776753505262239
   915   4      44.963921287696962       26.01927370081782      21.685049079391508
   916   4      45.535277674219429     0.81324813106314653      8.7959000591527197
   917   4     -1.1473018677861295      41.174994274425558       9.338570542807501
   918   4      24.502256434770295      7.9393039665602076      48.203404358783338
   919   4      28.997267961706282      23.772357269321798      36.382170254920318
   920   4      7.1902184169325842      12.619331707316134      33.428997569970171
   921   4       30.35699393263166      46.555912928632246      37.452975358316756
   922   4      42.184221498240937      38.894637055504859      5.5178990421768788
   923   4      39.469412430300416      47.756139155710372      29.143650338581065
   924   4      3.1460924629561995    -0.39785595232412457      23.030987064731264
   925   4      35.931893100121115       7.091693519777083      27.089972724899077
   926   4      41.127672060937961      12.056444367195688      27.962302805019402
   927   4      11.020106194155584      23.918782923303542      20.935509680738445
   928   4      6.4946209169120541      41.931669704434405      41.330707175273702
   929   4      1.5023751282818196       10.62637094003172      18.510312614349829
   930   4      10.085736440954237       41.66042190726435      36.385653378919059
   931   4      4.4381627277365494      33.798380735548093      11.019806386788465
   932   4      38.335681280537294      37.353995838572999      38.436868580364241
   933   4      46.517505399234985      27.416283204542044      23.969939451828335
   934   4      35.316536014936368      44.535223676859999      24.321967899968133
   935   4      20.092406984530637      43.215868750942086      21.108903112798856
   936   4      26.068375748455569     0.63481764333179014      26.571862674767974
   937   4      33.943383593858321      32.845758481505754      35.927125743166599
   938   4      30.353421449440773      27.092368978636934      7.7490513681124238
   939   4      18.714775610898567      26.307562054965782      9.1637050433894967
   940   4      44.909620132984713      47.044287760991928      11.533685511791413
   941   4      45.193686317152213      36.420588473983003      43.007559120016474
   942   4      25.760030655848823      13.340304477478389       19.07195250025519
   943   4      16.409268764555808      37.018185754985204      34.422973252405058
   944   4      20.048811370033633      39.529097726791157      43.876028611958624
   945   4     0.33338431350258324      6.2799802961655633      41.351745143847481
   946   4      24.703644850047336      49.057024423343421      13.278282065218491
   947   4      6.2896488257636491      14.339345497058813      40.699784371226038
   948   4      19.753253413830166      36.344511061113735      32.718032153772548
   949   4      47.678605205680704      48.030904521358984      45.972452445156648
   950   4      24.434450541282686      44.615205665824895      28.097052254990224
   951   4      48.144767528022115      41.307028376568404      25.481075184363071
   952   4      28.400001606282206      22.750078057824236      4.9225074786521539
   953   4       37.08455408237571      45.651488921184416      44.838268994570392
   954   4      18.319461513395915      14.091454766595785      3.8982388460091859
   955   4      39.728310643718778      2.9036324113247387      38.986887276968794
   956   4      39.488365485818179      11.584149801512305      3.3423152636496152
   957   4      17.031316017685121   -0.063678914306394566      43.616541132887896
   958   4      48.931280569035749      10.039162553672266       2.414860000463273
   959   4      8.6670393673467814      7.8977013349471674      42.703070454080503
   960   4      38.238413449976953      45.618354941358938      7.6895537150768414
   961   4      45.221467399030672      36.333464320171998      0.8046349457442834
   962   4      19.051724083685848      26.869639869102638      45.896060102384652
   963   4      7.9943661529400725      26.885624721311078      5.7177384071083015
   964   4      4.3401783903195579      30.938035319120011     0.83945707373143141
   965   4      16.476097856146769      26.520414381795963      23.963516176013112
   966   4      3.5925694991777792      3.2614252084105959      11.209273252418532
   967   4      41.986861035401255      24.126070114019758      28.515722228268196
   968   4      22.364203210568334       44.14832779385037      1.2806213876127186
   969   4      28.399508564663922      37.344409915441958      24.200240119723631
   970   4       4.550373258269178       34.57754730063445      5.5788671594922583
   971   4      2.1788139939886353      33.417626306537613      8.3721007100884872
   972   4      34.121726509108029      26.472446151792742      28.713508254149161
   973   4      16.717149788910902      10.386063709835492      16.622359896307497
   974   4      12.574500022201571      26.489512313530867      12.414357054911864
   975   4      31.883129053703911      41.802025582077569      42.809708305332222
   976   4      16.024118764781175      45.605085042742687       45.42394656572219
   977   4      8.1993777025325087      7.3355167786048874      14.566073683648611
   978   4      6.6692990644823738      10.319203347894183      3.6380329907289459
   979   4      36.884238641448235      29.112359759209195      13.518347367955194
   980   4      8.5135087593676726      39.291878578388108      9.3623289736104454
   981   4       45.31058223060365      3.3389803419020345      17.727520637232963
   982   4      36.881350617426733      18.954210006302748      12.147770626720673
   983   4      10.734909810999449      38.272937108393513      3.7733845563095345
   984   4      22.898281140569782       1.491330516396203       24.46458686991846
   985   4      33.001995754878457      8.7510801253002839      41.827538300394266
   986   4     0.22246535714053534      3.2269221612429098       18.86757189172193
   987   4      3.5412898388347034      34.432480652729829       2.119218702128455
   988   4      1.3040718402744698      32.474904063789346      12.865800176689586
   989   4      9.4107133189314034       18.55776987919678       3.004546632350106
   990   4      40.151449653289049      46.732797055478102     0.97904998233783647
   991   4      47.405549925165964      33.526875644795545      44.024655260932711
   992   4      40.251834928438626      17.968080951201816      32.189216959938513
   993   4      43.612626880729543      9.6480520302707902      37.482292091959614
   994   4      39.479106787437601      40.187582905352542      11.843361639136981
   995   4      22.774119914162675      34.088486134072525      26.704052835989348
   996   4      19.755267336465096      29.269277137475296      36.120125486252064
   997   4      20.845658876403743      40.096916993020969      22.907406646022235
   998   4       14.93023943856363      19.978277448404647      9.5252144724759056
   999   4      16.997551468419307      47.962281143320709      34.591982869300885
  1000   4       23.97650145968673      45.905554961369852      41.873099304849319
  1001   4      25.020777796469453      29.604834362046695      41.925207733075155
  1002   4      4.3736409083366565      28.722165980563119      23.546030860779616
  1003   4      24.310004356145427      25.574481401772665      1.9919422450364221
  1004   4      9.0644698702080593      4.3396860809308713      25.208936903013189
  1005   4      14.434363662713796       9.333261736812835      2.2478204767430472
  1006   4      39.721643745557103       1.550074087598448      2.3654982940724119
  1007   4      40.975061440987353      44.191950640199316      16.553109469144719
  1008   4      48.740522393080063      43.044148552311533      18.915758080527784
  1009   4        12.3461257160352      24.048093913495219      28.974127109243032
  1010   4      48.193803112248645      47.914224789213485      39.406067130446246
  1011   4      16.461778194497921      30.904389704270816      28.084565456360501
  1012   4      18.488180891262925      9.7618919547200367      45.139487474180974
  1013   4      21.168036152535333      20.121994583946307      22.882702282780979
  1014   4      21.561820307180511       23.97589852008014      38.908491314220832
  1015   4      29.491219890986535       26.01353194086607      33.412122142311581
  1016   4        21.9028563596728      8.7124217368043091      19.625308956279863
  1017   4      29.941664036958198      3.7337500972732127      20.305432166444181
  1018   4      9.1758497775468975      22.879463179539151      17.744659029644762
  1019   4      24.606874256319717      37.090413866714826      34.972443407780169
  1020   4      34.323130483614001      27.989245650116118      2.4582869494085733
  1021   4      39.309825166785075      27.532162756843231      47.082629512361649
  1022   4      18.125037813705344      44.906136614238804      28.231939748972035
  1023   4      32.828337985429627      17.756252251436578       5.665287041582066
  1024   4      41.643901458152996      24.857323484264374      42.277528472064539
  1025   4      11.228993638155181      5.7425244628855827      34.462415143280531
  1026   4      12.089459274422049      29.841421746318204      34.212017812875871
  1027   4      12.504781625897582       40.51129033252743      29.580715983559401
  1028   4      3.8011306218912013      42.202336526368825       38.47459002765914
  1029   4      20.493367248656526      32.533259684870245       9.463988730116327
  1030   4      37.924983721481965      21.571421817575587      37.067929741276124
  1031   4      41.688117804598939      4.8751676543283695      32.400223564622486
  1032   4      22.638297024832944      19.588881081450051      37.268922000179202
  1033   4      23.283760868325636      42.205823019097537      35.924515326844549
  1034   4      26.090584128398941      47.227824475011928      16.300838797816603
  1035   4      14.029650493774669      48.271208098006866      21.414662577973136
  1036   4     0.13803683571189343      1.7921982780399333      10.233991793611159
  1037   4      35.182510870088507      1.5109736060260097      16.067667678541991
  1038   4      4.6903332551626997      6.2003434779105149       34.76005053739604
  1039   4       31.40772539427822      43.627196210012031      35.467466767264682
  1040   4      34.924985175330058      29.323211315239078      36.365237502437978
  1041   4      2.9664971973471626      21.641441314538824      1.7928703662971845
  1042   4      21.883151679613288      18.773583734931517      6.2040784602013304
  1043   4      2.4994231473882329      33.243439695702378      16.474535235670245
  1044   4      18.192870346774249       22.74732181973247      23.220524121572062
  1045   4      34.642073794204229      39.333214805927113      16.120975087021449
  1046   4      39.970665102018174      43.562536411019707      34.796810400147109
  1047   4      12.972201560710243      37.746731288562366      42.384229084476715
  1048   4      3.8438570204221154      20.613258279335898      37.047318352552786
  1049   4      24.232809807284042     0.71357376505794556      33.760393067115089
  1050   4      26.422052808182194      18.876089016093697      0.3741175787026611
  1051   4      38.598384172455198       7.089794250437456      41.092098516230642
  1052   4      25.019901834580722      27.731876300516038      21.445555446511854
  1053   4      9.0733278047235082      4.5153126200626534     0.45731306970433894
  1054   4      34.487742132189091      6.3295208262741012       34.44460526814774
  1055   4      34.707805509149914      13.152591437913367      22.545449397553927
  1056   4     -1.6774485057605246      8.9453542147926175      32.289249295442694
  1057   4      44.701703052664513      31.426473419736855      6.9691165839878746
  1058   4      17.338812228719167      3.3567039206186742      41.758487129233181
  1059   4      20.163742320642186      13.431730554354978      39.232932670771412
  1060   4      16.229542316629715      37.110723399467318      16.177072912317552
  1061   4      25.242407143723835      46.034311852168408      48.723601732433664
  1062   4      23.992278913791903      27.444779585446092      47.631549934327921
  1063   4      28.611654671308525      18.262930327563566      13.644503333241683
  1064   4      36.550634594542096      46.717046504535432      48.408161659476363
  1065   4      27.902164726662942      44.691803138153539      35.227214323547209
  1066   4      47.198807678088194      39.363378989518992      41.652331839792794
  1067   4       43.86554373881193      21.632222535144805      8.9881201455817532
  1068   4      9.2609294052076763       17.90239342670408      22.559158932958368
  1069   4      37.369547813767824      37.272321998270826      27.377399219926179
  1070   4      39.413090740341971      16.210211055759519      11.021471882889351
  1071   4      1.2576128375506461      30.843270062643686      43.752925915431511
  1072   4      11.311504323662231      32.148336545050412      43.137094165200345
  1073   4      15.578789295838195      27.391449618367652      3.8191966891940945
  1074   4      25.771237302127119      47.066624634633769      6.7039156114596672
  1075   4      19.848399422339007      3.4610638149420772      39.096611750700923
  1076   4         28.044343563285      23.926347657799678      26.543567676868616
  1077   4      27.123031168284296      20.352863524939586      43.537841160881094
  1078   4       31.38467139915242      28.619630038199183      27.263653767470366
  1079   4      48.799720110874595      11.976111432080526       8.754127327182319
  1080   4      20.596788855796362      3.8384950849764436      17.264737445945553
  1081   4      9.8595736756094858      10.690094336963648      40.545856070288529
  1082   4      17.574083523101081      35.587931252999773      3.7173480000262145
  1083   4      22.002412787880772     0.27545569583275492      40.033613743910003
  1084   4      8.5689310066679951      35.593005802140034      39.401777896813392
  1085   4       47.88069238299834      20.743657059690236      29.041240752996906
  1086   4      26.980216619716703      39.983014180140302      30.548817317916242
  1087   4       15.44712177581391      32.574354140624365      4.2861134983083362
  1088   4      22.402408491449386      47.072421077314168      12.945203234034311
  1089   4      10.963681281600701      30.366139830396854      46.294272932276144
  1090   4      2.8685191656354143      28.963256110008334       12.54525637717922
  1091   4      34.682520705524794      6.7458954898110726       4.179280548968296
  1092   4      24.556353458238771       33.56660074096623      18.440707342522696
  1093   4      15.674312783807192       4.664681152979373      13.339689963584476
  1094   4      40.281558456540424      39.717076067722182       27.86796337628331
  1095   4       48.15946293801337      40.431377269034222      29.278155689652326
  1096   4       1.365117013044469      6.8525128689634354      44.858298778810195
  1097   4      36.024506870585846      47.922938995128455      13.275291543738575
  1098   4      18.917264777963485      22.212224313315918      15.639831453598301
  1099   4       19.51902472153132      16.035283183226881      12.264965019407013
  1100   4      5.6183860438650148      34.611380088939441       39.02522027982161
  1101   4      17.023330604276076      19.130762730279518        29.7396693086284
  1102   4       20.30079386938332      34.121061941888946      47.851920697117848
  1103   4      39.459497365815672      35.117065221707087       16.46209316593011
  1104   4      23.886258553001568      40.917417452649481      29.029874108690635
  1105   4      43.694431599964929       29.93242432325361      15.510348078589494
  1106   4      5.1677127492649033      27.375787964528783      48.674089654512883
  1107   4      5.0093064088996799      7.6264643935520304      43.782633250129685
  1108   4        27.1962735284791      9.0981561217682163      23.805614643017794
  1109   4      20.278066228693717      22.924485085191339      48.196972005192137
  1110   4      35.733964597544137      6.9691003206660094      12.099316471517579
  1111   4      10.488835954335809       2.197362083197723      10.442915897801935
  1112   4      15.280760659545628      28.448008923953182      41.319584761274321
  1113   4      4.4477899453995802      27.933412124475147      34.178521885988182
  1114   4      45.859218044588644      3.2380807953959883      5.9183211069602146
  1115   4      18.006478298509386      42.907818688179397      10.781636807312518
  1116   4      40.541984678607413      19.525404880349207      49.000936415437302
  1117   4      23.090229374413997      8.4936836446245714      16.334340183022253
  1118   4      1.7718554694934516      42.227544631124772      35.262117329254686
  1119   4      17.712217828779249      13.842548355892113      33.515918330643885
  1120   4      28.152126160850109       13.68354685791499      35.011020133450792
  1121   4      10.882817539951555      15.102698497277057      3.7171640165449129
  1122   4      31.991099439131059      35.430408685800209      6.2477732689942691
  1123   4      5.5605781494540913      36.430855481098966      45.365395994421881
  1124   4      46.332065009817171      2.0177443843418086      37.828497088176761
  1125   4     0.85544631067822996      17.253286800493843      43.044417255495077
  1126   4      36.916200436272462      19.475390739364855      20.258916726038699
  1127   4      42.720318564883677      41.952454560818481      36.535675190642245
  1128   4      37.883366491326655      34.015290885496647      9.5993153967440019
  1129   4      17.446825809174896        17.6005003501148      33.271839502562578
  1130   4      8.6171769587769802      25.324841530018979       38.65320258185406
  1131   4      18.192240165929672      33.101572245194298      2.0934259317899739
  1132   4      9.8493498047441435      9.6347693663953713      45.888742545507547
  1133   4      31.236376312343705      2.6030164365748298      38.656628872806927
  1134   4      4.8362006131217132      19.412882759012525      10.472799799804424
  1135   4       8.144635680585532      30.790106783744047      28.970793903660688
  1136   4      28.766861100711886      46.530710063206925      22.193495574530321
  1137   4      3.2533922118258674      8.0419077992145063       25.45007784439073
  1138   4      29.858618015483405      17.119535971287522      35.174656578104042
  1139   4      47.887903150367613      14.632102076882205      23.592174419017169
  1140   4      16.535359799363682      47.699012946715797      2.0817959769491829
  1141   4      22.063088913367324      1.6599246798895437      3.0778327625748072
  1142   4      48.429381570465644      6.7955169267964992      24.670655111082016
  1143   4      15.987154816538743      3.1413334155289774      29.087879413199076
  1144   4      0.3476272669360429      2.5588751563713803      40.334403938481671
  1145   3      28.876444623236289      15.487445440879885      34.883710881321448
  1146   3      46.683356906495824      33.123546481893889      45.639598176143437
  1147   3      40.410534924751403      19.457829370155828      31.198587527443259
  1148   3      22.525649142306257      42.608450951812948      34.097034019343397
  1149   3       18.75545264482103      33.986863109151244      3.7678450759548254
  1150   3        41.5873769374953      44.392593265039096      34.263518762133835
  1151   3      28.016525702489751       13.24132257331965      33.164307624493169
  1152   3      25.266935802944563      7.6827413638983497       39.55668567741364
  1153   3      29.457241708577904      38.256028105842162       9.748107965015695
  1154   3      47.127952817401557      1.5030601341358414      9.5910173644532932
  1155   3      15.201323449975032      4.1927084477730476      30.409456758463527
  1156   3      32.829966164980583      44.322734179317386      3.7314140192337453
  1157   3      41.254944960076898      48.535636049559372      28.723932057334356
  1158   3      35.378206049846888     0.45179602052240364      17.490527886285193
  1159   3      47.149153871672816      3.1468208089969414      17.986529561148124
  1160   3      10.663283995294185      1.4332033326361642      35.324221618442323
  1161   3      29.291960321341563      44.682134550189772      21.798362723345118
  1162   3      7.6058962526806893      13.310715179998015      6.7786033251798266
  1163   3      6.5584784395279225      19.829693126332337      11.404402596432625
  1164   3      25.727930483147844      41.136205156387419      29.740149742288121
  1165   3      25.494825943988985      9.5250671186281721      41.573942057070617
  1166   3      24.543928762016339       48.08233788563799      34.898935365518405
  1167   3      21.275145530576868      1.8691585426195148       23.55017440396799
  1168   3      5.7103785517157792       23.92253915058604      31.268959444486473
  1169   3      9.3651501169689677      10.310179696959592      22.243231669971276
  1170   3      45.314129865708125      36.875662406234547      47.797756021567231
  1171   3       25.86960734579127       45.41224705359182      27.071880640230507
  1172   3      44.790321659654587      37.326626425509957      14.795700923388797
  1173   3      2.0033392119495561      44.725649006854496      26.950809444692215
  1174   3      46.523824721693344      39.690770326323197      9.7249450392507093
  1175   3      46.142039054503073      24.334146093632278      30.903389082518224
  1176   3      24.406673740623333      27.408321248423899      23.310860636538145
  1177   3      8.2422192461284283      4.3359562438136647      26.963894895094558
  1178   3      14.862675499275804      48.507736913928362      1.6850161127181962
  1179   3      43.917939293219206      33.844597789540899      34.620024168877194
  1180   3      38.241767909398639      14.888182015759492       10.56937781390633
  1181   3      42.261854804910705      20.454352136173451      48.699508228493883
  1182   3      7.2824538760829149      41.364257737247826      47.443750715076867
  1183   3      30.017258056934295      27.803013179247593      28.112660562672325
  1184   3       31.27826663368192      45.201202519731559      36.606811703177321
  1185   3      33.772013233733979       12.26959283133364      38.995679883209668
  1186   3      23.617785880253741      47.308370505294285        40.4924707710164
  1187   3      6.9628711912142238      20.109520639125911      6.7976148574124755
  1188   3      29.601865007797631      25.961307029929451      8.7988997598694247
  1189   3      15.296272326809614      9.6338383229583222       37.54736986778569
  1190   3      35.429026529540479      8.5362310041352067      26.097494767950018
  1191   3      15.822732834328813      12.020094050344923      28.440976063371114
  1192   3      22.778649341688247      48.871529884876423       13.60131236716277
  1193   3      20.582624413724325      15.305635339409216      38.785815124145614
  1194   3      34.982696177089025      36.049164636295153      3.1947395626273241
  1195   3       28.10350893464522      43.770149876067009      19.583266558613705
  1196   3      24.843282493816567      47.162984651063368       1.240609105464509
  1197   3      27.220240036663789      46.287354732946888      21.119339713286497
  1198   3      30.828384303775415      31.333850058330263      18.231775665134005
  1199   3      45.755015776123365       46.49210364164739      24.891544497230552
  1200   3      26.979823362122659        46.2782945843324      17.718218118094246
  1201   3      13.333730674892328      30.021268557454761      32.809529848681635
  1202   3      26.611371185939369      21.410870152653562      42.191146458618292
  1203   3      31.607540000174058       2.344799043114568      46.769900033432656
  1204   3      36.142668030155399      44.829971110092927      48.192389528044743
  1205   3      43.046205862702109      1.5944271844419375       24.78038588592651
  1206   3      29.506728317986973      43.569319130501576      35.114874382904262
  1207   3      20.979140905895942      1.7532156837716257      39.649167508249903
  1208   3      17.764192168479735      27.571333934788687      44.537755053369473
  1209   3      27.930258260531208      46.458456294559724       23.83928636258895
  1210   3      37.547863557645741      19.982091238836368      37.704477273426804
  1211   3      23.246739524462278      27.946614077899238      20.895798827814797
  1212   3      3.1227176359838711      41.657607663957002      34.231937364925834
  1213   3      31.033567292629581      12.398876010896366      38.601304728381137
  1214   3      44.616469019294222      32.658312241632871      26.073783270226937
  1215   3      25.580826567949323       41.91026866305058      42.043051583223402
  1216   3     0.64612330179110689      41.648431315692378      30.008423121489695
  1217   3      5.1805622722940745      42.149885137653371      40.036839146040982
  1218   3      4.7647852960177772      21.035600176465589       9.395542962844603
  1219   3      33.210471716738191      25.084097969195977      48.282315496588915
  1220   3      24.704998668588281      44.473127152935476      42.866232670848831
  1221   3      10.693506506864804      11.358454578215671      42.256540259491146
  1222   3      30.446649190426523      40.743727504315281      9.3457504294316021
  1223   3      39.278475260037467      31.340255545158719      22.613133155450594
  1224   3      1.8940209020732408      2.5820457907321677      10.735240412662687
  1225   3      10.259907688686033      35.240595317366136      40.185070200477064
  1226   3      1.7228718613081129      32.692800748182712        14.7118034889586
  1227   3      46.464362476168326      37.166766787890971      17.300061802594232
  1228   3      35.519976010774954      6.6729601541963497    -0.40448367370091737
  1229   3      11.408697678927423      4.1093190854059367      35.391670600646876
  1230   3        38.0274052402237      12.026182473391854      2.2003672084335366
  1231   3      2.8291924577846035      33.331331897733861      12.014611374245957
  1232   3      11.005812257710039      17.724288433383311      23.498935778690754
  1233   3      15.807610500148002      13.603842408025431      33.632606781002202
  1234   3      44.097667782063652      24.075899647779419      11.575806151533724
  1235   3      21.901185904905908       17.83492053161822      38.032926229370354
  1236   3      36.582415416825732      37.502864196380159      29.086316337882582
  1237   3      35.034703394251565      33.364654345072729      37.147985905643822
  1238   3      13.120901432904247      2.0370531490863808      47.697007914527667
  1239   3      20.272404713145139       37.73384456631932       33.78485008427706
  1240   3       16.86778017834342      24.074313153788033      43.901159400481916
  1241   3      4.1332924330566181      8.2247409560163902      41.956039390721045
  1242   3      19.403624038641656       28.62444403999849      21.345797431836889
  1243   3      22.884484226985148      7.4235282147830777      2.9849254899080417
  1244   3      6.6332552039798651      35.894255517099147      38.141485340163506
  1245   3      41.227664837239629      15.200280727963978      10.638702076123119
  1246   3      43.095792613516657      40.454053789206824      35.346788258334243
  1247   3      46.479744571559024      47.777314132050805      12.374697271850145
  1248   3      21.066423686802828      48.140218603907627      41.420999124286674
  1249   3      24.530486634673675      46.231850131630871      16.401916865443855
  1250   3      19.989147788583711      1.8812165225615687      3.3710391477063371
  1251   3        48.8601485041318      41.754099893445549      20.616914576124937
  1252   3       29.40245773812898      22.274496765679789      6.3638089728402729
  1253   3      15.354122817595323     0.28496746321293098      47.742785756314284
  1254   3      34.990161185241526      48.819083276520885      14.730577874452498
  1255   3      12.686145110814664      24.374024568027878      20.079853143705435
  1256   3      2.5837272011572896      42.251214361897361      36.960690817725947
  1257   3       7.165438803681675      34.573454673539885      40.251993632578994
  1258   3      15.758179633745385      10.503654711702822      41.004238314486152
  1259   3       20.67087950479447      23.143692113434287      15.909085434029333
  1260   3       39.17155597001026      8.4573249658977421      42.178060638949475
  1261   3       17.61686532895002      2.9409438152106975      2.0326513200549918
  1262   3      7.2820805647211833    0.052958714624169054      28.259630199945764
  1263   3      24.404146093552388      46.309363862559778      5.8338009401136111
  1264   3       45.67238911701417      1.8791124944484494      7.1228773754539816
  1265   3      31.040562744704477      16.384831695662054      36.245282488896024
  1266   3      39.815812345660753      44.359619246271059      36.639288190035444
  1267   3      15.109661945628462      44.436831942753209      44.092658780341225
  1268   3      1.7839245608563923      34.359773250083322      1.7345962452182271
  1269   3      4.6615529702055252      1.8826080402795307       19.54488860272016
  1270   3       2.403260706075844      12.171703385264545      22.765786061965166
  1271   3      11.238178324358859      9.4011959706085264      40.330431125135803
  1272   3      4.8707392678589647       29.12519014524721     0.20392980676700001
  1273   3      13.285495026333022      47.850493197980263       16.53417661219952
  1274   3      39.778306239235604      1.2421486835391253      15.372747013026483
  1275   3      1.7722186018640653       12.58001196269325      38.955779294503252
  1276   3      2.4999141825508793      6.9425301390522689      14.276720963191218
  1277   3       13.61125498571325      12.005989379292496      42.269121890686975
  1278   3       15.43767621316309      11.077168770329854      35.254035136644134
  1279   3      29.354722702081773      26.755337311151585      6.0385272606144209
  1280   3      47.587879347012922      10.206120497316892      3.6750880469305183
  1281   3      11.113060713321788      10.632126376222271      44.857175754084828
  1282   3      39.291464037374709      26.826675493233939      8.8394610076999651
  1283   3      16.868589077428254      46.831833826959695      46.672223159521494
  1284   3      44.979013250420131      6.3615534842631112      47.148833652807291
  1285   3      12.101456806965862      9.3101437719380051      7.4685153786624268
  1286   3      41.094652473940364      42.174507145767329      35.564745928810432
  1287   3      5.9959987189828539      6.9233565603359715      45.269976758896583
  1288   3      17.106050727361609      34.675304036222201      2.0172194744422836
  1289   3      48.085982623125062      22.280972763127519      30.266578916115186
  1290   3      16.449209106722353      7.9102616424495267      39.744357129680068
  1291   3      23.490460634764329       7.338810283201604      25.466242722017675
  1292   3      19.147642310883249       25.13034052440052      45.105013975514645
  1293   3      12.567936714619577      36.104732712769405      41.625989814008314
  1294   3        22.2719542559703      26.864404612378191      48.109188982991036
  1295   3      18.919920180419588      21.286341335134018      17.137023419179851
  1296   3      45.063181593795356      2.0807690058163035      39.023055142122743
  1297   3      28.211253287190765      8.2119611123697354      24.992334721841676
  1298   3      2.6652604951459633      4.2603579644087413      7.2584405250212631
  1299   3      48.143096420420484      10.403819270447686     0.84311007324485954
  1300   3      38.006279296310865       23.83042700998287      29.859441968310893
  1301   3      42.053496216908833      26.735177433203905      37.172282954827324
  1302   3      13.578336932180354      25.657674636321897      17.623314529679835
  1303   3       2.990861940498136      43.488619816962256      29.511882637857735
  1304   3      21.556104266568067      7.0489337347459733      20.188822200692112
  1305   3      16.173619225181152      29.226574190267076      27.509719454427565
  1306   3      24.957247769453293      41.379442467328964      35.557180376880368
  1307   3      42.956604570293962      1.7260052895570146        27.8180823067567
  1308   3      31.745732394425936      8.7047862854902593      2.1525171605542721
  1309   3      38.061433537682717      17.586920411993873      11.409152151692915
  1310   3      44.026078062193697      24.124606639218829      32.568348148389347
  1311   3      33.207386134381721      42.230759435914834      1.7526553556316014
  1312   3      22.849956515180605      45.072516650927518      18.343385547290065
  1313   3      6.0707362797419062       13.88136375498288      32.553084113522829
  1314   3      23.435579130812794     0.28919733130227043      38.569261151295258
  1315   3      26.815844524220704      31.713199651733014      35.758770433923729
  1316   3      44.672682931511062      18.199906161034178      17.286713237336532
  1317   3       21.28185418499557      23.792424131094414      30.944413475854006
  1318   3      17.102175195608144     0.48641413472234529      45.470398380499347
  1319   3      44.943515388391042      24.443077721999504      22.893426408980265
  1320   3       25.23860717366022      38.740916211657698      34.285346977914031
  1321   3      12.761213114726349      30.912155074957401      45.974152233472502
  1322   3      16.416924948206667      17.707459612539463      28.955104156649814
  1323   3      46.918242528322502      35.490536092146932     0.64051958690985256
  1324   3      27.934395026514146      14.311226000343732      44.512456686868049
  1325   3      22.461579356509642      46.431478984490283      42.843685214576361
  1326   3      17.636401159258664      15.726460734678566      33.299369720226494
  1327   3      25.717924911518622      7.4485491786226179      43.475379410033241
  1328   3      15.924844458644754       34.31510621579573      4.6378473542278682
  1329   3       47.66910820407201      3.6998245200924345      6.2566115941057561
  1330   3      46.513750282799279      35.120784841739741      43.323754551224326
  1331   3      48.595469950296433      41.576879420337832      23.669893206292002
  1332   3       34.37326521155407      8.7755244961525332      42.896144888266683
  1333   3      46.316119162159843      37.810967159682193      42.500555202670462
  1334   3      13.435833720348656      11.046643561432589       27.46974880619485
  1335   3      37.481511117555371      24.152448025573683      26.903949642352426
  1336   3      16.487410761413841      29.081823856879012      20.568994305652467
  1337   3      21.566188502126565      40.012381656953139      33.009820274214349
  1338   3      18.760405126692394      23.011184001625953      47.183328765681019
  1339   3       13.91354170169507      29.135484884525539      15.906088462275628
  1340   3      2.1093291778803964       30.70046696237025      12.596944859441047
  1341   3      17.901492927377443      13.918885478192546      35.445468534812555
  1342   3      40.365769446491143      24.489135259513986      27.196039437720938
  1343   3      23.262974184974507      10.433635542353791      16.526547603009409
  1344   3      2.9850725904267459      36.628008782594016      26.551729334226419
  1345   3      24.410296329028817       13.94874066997401      17.989094065237911
  1346   3      18.375701709698884      3.6184699777780036      4.8346459160776449
  1347   3      21.030342278801619      39.984513976942061       4.145892354522946
  1348   3      7.4655339146854844      27.959648358004372      7.1231258735895384
  1349   3      23.473882797198073      28.180910848204661      45.829053752860091
  1350   3      9.8686158303614704      3.6517819251951997      2.1152779746343198
  1351   3      6.7761320121313879      14.218982528070995      9.2805813372528245
  1352   3       36.96097788744914       46.71352216461019      46.345280073442659
  1353   3      4.0015741443800188      34.488310729382654       37.81705045198035
  1354   3      3.5426906146857213      34.034733217163328      7.1165609978919528
  1355   3      39.833132271023842      48.460748506244769      1.7828508381587063
  1356   3      18.278622968129682      13.712102816269757      39.316020574046924
  1357   3      13.142506699862652      31.628678529163658      43.544846346926434
  1358   3      30.914785711587346      18.195021409272055      30.639991241056265
  1359   3      13.944944663108464      39.769296948737185      28.652164111056717
  1360   3      30.435171726321364      41.390986838108773      41.966754201623708
  1361   3      37.703549114164325      48.105460099052685      14.364049770646485
  1362   3      19.564359348758821      13.246164415650183      37.403770832788325
  1363   3      46.571026265388923      22.537713727432561      12.456651148344523
  1364   3      45.510362266208929       45.65157530430038      10.612075472975533
  1365   3      45.448168244252663      44.085897678082709      24.090464763718906
  1366   3      40.706158413270401      46.156691224564568      38.639219196907661
  1367   3      10.633749256825419      3.6554979853861576      48.434136652612175
  1368   3      20.543262517942363      25.034347547001545      39.965284389040001
  1369   3      5.7558817979005088       18.38920733562723      8.8267580733017663
  1370   3       4.775488596145034      22.515678710543817      13.713607902473052
  1371   3      35.832201577636674      36.034570871670965      26.818723221184143
  1372   3      16.151609654107133      46.109717572078381      34.483350209341786
  1373   3      33.392433621963576      43.463244027297776      35.769985251588842
  1374   3      22.430939601861045      46.401172421930795      14.726333651926122
  1375   3      5.2878146031196911      41.570196196316004      37.229197877061928
  1376   3       4.454269289766752      1.7179989312600568      11.006416437489692
  1377   3      5.6803498001847759      5.8410721849454941      47.887298355770085
  1378   3      14.012228818646571      33.694032696572293      11.400401301236847
  1379   3      6.9597260861658494     0.70253416043565053       18.73813443909615
  1380   3      30.193113813661256      6.8348320706525785      17.096908313554948
  1381   3      31.469273479682361      42.127759366417031       27.98830440561855
  1382   3      2.0544428353757285      6.8181113790720413      40.684282407814763
  1383   3      3.4832168990032484      32.151909268014649      36.067079572862404
  1384   3         3.6141072032135      32.892771561391648      9.5435783170978148
  1385   3      19.034329995358085      5.1449852617516605       38.75821268170602
  1386   3      41.733413891721824       38.75101264994742      3.8642958569180572
  1387   3      12.943916454853422      15.374402582378261      45.881814195486584
  1388   3      48.251576379129816       40.93465863794075      27.437773882775836
  1389   3      22.560512344958838    0.047675037601547364      3.4470181513643974
  1390   3      8.4592214361289155      20.010399435578073      44.191295287557701
  1391   3      33.964533444090854      39.798190064989832      14.418115426094701
  1392   3      15.535487932610412      25.325159847038119       19.65021965670563
  1393   3      21.237163372357418      21.837418344392276      46.672291091584938
  1394   3      36.196910450624891      6.0527233267432257      33.792715976400238
  1395   3     0.89149647160768331      6.0050160897726226      43.177953114758267
  1396   3       21.95088966581601      47.957602417731579      11.037511280742365
  1397   3      25.866160232759302      8.0430206859133602     0.70809965351087911
  1398   3      8.6589076066707058      22.281648957106555      26.839007916252275
  1399   3      22.780434120899383      37.921890572834855      34.770225189974042
  1400   3      36.539607766492217      44.027121476639927      45.634672644794115
  1401   3      28.471944097449882      19.425364613191373      12.247422517033998
  1402   3      19.812791665598869      16.285832458271294      22.477255608667196
  1403   3      23.166453850470617      41.560367038679125      30.674745348757209
  1404   3      34.582366316068445      29.644245834696822      19.468039470373192
  1405   3      17.627783444157476      13.624075061138621      31.616639416692596
  1406   3       17.35811969614975     0.35762961529764753      2.9611891907408441
  1407   3      28.941645874443392      47.659914375309015      38.306352018030523
  1408   3      32.890405582654886      7.0454183013374969      3.9216261375202288
  1409   3      43.513780904132012      43.210142143079366      35.399136723061346
  1410   3      45.305402319280198      22.192234955436263      10.001259070537227
  1411   3      21.780566532441998      43.898278096344555      20.621015741078178
  1412   3      1.0126721566114412      35.204206001570533      20.655663468263032
  1413   3      44.606575702519642      21.974358328331558      7.2740108921554034
  1414   3      43.164298874676717      45.060888273793232      32.211253212585817
  1415   3      15.651873830137053      11.897607801247178      31.301054891300623
  1416   3      28.726735706142239      46.311554375242828      26.827874125270743
  1417   3      4.2082917379047329       32.76458597072353      16.534271145256284
  1418   3       1.800713915902965      31.801892887046435      7.6340099707660647
  1419   3      48.770782459695226      49.226411928526225      11.500879142550327
  1420   3       3.324951317285417      22.761345737183873      10.993234176005034
  1421   3      48.076623991178806      11.168637536985536      7.2129133778658279
  1422   3      2.2444054531405593       34.24695404797226      18.126123139271449
  1423   3      11.630133883872741      46.329183123880213      24.536742123726775
  1424   3    -0.43652666050532235      24.144942299166761      18.630920008731906
  1425   3      49.170860569729882      3.0824341300281515      8.5927791212969229
  1426   3      7.2390066781192983        11.0724099129446      5.2238290747268232
  1427   3      30.266661665240441      34.943566090840228      5.4619343780093068
  1428   3      28.624115956271297      40.722098016750742      30.326037220648065
  1429   3      6.9003080599494115      45.674248302564429      32.430058650011823
  1430   3      24.188782080230659      46.525437836412891      37.238415926916346
  1431   3      6.2900064935965334      47.959524179610085      9.5339525764936841
  1432   3      42.862975865941841      41.343571647013611     0.50887990215929735
  1433   3      42.085333028171419      43.417329309058282      37.893833106960315
  1434   3      43.548405499441841      24.601203600930809      29.610130561994271
  1435   3      40.038243590033929      22.086621356915735      30.902375116462608
  1436   3      42.504202240915696      10.185763644597101       36.06123923730177
  1437   3       10.11011293482345      32.214261056195383      36.933465248577491
  1438   3      12.100241483386215      12.945094152493308      44.229893694333541
  1439   3      3.2552753858994388      34.387945860261809       28.39147373644073
  1440   3       10.23205083343638      23.141267349708787      19.461263791456663
  1441   3      42.519360648960564       4.454473942324392      27.600551576171167
  1442   3      34.049271002620216      8.7044939055270465     0.54541377143317471
  1443   3      8.7972276247770278       9.788742405444518      25.000895503155025
  1444   3      7.9063977027490449      22.651694573743519       16.27664765017942
  1445   3      9.5024415859686204      47.178450941728912      32.882280782326916
  1446   3      4.6319949135891019       29.53924482237813      12.663570404330066
  1447   3      20.587035313348991      27.711869159495635      45.291401694759159
  1448   3      4.5930880301422992      6.2682198910586404      39.637589608672954
  1449   3      22.116503189729201      33.450325598321179      9.5316952210113524
  1450   3     0.84973721083580966      29.606900936550481      38.177612290377084
  1451   3      20.138748698383139      18.893605974192521      21.863645039449743
  1452   3      18.175638177784084      29.438745936509374      17.842570137122753
  1453   3     0.64444543995103565      8.5555313277432727      44.328292006215847
  1454   3      42.797584506887588       26.22377616116928      31.855069040295728
  1455   3      25.189497721656561      16.014913898903998      14.443222185308572
  1456   3      39.438901999030172      26.255175218650017      5.8764289265964367
  1457   3      24.405603358925749      40.945486459260067      32.798278127962533
  1458   3      47.639012462029861      40.274639285077605      43.076374169858383
  1459   3       38.84629370979129       38.44105341631041      27.944408775991437
  1460   3      8.7606350914952476      34.230247611387256      38.058804068586269
  1461   3      35.499261900604317      13.130140565309608      3.4857623710761629
  1462   3      48.292891604262664      45.482900255552259      24.576805329038685
  1463   3      16.377101985791203      43.588660490065536      10.404241436894354
  1464   3      19.196955103317226      44.001879645127374       9.822210458435622
  1465   3      35.699918564111066      20.579299291502945      12.443458674294391
  1466   3      23.093924085341904      45.568421877079636      28.759492969485265
  1467   3      47.791387515874597      2.8137812438533216      39.113109070863395
  1468   3      4.3356827100510582   -0.077380810017152676      21.680132203486394
  1469   3      47.286970732120935      16.374193422758903      22.882757090496337
  1470   3      13.538138844073735      45.311770439952561      15.171986945904084
  1471   3      32.493113282506222      1.2340235356643634      38.897494524808856
  1472   3      4.9842372445499503      29.326322913107067      8.2151185623566167
  1473   3      29.187974027872226      7.8981102962678573       2.733921642437823
  1474   3      8.0991600066359624      47.577329994220008      30.610712123807328
  1475   3      47.411084414903179      42.995609591147421      25.727730372509757
  1476   3      43.237854855644166      47.235678709054703       30.06549052640943
  1477   3       21.66290663239365      44.590630735261009      8.5502354800549103
  1478   3     0.38001544206655624      4.4878549744150824      40.673096231123836
  1479   3      26.872979359545766      18.377771145854958      14.409068223569857
  1480   3      16.809719073741316      32.062353356530281      3.1589485866069542
  1481   3      29.029634988396062      2.5615526538916304      45.641343502049843
  1482   3      15.154732551079672      44.094133298266065      13.063162901948456
  1483   3      9.0954685981236381      8.7203067289975831      44.408938905224559
  1484   3       25.46092261571583      44.702386778177214      19.338187630393808
  1485   3      2.6283509075527851      44.009170076130147      32.224065210096299
  1486   3      30.036535671381916      30.044619084406833      26.611267828036862
  1487   3      15.167604553318879       27.89869295165683      18.474139501194387
  1488   3      22.529884154355525      25.759114766327272      1.6083472385634179
  1489   3      36.761421119276761      49.608448352159826      12.660571102368731
  1490   3      49.143403730162525     0.49969636549133395      40.276068539995627
  1491   3      32.572098090606907      41.458062734479533      11.125856491142882
  1492   3      16.391853379618567      12.305697317610008      37.569850464777879
  1493   3      38.228341864979548      46.573266062306985     0.27257755239579545
  1494   3      29.639904007050799      4.4686151705123747      18.630053898613074
  1495   3      34.141704366237263      19.125678740896078       5.294738519802765
  1496   3      19.367445347396391      2.5609102622836675      17.353458355388781
  1497   3      47.038341255148673      36.061421547889218      20.157084978881191
  1498   3      48.770250879809716      8.1821529246554974      41.743615630959169
  1499   3      48.297710223697031      46.545828976871235       14.31453148727196
  1500   3      26.119015699166393      45.828735865408724      35.159524469765749
  1501   3       25.71064146830399      7.3255346703124475      46.736934037589712
  1502   3       12.23354221737049       39.00909564083026      41.375577608715652
  1503   3      15.052417062183897      26.907429756421109      15.618106555822722
  1504   3      27.527588799856893      22.243340400444723      27.217784779437238
  1505   3      19.161031801697373      22.479830520197069      44.599643310448798
  1506   3      34.871012319272431      26.749634436804271     0.99659695421571959
  1507   3      42.349266418763406     0.38148798928406791       15.58801629833831
  1508   3      18.733932844111504      36.935931588433817      3.3360954996663339
  1509   3      24.801143304970815      26.637213022024476     0.46790067593742313
  1510   3      2.1065999220401985      44.144079611484699      34.975192224568389
  1511   3      45.519970476909215      45.820045597067626      3.1378091695508332
  1512   3       4.196131434706345      4.0674316771127748      9.5950928988215693
  1513   3      36.361344902430076      45.275608081162964      22.876493415991629
  1514   3      17.797739584997906      36.410037695249287      33.430313285821931
  1515   3      10.771433965069694      1.4222637496369432       38.24757337848223
  1516   3      15.844575591085453      26.319730273272057      42.167486720908826
  1517   3      5.2543722696162369      32.244816048959258      11.821634207782386
  1518   3      4.5934751228564634      28.493203963609954      21.588325664620466
  1519   3      3.2063085909185536      7.0181925952276787      44.470327604198005
  1520   3      26.751301829195398      27.337946083059041      4.7911404347304023
  1521   3      6.7057295130488912      7.8739934690075399      42.858055961524528
  1522   3      28.234533419234236      21.796388938403975      9.0011173617865428
  1523   3      40.509295278269875      34.596355475274436      1.7230416497585046
  1524   3      10.779319131245812      26.027632347766428      49.839881145436934
  1525   3      21.391890959604879      14.980969089485887      24.632426057176943
  1526   3      47.636715398392731      33.768416564136878      19.138334514110639
  1527   3      43.589703975156915      47.679450012261618      23.245575985062096
  1528   3      17.558281723872923      1.7281177530381788      48.090512622063649
  1529   3      6.4310094438890841      33.078869728901033      38.175954464987626
  1530   3     0.18838607530175974      36.097661971553499      18.233056291562196
  1531   3        11.2123599444535      10.906025710403602      25.600692850705219
  1532   3      15.174805270073373      2.4963555197708702     0.54408617223276157
  1533   3      12.848785436682158      16.490966693509325       16.53357785028895
  1534   3      3.2823761529749773      34.412835281370732       3.981821140868012
  1535   3      5.4663384670079251      40.328191746414987       34.22581709881046
  1536   3      19.718787621632217      26.388011009780364       47.66589921899628
  1537   3      12.631798075427689      9.3543711518502519       42.59817110290966
  1538   3        37.1948922147212      2.5588301058021186       9.814476329623627
  1539   3      25.426002997423282      48.594502875861302      14.922361089829661
  1540   3      21.588465503421613      24.251270408227107      47.900783454278617
  1541   3      19.718122514273752      24.220217206673571     0.79920032210410408
  1542   3      8.0568476979848196      23.060765703891725      29.553588298732247
  1543   3      20.397881540120437       3.513245746698173      21.534887087114171
  1544   3      18.789791144210128      48.018895809169209      43.333630633106097
  1545   3      35.256539744202236      5.5662384108793077      26.305714742977806
  1546   3      13.720969450776726      47.414052730110569      23.093984536272643
  1547   3      17.718580124085943      27.163371956924362      19.512325778868266
  1548   3      45.067183129640519      36.957433673128136      44.845816065646645
  1549   3      12.033195670468487      33.455092790053385      38.756239908972802
  1550   3      10.923605365770579       36.50510383442947      47.083787419396337
  1551   3      40.796107606282568      12.291023629126048      2.0936662128270975
  1552   3      14.182079668809681      36.548530586627983      10.822384109941282
  1553   3      37.456972015060209      17.311159981122614      40.675414063509002
  1554   3       40.67882287085741      24.599859790361148      29.892561668009034
  1555   3       35.85274039998864      12.294947887862133     0.65302812923416775
  1556   3      33.811738378183975           16.4184230551       4.900353688369588
  1557   3      34.264785025255215      43.766916330263989      25.820991963149922
  1558   3      21.805881807446216      27.968961734704983      23.235406055793138
  1559   3       29.81915788466716      27.990296696302888      16.330494781285694
  1560   3      43.269651087145576      37.404780304401456      34.878004880294561
  1561   3      45.199174112645828      36.107468330199573      40.921490668746877
  1562   3      10.348459410637444      29.973623306760864      19.024497576241508
  1563   3      14.907184524482945      27.272968617085795      24.301487909263457
  1564   3      26.239152563850006      27.972702648944168      42.125511904371557
  1565   3      35.365549487261354      7.2465814269096045      2.3915984366918099
  1566   3      18.680154657860808       2.937618667022865      40.433944089706713
  1567   3      10.583861124364473      7.5143570255843679      42.376088224885564
  1568   3       1.527140846815747      7.2266612532941732      25.270473701102365
  1569   3       48.45808487647637      6.1296206622561229      45.591074553754453
  1570   3      35.977845653739443        28.3561028426242      3.0854865047644653
  1571   3      33.091187381337434    -0.24720178194153508      19.483965776403263
  1572   3      24.122174603506927      42.662613434217981      28.267605446550327
  1573   3      20.490589989679123      47.002505336929829      12.859655705213076
  1574   3      10.833157704747434      42.901382782553448      35.340659351507369
  1575   3      26.964616079770842      40.226786937425167      32.376426052326721
  1576   3      17.829341481402217      11.362812030354428      44.698408268778465
  1577   3      12.001240389531748      33.263393519525096      41.589395400420379
  1578   3      32.831016680484929       35.09416543522363      4.5430312499640042
  1579   3      4.4148993329448407      28.606142686118048      35.819237715766526
  1580   3      28.766745989617913      45.948436525407132      36.267819881504678
  1581   3      28.399848739286789      19.090743257528246      42.545430059456514
  1582   3      16.356202227567611        25.8714149004341      3.3299968894100607
  1583   3      16.192096898551391      18.621008204771975        16.2499246066151
  1584   3      44.468796915586935      31.261499375215209      8.9208984628960675
  1585   3      22.266994720723844      40.519308277744223      35.528591548604915
  1586   3      39.984666056851765      5.5241274043569346      32.417432257257772
  1587   3      17.334501814395956      18.366441916982321      31.593060043802499
  1588   3      41.896769166456764      46.550169262771831      1.7110811329593607
  1589   3      4.2102483186465509      32.795273343344441      1.3924670745455323
  1590   3      29.639116243566349      1.5869145856608036      38.675938722795365
  1591   3      16.531754124766785      26.733133324734982       22.05357352335572
  1592   3      41.908765945064332      22.375889264589443       29.17805606334025
  1593   3      20.694118398580223      4.6322349866257859      19.039646442050916
  1594   3      32.632188602072276      27.268234102976795      27.756144575851987
  1595   3      23.955429745387772      44.147120421048811      35.730328223113297
  1596   3      18.545581861335673      2.7380225197794541      23.918259012812655
  1597   3      47.217832757439531      21.772305781524409      5.8778189858711123
  1598   3      45.082134028879189      48.450600247195979       10.25259320385091
  1599   3      26.488286768284077      47.755604540808157      25.870611103320382
  1600   3      12.667517217706495      5.3682485163804863      33.251189610481916
  1601   3      43.447359481401826      4.9317341387228018      39.814028552362693
  1602   3       47.14659310909056      49.072242619168243       38.30733009925288
  1603   3      16.264210244572894      46.984311933861257      44.135111367074856
  1604   3      35.838977526970041      25.516314962845925      29.265261079716964
  1605   3      35.226288168613678      47.046086929478058       20.81877961869116
  1606   3      29.460728416316272      40.345408724090163      15.423414608971925
  1607   3      10.623538090530122      23.692958334813859      28.551347668164063
  1608   3      29.750623182454554      2.7012047703309912       0.601410677315941
  1609   3      17.443651051950845      5.2706345198230711      40.889330971888924
  1610   3      15.800534921688442      30.863054158747371      29.862489366147631
  1611   3      36.271806127695911      9.7951481864523444      1.7724929747119325
  1612   3      22.354571589387085      8.5037360350832127      14.729669091164075
  1613   3      38.351942114620961      23.175610984975865       32.67797215953901
  1614   3      47.757366728558964      2.1431608337671753      36.143906810284932
  1615   3      24.358798711663535      47.304958112998357      12.440930390579021
  1616   3      19.823473936975205      46.599787167499443      9.9093235350204818
  1617   3      4.0461225536109113      20.380062852606581      11.938541325175544
  1618   3      8.4158945742184912      16.448880739627576      22.978501300747453
  1619   3      40.020290654900855      20.304145428092422      28.536187316238532
  1620   3      35.924632273945079       15.59513935931567      39.072067708013115
  1621   3      44.031814644693867      39.420537017915805      47.703772578229447
  1622   3      37.968267077642217      21.344222107294918      35.092038408672117
  1623   3      24.508543292176299      1.0419350586893457      25.529816603761539
  1624   3      40.805031363729803      3.6709172534384105      40.297287387787307
  1625   3      10.022768536402339       16.85037204569467      3.0980833355203568
  1626   3      8.6877878730469309      9.4875796850910117      41.594453054442077
  1627   3      45.118380904942001      5.1494369291323387      16.985611892799568
  1628   3       30.81088637660071      17.043223161918345      33.487170165542722
  1629   3      8.1928672776501568      12.423574074158287      20.581948979740581
  1630   3      47.360215112717114       5.559638379424114      48.372883686412443
  1631   3       25.23770045409346      11.628153470839381      18.253525007992032
  1632   3      8.3074985988363412      40.931738190282225      36.061816504327261
  1633   3      27.691528405370935      5.2696381712196878      45.420222493869275
  1634   3      9.5822306920015663        21.2586120230437      6.3014540420608425
  1635   3      2.0926531759948426      3.3238203149680521      19.118666862022856
  1636   3      46.636579831024967      8.5712008491361331      6.1819617822538531
  1637   3      20.795517957777637      41.798441802997765      22.053351372301861
  1638   3      30.081222431041233      42.837410638225698      10.767877052475329
  1639   3      16.506539266774826      29.542971198516653      15.474888044467908
  1640   3      6.3420420708506615      29.935314766456674      10.580712579500947
  1641   3      7.1136951271440152      35.420609778102836      32.120260588986071
  1642   3      8.5968219998843622      18.967016371175053      4.6660946152734155
  1643   3       40.21750449636594       46.80658132907665       30.47953859860873
  1644   3       41.37299408397574       26.32479697057202      34.321323785592135
  1645   3      15.413029551206511      30.745669243038105      45.255549355093358
  1646   3      19.604072856147656      21.615343673474676      22.916907880875765
  1647   3      42.123807928797277      4.2349565752108962      30.709112570618526
  1648   3      42.711121266416299      21.765580063541893       10.58895228626892
  1649   3      10.521220270131829      31.281871433701358      44.612936658669604
  1650   3     -2.4123585333463815      7.6303069023494183      33.073413157091252
  1651   3      4.6894097401048134      45.029133143751217      34.034089738595462
  1652   3      15.657043163179258      9.4518560217714143      26.653540946467498
  1653   3      33.757537204502007      11.047250641877802      48.305283969461414
  1654   3      22.143478813745997      32.653300858005416      27.547891519952959
  1655   3      2.8887141160487242      41.341500146884371      31.531441170359642
  1656   3      17.231210964108204      47.871999498337715     0.40683688908344573
  1657   3      8.1243479951305222      11.885436471622933        8.99635548956274
  1658   3      10.563774515902207      37.962719120854729      2.0247195526494473
  1659   3      15.539279344673412       44.28990202468939      46.940915323996457
  1660   3      10.380960818660741      47.320665193887947       35.65617246320803
  1661   3     0.95184409169244666      14.519631705045002      23.361325207245883
  1662   3      30.404161198423481      38.291966684828445       43.55470842454649
  1663   3      3.0428714131220387      18.947592595593189      9.6608592584216613
  1664   3      7.2637608027163907      21.604231590642748      13.686940113470412
  1665   3      19.399504501135809      33.805984956423345     0.69499920743887533
  1666   3      22.860849789984147        8.57883089657585     0.34511372932351636
  1667   3      8.4278062144771315      5.2589953929536781      47.706955090041141
  1668   3       23.79433935121407      28.931489109718363      43.120457261616181
  1669   3      13.671796437724238      27.665411487400313      13.211076052350029
  1670   3      21.742688528034911      20.504535949971729      7.2822473281657576
  1671   3      34.683978498467603      11.655234138162804      23.716427226968687
  1672   3      21.724112018414658      8.5973091519602161      17.784646060456275
  1673   3       32.97519408916753      31.913467160163556      20.141397432392047
  1674   3      12.205368054957198      28.193901285359996      17.544771631265139
  1675   3      35.037752789056981      38.676770405802102      18.094958231142016
  1676   3      24.431129211794541      26.848619776622098      3.3492897911133661
  1677   3      15.150307124342593      30.060776765047827      40.543350358079834
  1678   3      28.222397720577167      40.777866795370201      10.963598874196766
  1679   3      31.969482200686148      47.199868819462992      38.334996829755987
  1680   3      28.565516123211683      42.432034668387757      13.359032679884869
  1681   3      9.4478916672735878      10.474142443254546      27.562072225829237
  1682   3      12.325699384056838      31.222694789349795      35.426263314429093
  1683   3      37.012462783060073      1.6972147091816947      15.472673501878635
  1684   3      45.351954332109088      21.985615055143636      46.649976163273507
  1685   3      14.577870647572798      13.561419497439134      47.047444417354306
  1686   3      35.176090401081744      25.896235202009326       40.34621264661574
  1687   3      23.915202458869132        44.5680459790157      49.043826914087781
  1688   3      2.1721004533215438      21.476098050598097      8.8826964875335968
  1689   3      29.604718396544818      19.788452490420685      9.6262917236491141
  1690   3      40.718302317528966      1.3344152712271937      38.865565885429213
  1691   3      40.879921744446342      24.197657668659012      32.552023790391061
  1692   3      35.441638131507204       41.96662582209057      48.769537860370043
  1693   3      35.885126733997872      13.776698950496579      11.646733730112643
  1694   3      27.596811786259504      24.499317444476016      5.2125200635927351
  1695   3       6.786754779884733      16.164139261176778      7.1101859238526552
  1696   3      40.306436614988101      19.116578171433808      47.301438283173965
  1697   3      36.057249895979155      5.2704588870016824      11.653806629966004
  1698   3      13.630968679789783       8.644656798909292      40.169729738577168
  1699   3      36.585059100353313       30.58428628053505      21.386303474063865
  1700   3      48.624963874704967      44.222671077035763      17.502142254508026
  1701   3      34.167205238419577      30.896691665623781      35.788393563158259
  1702   3      16.313511080664234      13.032453047923525      41.690986749106273
  1703   3      8.3911398559901684      2.6129336235925624      29.365889156905293
  1704   3      23.714230699394246      18.966721271902347      36.040917613135761
  1705   3      17.419987685033213      1.6865180713718644      42.681122453771934
  1706   3      6.5397669649337393      42.767141889001785      34.972526908491965
  1707   3      25.872751960992733      29.357047324577305      2.8229945413425463
  1708   3      17.570281023642366       11.77112793493405      33.364309235929305
  1709   3       30.76580147500961      38.139151985457609      39.869397762287178
  1710   3      29.270388467162611      24.848881448463963      34.924239875331033
  1711   3      15.672845292491386      9.2087871133427157      15.747417088337276
  1712   3      26.207786174001583      48.355852599464022      38.701146844747008
  1713   3      14.764889518506212      30.416046522469813      13.539151521719075
  1714   3      14.416105367105747      11.333767584665193      39.157760942580971
  1715   3      48.932948957024422      32.150770902638911      44.183902144948554
  1716   3       15.74529435314747      28.917811810923503      43.145591498778664
  1717   1      25.239820045254092      40.028922267762368      27.138282885877278
  1718   1      44.407666169831813      12.695265389942557       44.91052731459758
  1719   1      11.350816707030125      39.410387845232243      21.756118329649414
  1720   1      8.7719432858746877       25.50203384010608      3.5987147961113206
  1721   1      47.328530769196561      29.330497940453508      49.751405506655217
  1722   1      39.367634042936608      25.600252860009601        15.1788574716744
  1723   1      4.8661144775107026      26.664734785000142      2.0435055501533426
  1724   1      23.068200259451796       9.716722468158915      21.417421393203458
  1725   1      6.2021670564086948     0.88820443455028886      31.159339917858528
  1726   1       37.87599778504616      32.289771323229893      39.512835873501039
  1727   1      3.8535426371444954      35.022813316835524      46.091316828353037
  1728   1      8.2380223958317753      15.171552899161696      40.008182367419742
  1729   1      29.175218845848438      13.987398831365134      3.8307572706230419
  1730   1      1.6928537059573379      47.471792609584782       28.51979248729107
  1731   1      42.898333626896623      24.014270037612899      8.8091315241006356
  1732   1      9.1921283999247549      5.8699145533838006      29.569149302168722
  1733   1      44.383409935503494      33.378378756865381      39.344574998289872
  1734   1       20.13675347969664      10.344933448185712      46.598458053180558
  1735   1      40.067466774873687      28.508949095228107      22.693321683927273
  1736   1        47.5604994222481      6.4849812979480417      26.784099888688605
  1737   1      40.598848416140051      14.621499637790556      48.918544169379459
  1738   1      28.894042818994315      39.785824356841026      7.0117493535092672
  1739   1        38.4201285196866      19.897723663520505      13.653078338251724
  1740   1       27.67723360436154      49.028639894871382      28.365341700615925
  1741   1      24.421686044420241      17.347257561845815      32.903237701915891
  1742   1      39.703045982642614      42.309139600134003      32.653552646347691
  1743   1      26.397740578033947      28.675708523003351      47.362320369509412
  1744   1      12.897119414077819      39.041473745279546       3.820336559721885
  1745   1    -0.10212688237357503      41.255660972585247       48.90232048870471
  1746   1      40.523485988264063      30.075502094489071      32.025956026048611
  1747   1      22.814412356611527      5.9801865292299361      16.638523415877057
  1748   1      3.1190055878502001      5.3037392325606119      1.4159423207926294
  1749   1      11.439486848057721       23.29830172869465      51.170518476733342
  1750   1      6.2943111138073684      11.745572630046247      11.413532209123144
  1751   1      2.6546611796130901      35.598691925100852      10.002860158237775
  1752   1      27.702424873602606      3.6672856797856688      21.001120616690997
  1753   1     0.46935492044564031      44.798865486474526       29.94671731241359
  1754   1      47.658470244959183      15.773790026996881       25.63119421129436
  1755   1      16.342215899517981      48.042947012369027      41.392557802658736
  1756   1      19.813202983712596      41.712748155417472      19.235447409595917
  1757   1      45.623282530031098      15.756890067770808      45.111467515544568
  1758   1      20.953440783132809      3.2308889368688614      14.913282643159192
  1759   1      49.055942795258119      4.5893673120896032      24.557450957896034
  1760   1      23.616285152339216      30.066037017792894      24.656584947509412
  1761   1      2.5050286972806157      21.423439631847494      23.575824923981862
  1762   1      40.626547799563589       40.21346430203662      6.8104639952094486
  1763   1       37.26233510852235      47.700703912356566      7.8961935711477507
  1764   1      15.116084595082453      24.412576776366805      29.493526278590224
  1765   1      28.391541145878374      19.628719331815443      6.6770117894569792
  1766   1      32.949164345577323      39.799012053347106      43.234520443029183
  1767   1      44.415032435034163      39.318598556835568      17.176509293196464
  1768   1      39.549343031954272      24.993196939705705      3.2184899332765435
  1769   1      35.831466832910486      36.884760668319707      47.112217705210021
  1770   1      44.988077339748763      16.825754359740198       21.03462568434065
  1771   1      30.944132993692765      17.584562013364032      13.151723428895425
  1772   1      10.628443474716368      30.271555257402269      41.913485121176613
  1773   1      6.1549978730079777      14.073313135951059         15.701638472847
  1774   1      44.531188380853834      31.086906521747043      4.5001101439035081
  1775   1       43.06973168168382      34.457126481954916      28.271421127734186
  1776   1      33.986872564373058      39.977373289185785      3.5421055845450073
  1777   1      1.1223988315493643      32.908133408923177      37.865386853266216
  1778   1      34.431745447568694      46.565307464455792      25.034389985693238
  1779   1       19.85243968708566      17.932247618908974      33.419555913408011
  1780   1      1.9065301778901591      8.0111697917917528      47.059562342428819
  1781   1      40.990367634176437      24.937038422498894      24.277691359891406
  1782   1        43.0143224335798      37.649934767532081      42.167894720035697
  1783   1      34.908775945323853      25.316845246564913      43.520188659582374
  1784   1      10.482125235491704      48.566103619982719      15.497584812543705
  1785   1         40.712632916798      10.833072696503029      5.3435224064455547
  1786   1      18.439187529894525      2.1812446286301563      37.474961876567875
  1787   1      8.7151896771759905      40.150658395739654       7.249484551550033
  1788   1    -0.39498822635409353      11.320131846886264      44.772010679965902
  1789   1      22.247970685695595      2.4844652115512402      5.3958165149183204
  1790   1      33.934263279943359      16.389531414980951      27.412063745281987
  1791   1      5.3269408595121641      11.766700753975668      7.7149394502994904
  1792   1        40.2658598214419       33.63064864988381      4.6478110665675221
  1793   1      30.645126312406926      1.6065287548015865       12.29355675385135
  1794   1      42.961612006592141      46.202241274368262      43.870798176296667
  1795   1      7.4950003720092386      28.534560194433507      4.0012682610790744
  1796   1      5.0892253145246578       45.95079928899947      45.252062313771134
  1797   1       12.38538204991368      19.845091216352589      25.343187101552353
  1798   1      14.046495303323233      23.663046184474371      41.009290119876496
  1799   1      23.312147232026053      41.781131981554104      1.0587761773937241
  1800   1      22.009460890302631      11.670837978540082      19.027311728777022
  1801   1      24.871762260720285       45.99653414426232      8.7843881870920679
  1802   1      38.741429545217784      43.759088795161574      16.526693927413724
  1803   1      42.297722480293771      17.828490452688513     0.71060521236318752
  1804   1      6.5404747092979241      35.166167142277402      6.5543725872669576
  1805   1      10.432886773309681       6.415481831587754      1.0913634650962138
  1806   1      10.395785427513262      27.810442342102601      5.7096350080857805
  1807   1        23.5010062297122      25.519928584092881      11.241195550235464
  1808   1      27.221832460890905      21.007208743768988    -0.12932366674378939
  1809   1      15.860247487977224      5.3750915095683212      38.189948711415028
  1810   1      38.884945228922341      15.103922575773479      42.174045893483452
  1811   1      43.390165566568349      11.740136873742557       17.10521885517749
  1812   1      38.551300875045776      29.397555263475844      11.662663934905295
  1813   1      38.309416345175997      26.755055930442506      45.214912904909369
  1814   1      21.874585350012648      22.668338328773963      43.791041409970099
  1815   1      2.4383903607844513       24.89919730024614      9.0250290495820895
  1816   1      24.049868572484893      41.981716545133018      44.826236750006203
  1817   1      11.599007799694249      19.436028362552438      4.0258788565319588
  1818   1      42.891883428535941      41.482920111382548      19.476854711002613
  1819   1      12.518698468870699      12.087549744552836      9.7643833221054273
  1820   1      30.049957764673294      7.1812311949882419      31.508792667626818
  1821   1      2.1032906877594182      2.5721487643455299      38.667011277887674
  1822   1      9.0601857923591176      23.721244027802449      22.457720518037618
  1823   1      13.584365476161466      39.672670183192615      12.060378916492532
  1824   1      45.498947714762991      12.557836217736609      14.571761562803179
  1825   1      34.563529255966237       46.46306789862701      17.550929003822429
  1826   1      6.6664432824057513      17.765562910351388      44.892527106881893
  1827   1      39.684977139362779      13.896590998018743      16.697943043302985
  1828   1      34.735973865425606      27.990981115580212      34.444767153715567
  1829   1      21.582002084530458      48.970409437794494      44.341781394842755
  1830   1        13.9557730001971      32.787037026242174      2.3624463375439921
  1831   1      26.692404394754114     0.81165201622742866      32.896287915854323
  1832   1        42.0846598387119      17.156952997399767      37.054534237558997
  1833   1      13.973550277564129      22.779183851955175      33.556251111720663
  1834   1      39.648790577472035      11.485494898182464      41.680062126123239
  1835   1      26.626427406545197      30.742613273374587       40.52738174365043
  1836   1      18.762905649684072      15.839268340420096      2.2337989457119165
  1837   1      20.370873271066781      29.412368376278771      38.383516111980342
  1838   1      36.276722890452092      42.303411360711578      23.956977776471117
  1839   1      40.810098746652464      19.157394256991214       34.12649666184624
  1840   1      40.975835473674302      25.952809055506158      47.365323765167417
  1841   1      26.390283477065505      18.824162310556673      21.140436564644418
  1842   1      28.611940618345958      18.318191161100355      49.722933176827347
  1843   1      27.197395485135996      19.521014762291976      25.906605451845277
  1844   1      9.7752434020005943      8.0948401673440635       9.748884771983171
  1845   1       2.350973944622984      22.578094447550448     -0.2241663517101895
  1846   1      37.100752133420826      30.042371999099576      32.184260655367261
  1847   1      6.6834136846116046      29.723589998442019      42.799754029331176
  1848   1      44.658419144229981      32.048486585761538      14.957134208775576
  1849   1      31.539232597110374      1.2010551612649445      6.2547511610331634
  1850   1      46.352175632120883      6.1876015480426698      23.695387562917485
  1851   1      28.592719911999662      24.016752799230492      14.804035817750679
  1852   1      34.497494471643869      20.462209410459835      45.839422684847037
  1853   1      36.164051957541645      39.205299492582135      26.699412511874996
  1854   1      2.4116721738268945      28.958223079076589      10.216645756213365
  1855   1      12.175517930855232      24.254269517267357      7.2947358519390813
  1856   1      15.653458004172066      44.527557874145579       41.01889288592141
  1857   1      29.263179210678658      2.9952135006826843      3.9038494747844847
  1858   1       33.18218514578605      29.265680489808442      4.2474088396938727
  1859   1      33.791265922573544      17.029966265851378      45.756076751313472
  1860   1       8.977580016358381      13.378821602559208      31.826610280849248
  1861   1       10.77780067865424      22.098936141157989      45.192512732527128
  1862   1        1.85623254987478      15.011820743259513      17.534514365553083
  1863   1      24.861836554309868      14.713413023878825      5.7239931377142073
  1864   1      29.277118102341291      27.495515469613768      3.0479220202268809
  1865   1      5.3775390310089684      43.083624999474281      43.031510157390727
  1866   1      19.825210890130879      20.534278783593603      14.206343321149774
  1867   1      26.296836005349359      30.116967137065895       5.790907013893408
  1868   1      21.856150808989575      36.111504361853619       31.59623125861085
  1869   1      48.483819851452566      7.7420015279047041      2.4403571503926265
  1870   1      3.9797892457484503      28.835579352634149      39.208741131560544
  1871   1      44.326467572054149      9.4645371838291972      8.6679792782558529
  1872   1       28.96403634688907      25.380838740722396      17.840703437234488
  1873   1     0.83133852246275031      20.452300639125696      11.500885685384192
  1874   1      13.830545177802035      30.861967909566786      23.080739884731031
  1875   1      20.433913768824915      24.465405808384752      9.5441858189042961
  1876   1      42.654511032978533      23.553286906063263      35.251900801244076
  1877   1       25.96623750085714      19.726458381413394      2.5719878175956503
  1878   1      2.2730281142316362      8.6940716899325956      38.277228756301312
  1879   1      27.975087378734671      17.846241199837959      36.600149722075329
  1880   1      46.014981683358968      35.205788520376245      27.287353419336377
  1881   1      29.044304164676426      33.815772512797885      18.923313657590473
  1882   1      15.508358975937663       2.363339271805224      13.504601303867563
  1883   1      11.014046365949836      15.522102667231309      14.033738294361498
  1884   1      48.712478726961663      15.150202947100782      28.681418975788109
  1885   1      12.675108600688041      45.715307026734386      42.447531551533991
  1886   1      19.566665082745999      19.064316264477739      5.9997500135860786
  1887   1      42.657435988790859      19.980753986791555      19.054558643387796
  1888   1      24.863876987632416      5.2059493304607027      41.320169296733795
  1889   1      28.669041295170967      12.519584117601513      10.517102067856008
  1890   1      21.211408575249411        39.4043491383175      8.4614791745585016
  1891   1      31.898640290602678      1.1914613733285546      32.778217926383512
  1892   1      31.585803072295562      41.042513396567685      30.872064749047595
  1893   1      24.157850047188195      27.326724113787041       6.285015618155108
  1894   1      44.685553576036007       8.015747508539949     0.89179619390681708
  1895   1      40.526786425894947      48.146751339649917      41.121415109511545
  1896   1      22.347801634748627      12.816643373645364      45.168001946846815
  1897   1      6.1130720489060906      7.2636967023846504      33.173934649961112
  1898   1      28.702981975978204      26.077502038736768      25.476951098670551
  1899   1      48.583698317452395      2.8992784063360926      1.3341947785896777
  1900   1      41.762991617138866      47.666435772732477      33.057670572281715
  1901   1      23.679020361246891      41.773508392338591      38.162045841582056
  1902   1     0.88927611366910286      17.232992738639936      13.364897067290672
  1903   1      13.821656021899793      6.8773092160738223      30.750365250240026
  1904   1      21.264586445863461      6.0400480913165291      23.074659452479729
  1905   1      39.182355415004224      6.8524990052910892      34.979926923441695
  1906   1      12.685047815314329      36.421316316353057      8.1305189120074015
  1907   1     -1.2980206391553508      24.181781186258323      15.562398046277089
  1908   1      42.070432343428813      13.701633898051833      29.478631423400735
  1909   1      3.3610787138172777      32.134388982113748      44.216915402163366
  1910   1      4.4636666103332585       23.41236144112175      40.740193351166468
  1911   1      40.677223337681617      28.114583773346034      3.9147679364278347
  1912   1      19.296739449606566      4.1536884158657603      48.367723178480105
  1913   1      47.750128466542442     0.69100289860448205      33.463352597418336
  1914   1      9.4819959338723994      5.2720669220361627       33.08646862314631
  1915   1      47.919746572907918      16.428473151071515      5.2301548564966192
  1916   1      39.135397318313117      29.914585756286389      19.828858551278504
  1917   1      29.736589167013541      11.580479764639643      7.4956084946032338
  1918   1      39.371890600464511      2.2219624251781416     0.11329238100710952
  1919   1      7.4443214400645914      26.685604982971221      40.244262586377396
  1920   1      25.686830089836484    0.071836746745298732      17.978340476489816
  1921   1      47.755822077979239      14.040114061496009      8.5304537740381878
  1922   1      35.399739046799418      41.267312767330438      45.962386663318711
  1923   1      4.7044299984659474      14.346199713666818      5.3969422119587129
  1924   1       34.73618673959102      7.8610814620305112      10.075051376324408
  1925   1      21.751480310922179      34.317307289071181      24.596711833957144
  1926   1      15.672512506962189      21.045636703023003      11.452717057627739
  1927   1      39.751526381450496      13.531771254694704      26.953303667301768
  1928   1      48.048613756456326      35.396766462244379      23.282678524090056
  1929   1        40.2556330729699      10.183306558899188      26.736224930151923
  1930   1      34.692749758680833      11.662848911809446       45.39255695333361
  1931   1        44.9362618244215      8.9197679777547538      15.037389238784208
  1932   1     0.43378529749233463      38.401667747382284      21.247919776914816
  1933   1      11.848615559945076      11.835785462794997      22.723204012544095
  1934   1      36.271487085190337      12.937309998569125      40.759697699735725
  1935   1      17.209248841302276       24.92512202822709      10.493651417898958
  1936   1      33.529635784162238      13.424200061389429      5.8164945095887104
  1937   1      9.6082669138848988        45.2835346122909      22.287299422772559
  1938   1      28.876665225168804      21.360627292667562      44.723213166371771
  1939   1      25.705663595090193        2.80265303871608      27.812845317692549
  1940   1      13.382086657654982      27.053968027500726      10.229806460485406
  1941   1      22.838970119321214      44.697907091075997      12.148062824165201
  1942   1      2.1347253879023169      48.904229285752145      2.3888073757925667
  1943   1      38.098999852934355      31.604327620791953       42.71926340194036
  1944   1      7.5361268851045216      23.577424498784776      39.751910947347213
  1945   1      7.1496959900830861      39.376964548191253      28.241340146609847
  1946   1      29.436161645423041      40.979907481051143      19.422554563253744
  1947   1      14.929650048024289      1.1323769490494302      29.686748007968536
  1948   1      48.057210279519239       45.60067242958587       1.566383402647495
  1949   1      9.2013212626295058      43.463711181259981      37.748605352785169
  1950   1      34.904081271528888      3.4460806921383749      45.558766134587636
  1951   1       11.07373894728533      40.065939482918999       27.81548204259645
  1952   1      34.012580106509361      47.171636481981118      47.306546304794836
  1953   1      13.648255221869171      27.381489656099411      21.233605943137153
  1954   1      26.909728512123365      36.064872165030131      35.454625044876344
  1955   1      40.160680587320591      5.9628610911104296        29.1852378142652
  1956   1        14.0940307428128      18.225065115003016      10.647693022371993
  1957   1      38.300533540563833      6.3107276758594999       22.61585700629858
  1958   1      18.136094491385705      26.425532661678201      29.377931173289209
  1959   1      25.666758458059618      44.666371480402965      30.217537713971527
  1960   1      45.105681426063214      35.410068841446744      3.0406570311226155
  1961   1      30.878739114448411      11.677629609832225     0.68802053210579284
  1962   1      16.959126334449547      15.731519325753723      47.721527094231853
  1963   1      40.972102614704511      37.037282538677154      16.345027978804524
  1964   1      42.204029193855852      6.8615405958619435      8.6358756123995768
  1965   1      9.7094569886795981      1.3262991685166643      32.043189445471818
  1966   1      15.469024928746443      28.333908573497876      31.713681827528401
  1967   1      42.736311489990435       3.162798676002561      42.520959320044561
  1968   1      12.590854001312618      36.676519274004576       38.74541565384132
  1969   1      39.658045604838549       17.10372695710571      8.8336475707709532
  1970   1      2.9324235487048917      2.1413429656426644      30.393007868002584
  1971   1      6.8401034207377212      31.181478070335533      1.2651821220139945
  1972   1      6.1641109485671048      30.300682863610202      23.667417318101968
  1973   1      22.511794306815819      33.653412184354899      4.1139846768508779
  1974   1      3.8591717910390404      8.4868270713623506      23.152169851993392
  1975   1      21.147921642706851      48.540389771998939      29.420142215751333
  1976   1      35.764483791007528      17.638608047865123      13.759493129678878
  1977   1      25.634456980816921      16.769641918731764      49.827078115666467
  1978   1      27.215069648557044      47.023566666235901      47.861128277375521
  1979   1      39.845075339467307      41.871783628510435      21.003090783264117
  1980   1       35.50126184609865      45.815036400931568      14.229336332080603
  1981   1      9.7249057161213308      6.9161634743400997      36.069979351734887
  1982   1      4.5785900943423838      33.092024473118947      40.701293671184914
  1983   1      16.131901385095652      42.937283240165058      4.9748021423426518
  1984   1      36.424127188162707      13.443716215083754      17.183494295444842
  1985   1       15.69561387329215      37.165402020746733      47.695601098251053
  1986   1      4.1360684511375672       47.91071576311009       18.44242056825675
  1987   1      48.828423219855097      27.713145608797365      7.5911985337065566
  1988   1      44.038938057732153      27.364890196168457      23.423676126499188
  1989   1      45.408476566082321      14.374381850285285      42.114222611896636
  1990   1      7.9913743738923708      2.5049913771718391   -0.063051589098409036
  1991   1      31.408974527502181      8.9317004217899409      14.872022345961325
  1992   1      23.461148409033004      31.674622007882039      18.934753871889004
  1993   1      3.4983388220469953      5.2846072435746523      36.576486935350673
  1994   1       15.71089957097645      19.618347848149899      4.8994452689021504
  1995   1      30.292126250935791      37.607919876188234      36.841656028026911
  1996   1      43.484122959354963      16.864823776051026      42.528884335282868
  1997   1      29.457982990768265       19.95606631336031      15.112525116391296
  1998   1      1.5981523573363903      27.384657234617492      3.0212848779147694
  1999   1      37.963894601250146      3.6265045246830891      20.879517804343056
  2000   1      28.434728334619482       45.13956107973948      11.340314496498198
  2001   1      9.4716175047430227      46.675803151122786      26.687510321278886
  2002   1      21.096529913463232      31.063537573103243      35.729878286078417
  2003   1      26.334770974538419      7.9519615182857031      3.6936865201068869
  2004   1      13.160081479698825      45.756650181689949      27.119215980364785
  2005   1      11.460166376375636      8.6496094950810516      23.662486126401465
  2006   1      40.922448784812765      47.807304496778158       47.92312190938825
  2007   1      30.896279205205762      9.3525084090886299      4.9735536393711657
  2008   1      8.4473027258956463      11.202679550279576      2.2195796821453877
  2009   1      29.524300094224571      15.636395695270211      47.291865458420176
  2010   1      6.2876989007993744      31.261147205813732      14.910572798141738
  2011   1       11.31804236992933      40.799105438299733      18.456812432891365
  2012   1      14.272546741400568      33.094010861691068      47.499450640561825
  2013   1      38.074813978839892      44.142174417315239      43.035049736456898
  2014   1      44.999696486946462      36.922099969387396      24.328484984432169
  2015   1      38.749506771835769      35.414560251440825      28.243602075265024
  2016   1      48.373155658643356      29.326805582136043      43.058976353405299
  2017   1      8.3239294811561084      1.7084613792831265      11.510678724883078
  2018   1      5.4415074659254845      42.679122711390377      13.369020368150876
  2019   1      32.635169394142807      12.407618436055156      21.766644483610545
  2020   1      33.250358203392842       7.554281488927252      17.381382736464133
  2021   1      38.443655281095729      33.720755483166968      11.822020751139538
  2022   1      8.3928442762196092      29.719140457987823      46.033236820909174
  2023   1      17.715684721814036      37.943662887672822      36.159372873478233
  2024   1      32.644143815094608      48.489574683833553      28.370433988213527
  2025   1      15.123543015871595      44.991416678186887      17.832783025324503
  2026   1      41.796151149171877      40.498756199137873      38.304745830050415
  2027   1      30.081662102851219      5.7571361717831051      21.375831014893496
  2028   1      2.2409070445105921      20.644016744755675      14.450478339664418
  2029   1      39.234663845913211      40.445125952755589      25.849398374880586
  2030   1      21.187572857557203      13.014787222075633      22.656083117380735
  2031   1      11.143542190294701      43.414502709903765      4.1070946805184025
  2032   1      3.4154470344545631      14.731341697049734      34.041566286216636
  2033   1      17.102896628378812      44.079447465452496      26.217399494867735
  2034   1      31.179337342779373      32.172795737389599      1.5005826800578987
  2035   1        44.4740553510605      47.972978322194692      27.319448432603831
  2036   1      37.341825341719876      48.159794415276707      22.804251646982515
  2037   1      39.435752349492077      18.229097280241749      24.770978571625179
  2038   1      12.147428554071716      30.351776963302871      38.243417216081262
  2039   1      44.089822688451768      19.441044335845536      46.329966048629458
  2040   1      8.8270475925160596      10.355912703715482      38.502669462275122
  2041   1    -0.82611663673584423      20.444978814188641      8.6289820689282948
  2042   1      37.400703587930273      24.682459568215254      23.897325240697025
  2043   1      8.5663483724416043      22.114979101420381      11.077290602383455
  2044   1     0.80522146041385856       44.41284692392243      4.0281204855198514
  2045   1      31.998120450075731      28.096006377128049      9.1901271002846325
  2046   1      46.342503899610868      37.948881189938213      38.840868933408139
  2047   1      7.4830197903459421      27.468352265663217    0.086340422414748152
  2048   1      27.866373303972978      40.382751046893731      39.584063066903354
  2049   1      7.7689322695809064      31.030216064082346      7.8714052686531835
  2050   1      9.4200095134961064       48.28723291493958      23.807863212035688
  2051   1      41.030763202305401      40.186340934629875      46.965276838010979
  2052   1      47.472676549142186      21.034435515002809       39.70127998429686
  2053   1       42.66357649003988      8.3768808097879059      46.858459550046057
  2054   1      44.317926985265458      15.480420941356789      38.824502279498347
  2055   1        2.98238800845487      47.455612837448427      34.470003517789017
  2056   1      14.451675242655398      14.465862176722512      39.867670270430175
  2057   1      45.653942357921714       24.63846843659131        6.13405799156269
  2058   1      44.564004230927651       36.30906237151266      11.523558218731502
  2059   1       30.42975018574008       47.92098471152152      30.577820775631992
  2060   1      45.473957062787555      31.359196368340019    -0.42694465400166465
  2061   1      1.8212920413640874      19.266523077398997      43.566049982286522
  2062   1      38.965223375003362      42.711639644948526      39.089444480576773
  2063   1      6.0596682060991638      2.9745101677245032      39.239106031989465
  2064   1      46.472292909184326        12.5991497706198      28.314820493164383
  2065   1      34.759921613970633      1.7194655236651715      24.543012080356135
  2066   1      21.259614162938231      27.615951378132937      35.543938768463413
  2067   1      33.704024178393631      44.059221735635667      22.772942617888557
  2068   1      24.610800354900171      13.073307243554968      20.996599528882154
  2069   1      43.055609753854554       34.98262773516818      31.953102095034268
  2070   1      9.2612521703432478      37.377916813747802      37.923063854979667
  2071   1      26.543339760074893      48.281555747204436      4.9641424899598894
  2072   1      42.431745706409217      22.289257141995993      46.103048179561029
  2073   1      42.689358403052701      6.8881830973776887      16.127281007646445
  2074   1      30.245860482246961       35.18378507701096       29.69371217024424
  2075   1      46.412913920367629      24.896589268372004      45.616661887866947
  2076   1      19.427388194254021      4.1130410842808596      7.8034738068785954
  2077   1      36.272373916272414      17.963075217751829      29.154553252530217
  2078   1      45.314956252026853      27.292370984259218      30.651661175752547
  2079   1      16.987703439225434      15.730687801651912      37.632804669778075
  2080   1      8.5447996444815377      6.8151238391712985      16.951153419691856
  2081   1      38.532500629772571      16.712401200422626      44.906439580561752
  2082   1      6.5423886086481673      31.893447160884911      27.726907151983866
  2083   1      11.127178709074876      39.907184546275452      35.090908657037843
  2084   1      43.594635212238131      7.8418182397511398        21.5121087439279
  2085   1      1.7412485470805728      39.642402097738341      13.258509119792969
  2086   1      1.5798945983724466      19.813942387977242      36.888919004382032
  2087   1      16.071687082550071      7.0200113193415836      12.883004722081207
  2088   1      31.727050289805561      27.958251461870432      25.058278358812629
  2089   1      9.7622901886048155      16.473584310767585       17.06608287366598
  2090   1      28.271472196816351      20.113792553308709      18.904572649410955
  2091   1      4.7810891154359956      34.640964397489093      24.347867641491057
  2092   1      12.877362552266694      8.2100226693756539      10.454616024629273
  2093   1      9.8921021184930282      4.3595193732855346      10.629886472467948
  2094   1      31.220466257996332       7.372534639068733      25.237718571446834
  2095   1      4.7123548414723437      45.614702208080715      27.839967994185677
  2096   1      8.6396349455663604      45.726548354916012      4.8243227293177418
  2097   1      36.744416828344136      38.547463783868231      6.1249272727840722
  2098   1      27.222917286806343      16.596921624049351      4.3571397532030671
  2099   1      4.8381028444766487      9.7309660106225824      44.634580908723116
  2100   1      16.791147390963456       25.21666613708242      46.900677607590566
  2101   1      17.144659468681962      41.169860677514464      12.256986014207568
  2102   1      24.261866274215436      19.718096968645213    -0.35860056729647649
  2103   1      37.276555611928856      46.864909212197404      29.671778449374472
  2104   1      47.183620014799779      32.187173494850342      28.017636079412235
  2105   1      38.340244924010399      38.519638248401584      12.870893621629321
  2106   1      42.740071867028902     0.45924716189015824      20.784137508582578
  2107   1      5.0841787774007061      32.197051562693801       5.465071226526959
  2108   1      2.0856892330092194      42.664103351328279      40.015777746727125
  2109   1      17.821923128162958      22.179340249820783      4.3960965676441255
  2110   1      46.392138551502647      25.422856957889167      25.327132328953653
  2111   1      32.103187400314738      26.033200320790048      41.284144925916706
  2112   1      30.461531545551114      13.008697296852565      35.206432501132454
  2113   1      33.526833193358762      43.661672912925312      46.906233043437844
  2114   1      28.961910355819956      30.011695743550437      37.698265686030403
  2115   1      12.226865172102585      42.806919348542763      20.787504448970665
  2116   1      34.367056834548883      8.6101856401663017      23.247827439399423
  2117   1      33.927951266499456      26.625957482602743      22.793290950441698
  2118   1      15.240182708881884      34.551301536194359      24.222686819310535
  2119   1      18.348163703056006      11.203876496939618      29.902316236675009
  2120   1      19.565960977640056      45.381527389938185      41.850923703797385
  2121   1      40.038090217135547      11.656890200450428      45.107235535922982
  2122   1      17.462086451787201      47.728115740131393      11.246399858449056
  2123   1      9.8840365780925765      11.265206142698476      6.5319996178087969
  2124   1      18.929549092477373      19.644588995612438      45.965288582752841
  2125   1      9.4522757644494924      15.202398264238786      43.926832370873093
  2126   1      10.377644431738204      19.222530494084829     0.94108414583373678
  2127   1      32.910449215710543      3.8716649973016755      26.301409804172838
  2128   1       47.63748269319229      25.417955675519103      33.305059021912932
  2129   1      37.556075197579169      19.863872389612169      10.085820165704538
  2130   1      28.561975626553444      30.294198227037981      49.333466832022872
  2131   1      9.2835384284260041      27.399829152135904      37.876393617527825
  2132   1      41.314620480595892      16.407347729444538      26.947556205118449
  2133   1      7.5079098302549419      44.004121382660117      40.640102860952311
  2134   1       27.31930727723206      45.437698606826473      6.2347070674732104
  2135   1      20.109005278626817      37.172138400266682      44.252785451318367
  2136   1      18.091399680772795      39.495399866831761      45.196202616791027
  2137   1      41.730948804521205      34.729324167410333      23.994361282509036
  2138   1      2.9532942595665927      14.997528024147625      21.410794929660323
  2139   1      39.566330564919021      10.236127149055815      35.245167367223218
  2140   1      21.003630732093502      25.835744434022441      21.198588211655032
  2141   1      30.432086784402873      42.145073689607031     0.69373234773902015
  2142   1      32.447903359661112      38.328946435918787      20.320430546309712
  2143   1      20.774400353847046      37.074224915549749      5.4129796311320257
  2144   1      43.123354669099541      38.177378123409206      20.693486236480631
  2145   1     0.85114295212369173      4.2930900979981113      16.587554997619108
  2146   1      33.655692441009457      17.266444759642489      7.8887055916023803
  2147   1      9.3150173173739041      23.363898780622836    -0.12142509540947288
  2148   1      14.402148966594066       38.77644949770805      15.854441768606566
  2149   1      19.735118110842894      43.276388878182665      28.032609616439924
  2150   1      16.431579993481829      5.1172978607972128       7.009788975285991
  2151   1      22.056992832710876      47.971532716703557      24.575401972179439
  2152   1      1.6253507469017219      23.632037480964023      13.353437845744994
  2153   1      36.024797977600528      43.023414709362413      2.7250603392795472
  2154   1         14.845299848382      27.294587708939758      39.176056868876515
  2155   1      28.306607763650959      35.201516403308503      3.2299375987684908
  2156   1      38.115896002601872      5.1021448633369326      39.504714252943778
  2157   1      24.206069949970829      1.2402097932520808      22.615138571659692
  2158   1      46.460069880254778      47.830192492005793      41.102759274637073
  2159   1       39.07900066328839      18.235853005140189      1.5744275745177836
  2160   1      43.388291399973738      28.243980779761671      9.7938189644828153
  2161   1      13.397657473382251      5.0641377698752361      13.696247325432475
  2162   1      37.419286954464376      3.7894781409398139      24.639476689301791
  2163   1      12.437042207917081      19.065340586475408      28.820951751668673
  2164   1      45.918844499183713      10.133308032310008      22.226629422475025
  2165   1      22.057009189100977      25.778216547834973      14.924262843206487
  2166   1      38.262776289183613      33.162200948476887      16.902694031106311
  2167   1      39.361387956809466      8.3300342276069266      45.206416767214328
  2168   1      4.4743096646525862      20.489600322658376      45.898127875957151
  2169   1      32.464195091102084      47.507911977326636      41.277325678483749
  2170   1      15.170559485060803      41.685698176720649      43.010795616367737
  2171   1      27.762137952650868      40.106627952777664      35.237348412232713
  2172   1      26.660579906302679      11.066711500957398      29.649094470329374
  2173   1      20.581894622016538      34.375350234659422       38.42934266558742
  2174   1       20.77999359692582      17.845091511970246      11.862029179601713
  2175   1      44.784132670380956      5.6252286178994622      13.899078454491852
  2176   1       16.13994968645871      4.9319908711681908      15.662758106637389
  2177   1     0.71559798418919163      25.134342499306058      5.5839063343139381
  2178   1      44.988962762478799      19.853627345823778      5.1034529720134678
  2179   1      32.629575498890091      11.183465498872808       41.47207248222653
  2180   1      4.4703855254676323      25.816753142528537      43.197663593471262
  2181   1      2.9903026776512931      29.004938481387729      43.258534837477505
  2182   1      26.509809849261558      25.878207380495041       39.92839550066536
  2183   1      18.682422544112317      31.367103204764124      19.868862537849317
  2184   1      39.851715404332758      46.695069541032723      6.2673851459332308
  2185   1      18.127202953969483      7.6543701921368736      37.208549524738416
  2186   1      4.5700460611668072      31.595095358258732      47.299588184374464
  2187   1       38.49350493846395      30.917888502933849       3.560053611932974
  2188   1       14.97887699188178      41.647987699778916      1.6148338535745363
  2189   1      17.416062825224778      1.6612016974423649      27.174368180707415
  2190   1      10.712049798974865      12.672675928052868      39.697070877012862
  2191   1      15.428764435310297      33.852443237133357      44.352302220641953
  2192   1      45.831596890646864      5.1147753491222918      4.1389089537719954
  2193   1      13.686998065159495      19.254398354260733       7.619518487531872
  2194   1      42.745374967713367      25.755050976309175       3.228757100000005
  2195   1      42.383921854643276      17.009803164431101      32.313870497419572
  2196   1       46.04560286610333      40.308927406980288      25.296297739181895
  2197   1       20.92453531133852       5.886776252389998      26.915362497775885
  2198   1      11.753318751010514      19.030177205832157      38.568417077800468
  2199   1      10.697060446470793    -0.25968254560007914      10.474844051802794
  2200   1      25.992773061384103      44.156927240079931      45.993387579816059
  2201   1      27.322054876778783      43.695795006330691      25.077126021390622
  2202   1      40.456505697294418      1.1708098541624969      18.289596728294637
  2203   1      49.161842405404698      9.4457302527629636      33.416222916821219
  2204   1      42.705641014613477      3.1632407477261313      17.724380490665066
  2205   1      20.732147114390507      42.888619572942261      31.772751829201976
  2206   1      16.728361477997062      9.4227162046140851      1.9977224317815798
  2207   1        24.0401777169897      34.530521337681094      40.044221197460374
  2208   1      33.890795012747347      14.730178858406227      23.905661255338138
  2209   1      12.079771734935163      33.869825669780582      44.883359845170396
  2210   1      40.375704256549916      46.693162317153941      16.588609114397979
  2211   1     0.63373215451274123      28.617990471558645      21.623699107680601
  2212   1      31.467460513761349      39.258200143411841      13.063557452177273
  2213   1      18.062691648100792      41.335288765639312      9.0113073976963154
  2214   1        6.32866524932773      38.467876940845258      8.9291789477643722
  2215   1      19.549042630453368      34.475598313033721      8.3616325580225244
  2216   1      14.613160572120355      22.098453233476707      3.1889333393805583
  2217   1        17.8745586253231      7.6337437975323406      25.592334241113065
  2218   1      33.112457090291819      35.045759019305208      35.455170766830996
  2219   1      16.653501122698849      21.238862545561446      22.884131083901647
  2220   1      45.802730106270239      46.363933066506625      21.795519845637195
  2221   1       6.569235027952292      46.874672182815765      20.454364896371221
  2222   1      9.2805789464032724      50.467573997796862      40.809417780513805
  2223   1      38.556937006372117      26.870066044657534      26.099959783224911
  2224   1     0.40804560891289082      3.8428490515668918      31.788343468130257
  2225   1      31.380436578131324      30.193679745949215      47.580223856356255
  2226   1      19.648537635658382        8.38096807076845      31.918509300289511
  2227   1      24.719111802500223      33.504805732001913      25.552750011253515
  2228   1     0.24355638818865769      11.305910580718102      16.598467391315356
  2229   1      33.535798443898237      47.214026467233694      31.352780424474933
  2230   1      34.048926292077532      48.106740787497635      5.2745273200604066
  2231   1       22.82232824645828      25.407567153752879      24.924961094771582
  2232   1      7.9606841906957708      8.3034370362549677      3.9275631970124558
  2233   1      24.778016158004057      10.804396008442124      9.6784271517075258
  2234   1      11.786081210909922      1.9245974328602977      5.5743622876732877
  2235   1      34.016246824911647      22.225300159817344      4.2080464310590733
  2236   1      41.591043898610437      2.7700518816064057      33.291835237221015
  2237   1      21.282227966790124      43.298806495357923      36.810984449159577
  2238   1      8.6894284286720591      19.589234273186403      24.029399461206804
  2239   1      31.770551753040792      9.3475303042848399      8.6215311934695702
  2240   1      29.673176142892736      13.710887524665774      23.156515848013402
  2241   1      20.612558357970414      21.890656150594364      39.319141472329505
  2242   1      26.472804201088731      36.002736637355412      23.814020050530978
  2243   1      10.170736260099664      28.922378972037048      23.057774882504447
  2244   1       25.88626394199887      25.432425067224717      8.9431844283018975
  2245   1      3.5157272865775924      13.119904693739343      31.183422808622815
  2246   1      26.741260438483884       44.29944020863654     0.99833751376751689
  2247   1      28.202281549406528      11.500650604853487      41.531481608455721
  2248   1      33.840655946906985      20.277968378916441      49.074358663859634
  2249   1      14.054059089218814       37.92344766637423      25.959042214767877
  2250   1      17.633718763050144      42.718488466293586   -0.098289136536735947
  2251   1      34.290557202489325      4.0828773663588516      35.144378627565928
  2252   1      39.951492563132753      4.0625173722947352      2.7844025834350514
  2253   1       3.226028134106826        16.5742752836167      47.583521781336003
  2254   1      20.579819800412356      21.390949909281961      1.1156994759906982
  2255   1      24.696026374404433     0.39909253072429629      7.3850113807832436
  2256   1      17.227577538787965      22.271322392739581      34.262925206490884
  2257   1       47.40822301295335      37.681082789476214      11.794522500961422
  2258   1       19.60986607799267      36.422033906296917      47.839969608411742
  2259   1      19.936436569984636      41.887798484049327      43.706017915991893
  2260   1      10.475068640785286      32.388159976132208      22.054642928294388
  2261   1      5.3332238643293692      12.119632887869388      3.1660209818310054
  2262   1      46.332735516354496      24.145100585279344      40.655312344204738
  2263   1      13.704977653625718       44.83731909036873      33.184487898184607
  2264   1      37.239247136959605      8.4294812140741087      28.760096046923344
  2265   1      18.880035010648893      48.610021107349787      23.357800054841629
  2266   1      18.873107420697256      21.782651561560968      8.3685931508907849
  2267   1      13.574616069873532      32.621576371066745       31.03736754303749
  2268   1      20.500856265299632      24.898127192863722       27.88195361209555
  2269   1      24.978205770893389       28.12835683739813      12.775360780098033
  2270   1      5.1922262683564506      25.985783806883084      19.958274371360961
  2271   1      33.388503502438041      3.9092632898814861      38.940177836628919
  2272   1      27.591368564455092      42.072986958703041      21.995626075121685
  2273   1      15.007094070255075      30.989376010220926       10.49234592364051
  2274   1      43.879673162167386      31.769803187048641      32.401158461568627
  2275   1      20.373352850760792      7.2465631550522032      12.215790677127547
  2276   1      28.540093090856338      48.816126955320456      21.908731225969589
  2277   1      16.678972485538349      14.042432996758635       8.885991890949386
  2278   1      18.524080863766592      15.502311665466079      19.848293645454497
  2279   1      32.198224098276413      35.345275477384128      12.314724277891342
  2280   1      33.270774372543741      24.114787680813382      12.485289564238395
  2281   1      24.303184108010161      24.202931309549022      31.312054742074231
  2282   1      25.208635907082627      9.8149137148169672      24.625896458896513
  2283   1      10.832262863008117      30.494151835395144      2.6482509085223267
  2284   1      33.661833273541667      23.458977842918937      39.370248358913791
  2285   1      27.405326547375445      5.2990273750380013      1.9021217006048532
  2286   1      27.794950907484267      47.764023024787285      8.4866563785768623
  2287   1      30.557103863862412      20.173055266818899      40.450165045826189
  2288   1      50.691139484668703      12.483670993237952      7.4679366187251066
  2289   1      40.370382327953315      28.963497841830268      35.449554999431065
  2290   1      9.9320934749132803      32.054170220864272       28.00542435505502
  2291   1      31.271986260969438      43.660215068692516      19.529523453490551
  2292   1      24.492704623085064      21.339233668080094      32.888618556622767
  2293   1      48.107320895153386      20.485772709488167      46.544863457878876
  2294   1      31.872099616302965      1.3965157564164101        2.93351162201541
  2295   1       4.356564014607228      40.746109954904547      27.441277432420168
  2296   1      28.294943819094119    -0.29553019152984261      16.018227257930878
  2297   1      8.7736452441183772    -0.95478476845423266      38.330907282671163
  2298   1       45.71160142185694      29.315738515975447      6.8694436678714599
  2299   1      41.916262405169412      11.703636707078704      48.045277167928212
  2300   1      32.497926455700807      29.535684791110711      16.342002732082481
  2301   1      1.9236221745050075      32.901040812581982      32.313593093436644
  2302   1      3.7305972587439693      4.6948766314890253      33.237597182966269
  2303   1      26.675429662569943      7.4796052557035759      31.922922515603286
  2304   1      41.773438214664658      10.277530251471719      32.824295025902479
  2305   1      1.9857279037910998      48.361569093886771      13.578541711047389
  2306   1      35.505810968731552      28.374566188886778      15.307417671895069
  2307   1      33.510497334465548      42.271432202150862      41.150687611362336
  2308   1      41.027328097136767      6.9828875187572423      40.198287902602779
  2309   1      44.435372641542337      19.242719349879717      36.127099619809101
  2310   1      31.122140216499407      26.890554454460759     0.13459734401798817
  2311   1      28.910679605846518      22.838568162259847      24.598205353180191
  2312   1      17.023834819352718      8.6207662644785419      43.410511171542844
  2313   1       46.37700195410703      1.6495443415310087      4.2103801682890447
  2314   1      22.434583602677886      5.4822999141140079      34.271026995865519
  2315   1      46.876629369053518      42.831525119274637       3.294963210073468
  2316   1      26.278361201988268      21.764253514870894      11.577901313238419
  2317   1      37.466756267969565      1.8916602316240112      2.6879099140014744
  2318   1      14.892354683132845       10.55547827491999      4.3400798436730597
  2319   1      2.8667651319130982      26.697104819526423      23.547720826954311
  2320   1       26.52665105001525      21.552103017031552      30.011706875955792
  2321   1      31.151264855810311      10.225860178324398      11.655982259029278
  2322   1      16.807767118390029      43.591198466716001      29.501272514013476
  2323   1      10.433009864131019      46.488113114953578     -3.6376938524089399
  2324   1      15.014332150486505      1.3493490737292404      22.464797751479729
  2325   1      17.956908904463262      13.523832818547822      22.654057169211239
  2326   1      34.921938107915203      46.000934180450642      43.894964771621218
  2327   1      12.275111769493531      29.171744687432824      26.300082801052529
  2328   1      31.976680759899303      12.609973515324826      9.7647562236862893
  2329   1       5.802697829685326      21.287768711135836      29.678681239467682
  2330   1      21.422070053342779      26.979828442547099      30.062155626901621
  2331   1      14.618506544120846      11.277846013830816       17.71342196224159
  2332   1       46.19975774016374      25.780728796428544      12.205091554896194
  2333   1      10.623310870094656      10.695625415360047      19.466789274718067
  2334   1      38.701470014107485      28.940387847592152      14.871064674979003
  2335   1      17.516514526018611      17.125319328799016      12.061312089026137
  2336   1      22.812499951730896      16.284536103588643      40.771071728431316
  2337   1      16.216227534305006      3.8581305933348387      46.681030846854974
  2338   1      37.173338740034616      27.637407457503567      21.443970320324144
  2339   1      22.477544315607684      26.027265624449822      43.728849896325826
  2340   1      4.2310926494713232      43.217473265217606       2.994712514671281
  2341   1      20.352514634336497      27.623087885238192      8.0807055459371444
  2342   1      48.609596006343601      22.037208601473385      27.247422981712713
  2343   1      12.374916108569712      26.211612833168036      30.119211754584803
  2344   1      34.765672536562121      14.801835846883222      20.598562027760249
  2345   1      22.210261077794808      34.626795460809213      49.163460068099106
  2346   1      44.474574565869723      46.240445524159156      13.844855905108158
  2347   1      19.795939648223573      19.913509345804815      42.538910347836989
  2348   1       17.48398036236533      28.635864115875613      4.2845628742983735
  2349   1      1.1452514913548077      17.611438599282916      40.783427881668942
  2350   1      24.004410792020625      3.0774250512224066      2.6234886507633233
  2351   1       43.29844024315247       41.00985979734871      4.9706990605754449
  2352   1      39.218222607957685      45.889726700157638      21.453950553442212
  2353   1       45.18338594335038      2.5953195103274784      15.532692406610829
  2354   1       26.73273607648014      15.359091634027273       20.07757370355553
  2355   1      27.963952835086683      6.4678995155400241      15.223203910032002
  2356   1      29.775157234428306      43.545340443081166      30.186241800585297
  2357   1      46.826492815415129      30.960479903498022      38.035608067431035
  2358   1       28.21239570372294      8.1011461621781944      45.152393305545068
  2359   1      2.7427655200650549      37.867526066919552      18.383281054533093
  2360   1      12.152710649560873      3.7955204504077158      30.810216138131153
  2361   1      40.239133973801913      26.649768822363747      42.005306507814822
  2362   1      41.217476266334621      17.993824436554881      11.592319117592073
  2363   1      23.380972871676306      43.532450776130425      15.574616448065052
  2364   1      40.184774217373615       21.69614112982979       37.27946218066046
  2365   1      14.276380452304119       46.47589413472631      9.6117704272751396
  2366   1      39.356123320887271      34.310915827609769      21.587477811847013
  2367   1      7.5101806168597784      18.073060271770107      1.8652022169453406
  2368   1      45.975099140269265      38.366151341523455      1.5532198400466561
  2369   1      47.765582509442453      3.4586458278458005      11.594508514877262
  2370   1      32.952160239421438      14.536060131086991      13.718182994335256
  2371   1    -0.86981190635927264      27.265994817215311      18.973128411271659
  2372   1      25.771883266272837      1.7267754635133838      45.367656335875509
  2373   1      37.924353522464635      38.027714088176317      31.983038902167301
  2374   1      1.3477657813490422      23.000575999573115      32.200479400898935
  2375   1      23.347590871194132      3.8562734196371622      24.756012371198445
  2376   1       8.990163685725264      3.7879869709913199      5.0931272352672892
  2377   1      27.413889055468932      41.269619948950108      44.265773159673842
  2378   1      27.458601692026896      34.643080467518324      31.435114132340537
  2379   1      9.5327195181938436      0.8900503831491311       3.463338532502112
  2380   1      23.930916144396171      29.026906744673486      33.107081861592192
  2381   1       20.25362924075565      34.653976566347474      34.170055622164284
  2382   1      25.892268360755864      14.398953367727074      34.989657198872045
  2383   1      20.805387090758021      15.876940558534505      44.660733151866502
  2384   1      30.056311784690273      27.094511505082881      13.541442331219114
  2385   1      8.2092418967885408      14.297349558096162      34.776559269200817
  2386   1      19.573724968245092     0.91749406121901589      12.766713804300416
  2387   1      26.924229281855123      2.6598038174331307      39.376282602638895
  2388   1      45.458486698724663      26.618844721445424      48.503011127784887
  2389   1      39.842077898260023      1.4741091041196657      8.4214246679674289
  2390   1      8.7910517035841433      37.229395367860405       4.784688579935767
  2391   1      7.0150324691508867      28.384984883936376      13.284986006339413
  2392   1      14.979690190634955      17.592241511091586      33.151738564425926
  2393   1      40.633168947556136       23.76806771039104      40.500043852475272
  2394   1      20.248637915430098      37.960527315450072      13.648078142529643
  2395   1      25.321093889400739      33.577122797957266      45.902481713887113
  2396   1      28.489568121699115      15.951360796850816      41.632346308631412
  2397   1      10.412312770351226     0.27124609606328559      28.811224274547083
  2398   1      16.903608284503289       9.417645872784119      47.005642415966065
  2399   1      27.317647176771249      25.191193163787119      28.516252560519156
  2400   1      10.554464928388919      34.927953763647302      31.825161122410815
  2401   1      13.014129260729966      42.665245524160419      40.782754230065798
  2402   1      44.263599690250636      29.226483150787111       13.12699320424016
  2403   1      3.8702622729733718      42.960186229573978      6.1765311330331354
  2404   1      11.292534780972328      25.822027354900065      14.350274409821186
  2405   1      12.025682000676998      9.3960886446934495      2.8203984872566736
  2406   1      11.142764592473155      35.688523383869871      22.312392909364579
  2407   1      42.705865230236405      40.641582039587867      22.786877085757105
  2408   1      11.277593388071564      20.253645314207414      35.192009607385536
  2409   1       15.93411876760236      4.4416702195873388      43.465955331368662
  2410   1      17.340975272839458      38.887125514950377      15.019310199376264
  2411   1      29.849806827114254      35.212688850478052      44.046020739643936
  2412   1      12.143036261447218      16.380897428773096      26.177758720676479
  2413   1      30.917756267631443      42.050316095741103      22.483996040453192
  2414   1       2.460631384807126      9.1589953966834994      16.872681652608431
  2415   1      37.423402230313528      34.159603529020423      7.1792077306840874
  2416   1      6.8566205672891289      30.598558639131998      36.407864140728257
  2417   1      48.998187853661861      7.4293171139890113      22.393371279119425
  2418   1      28.223460873965042      3.8919374169888714      11.853397220516182
  2419   1      34.834965668467632      18.261972265452762       24.60460333971422
  2420   1       35.78949108306751      21.548640602067088      32.679577873035484
  2421   1     0.61604583377868594      35.163194889497007      29.998106070756627
  2422   1      28.303940886330171       22.35950990901005      38.473890632554877
  2423   1       8.720282720505411      31.315245859592316       39.38410153160428
  2424   1      2.4020471175269904      15.218020063178221      37.503977778375081
  2425   1      14.376542361529815      42.118743836622073      35.197996279825773
  2426   1      7.7879862321282642      40.573598371110918      17.692984037432321
  2427   1      11.678442056396694       36.09072080977981      4.3992418535896389
  2428   1      23.564298492275761      42.178348072372543      18.881645333285505
  2429   1      4.9753298946604136      29.918342545883931      32.804193690776984
  2430   1      35.888319237972532      23.750057682076392      46.778156365255619
  2431   1      4.0885061984506832      37.429887891523286      44.033904411625251
  2432   1      10.292228355990947      17.664915129061406      20.451206181136651
  2433   1      12.164432213649651       22.72074302117365      30.995506126629383
  2434   1       21.72077087444184      39.958141689808144      28.315225430233451
  2435   1      24.998379395143232      7.2544933793778066      10.038076128191152
  2436   1      27.043726043961616      27.022992378891487      15.430988601875962
  2437   1      13.406964949349673       33.17490128237705      5.9351587101955525
  2438   1      33.622383238157738      7.1485396198366571      12.918206351551431
  2439   1       10.86489372519706      45.755602446336482       30.88635362252235
  2440   1      36.479369413955368     0.31849487351135647      48.200623042283112
  2441   1      39.434414108294405      5.3653195752137615      42.693147041652267
  2442   1      25.962932073117404      17.764332483110429      17.335993035943048
  2443   1      31.771103722521659       23.02436128297515      20.717617591072433
  2444   1      3.5644168035423611      50.117175183335071    -0.25367133743839926
  2445   1      18.664964471715308       15.43724098133516      25.261906596094185
  2446   1      13.244162389358888      2.6156791992774542       37.18655230737204
  2447   1      10.049818868905072        18.3896553138173      42.039232925531316
  2448   1     0.16705643778125104      47.259092110826046      47.704763940439584
  2449   1       9.290152208409312       37.13355331175616      8.7108581457203851
  2450   1      6.7805628923419707      20.821166442623234      32.600450130952453
  2451   1      31.056758926018116       13.77632319049704      26.214124355835551
  2452   1      45.412175144118798      9.4096202705706649      35.954343398632432
  2453   1      45.355644242884253      20.385541373256366      49.275387221632329
  2454   1      14.163550853488262      41.822454093807572      8.6527057435451713
  2455   1       39.70901417428361      36.161398047225433      44.327956750472232
  2456   1      9.0617546963112225      3.7562645699046993      37.212385745126213
  2457   1      3.9400756975552111      25.694243111361128      34.714002064911249
  2458   1      5.5628376876661676      18.735435850164318      26.239559891435697
  2459   1      34.178436432795507      34.738050858194462      23.930001445691047
  2460   1      32.912256926479998      20.918404196137999      13.546762969925959
  2461   1      24.380122512633026       9.902723847018061      37.665794566326639
  2462   1       6.067229327755264      8.9620019790116334      1.5972573679362623
  2463   1      49.648583000361825      9.4243318810019812      5.5736749618568773
  2464   1       4.971735437535469      24.229261220631923       16.19275227750062
  2465   1      30.705261405094223      25.922497913493537      22.010178798271653
  2466   1      29.642823169330885      2.8957785112196732      9.0551360348627092
  2467   1      3.0362673155871907      14.076200015301399      25.646792142596471
  2468   1      35.772839086315074      35.479754302446445      31.080286727354228
  2469   1      15.185903209473096      20.157343979609777      30.860856564052671
  2470   1      13.732416538780337      6.5323290198243873      42.441259742837154
  2471   1      43.604344222412514      29.093016385751778     -1.8748291840071611
  2472   1      34.362683243456736      1.6849059539876012       30.35742220222037
  2473   1      41.637807833632628      43.989008443115104      40.640960211096015
  2474   1      26.839433460390325      36.379920108497004      40.043543091198664
  2475   1      32.924606657176973      24.706685246105458      29.800245521520456
  2476   1      46.929828809418389      32.595527880255787      33.296584919125969
  2477   1      41.637948167706256      3.5070339322999624      14.618292162257065
  2478   1      15.694154142101835      2.6779084198868119      4.1095360609873897
  2479   1      20.507660993858579      43.120745498576909        2.56076155543753
  2480   1      10.297723676784216      45.891079849058229      13.890025375329733
  2481   1      36.900876589426339       39.53530501966754      15.886770276584858
  2482   1      44.852606887065001       41.82477856236207      37.728673799290277
  2483   1       23.60164889816425      35.300230323755798      43.259025316799018
  2484   1      2.0431031232046193       10.59354832229474      42.284555615182164
  2485   1      48.712570791175366      41.109495402479055      17.460628915611075
  2486   1      30.204126744998966       45.27160685365871      39.508419291562397
  2487   1      22.240089432318388       29.92291521220033      30.319441575204959
  2488   1    0.026534026748738518       5.084050415984068      35.153518354151487
  2489   1       33.69272339493763      39.608209843726442     0.31267394131060811
  2490   1      38.396764662712741       24.08929982173704      35.742651241839212
  2491   1      6.5411791894015714      46.559990929221215      12.475444902049617
  2492   1      29.081408900598266      24.593469934649907     -1.5096288067426566
  2493   1      11.419312711724528       25.16129592080846      46.889172354280888
  2494   1      35.636749680793663      11.659399767097639      9.0809789778306413
  2495   1      15.901546106363716      40.486760700563536      38.390548503138838
  2496   1      15.032987830261121      41.066930635901464      47.320290907526989
  2497   1      32.527572890736735      22.957709402408565      42.636324655295425
  2498   1      34.586105028273813      41.724033767150686      16.757761265291396
  2499   1      11.155349906375704      22.879828904226031      16.732366892493921
  2500   1       9.058536513752383      11.253726488360575      34.307097023550114
  2501   1       44.32784127283896      15.658588845367026      11.399892277114576
  2502   1      1.3357607262668003      29.838677088945186      45.952785042492017
  2503   1      13.314634390365329      22.240766333738588      27.823395905144928
  2504   1      35.388211544889188       33.00787035605093      34.074264967435205
  2505   1      12.150407138663846      31.377771291802031      12.558861963890536
  2506   1      25.883238544220465      28.942299348549174      36.978567024441539
  2507   1      21.276744178503172      39.740731242474261       46.00773157739853
  2508   1       3.503268706778516      41.284557337492963      15.582312117743699
  2509   1       11.42309842369594      2.1468914949692888      12.611579918184809
  2510   1      25.203763822330991      2.7728558718075109      13.957579018693188
  2511   1      18.767357080066375      46.588309261269018      33.698202109248832
  2512   1      14.760762361836335     0.89719237520104367      7.2807399752782551
  2513   1      22.998690583492706      35.049620516641177      19.363099895925007
  2514   1      42.248397774552203      7.1403162998258365      4.7542262712423575
  2515   1      21.685759590386525      46.394738789850365      50.400854176113477
  2516   1      18.648913120945839      23.080783034213209      30.197236818720366
  2517   1      29.086443772062136      24.298399961065847      31.850747465193923
  2518   1      6.7757723545137321      1.3645747532782451      21.736083191817382
  2519   1      35.443976319331512       43.43719256469123      33.225296117669927
  2520   1      32.384713514179253      3.7580595930308753      19.759141599241371
  2521   1      32.572985481190223      50.171607411614893       16.70323462435552
  2522   1      12.018593239397902     0.73160135499378431      21.225762880359568
  2523   1      18.292396076368245       46.07490766471787      2.6573086555639152
  2524   1      17.495981877565505      28.290172223382182      40.360351862266342
  2525   1      15.884259314209034      15.586045014236047      15.589294472605424
  2526   1      14.673324410135486      35.615381385771713       16.99928185273324
  2527   1      1.8429215479547394      19.180417718228554      6.7266543849986897
  2528   1      18.936998098245006      39.680079850136423      1.8055024267600275
  2529   1      26.124191265340233      33.686164938245902      4.9067837597272757
  2530   1      27.083749210083887      25.068610247009509      36.865989674699414
  2531   1      11.965134799645655      8.4760130923492145      27.538666757704505
  2532   1      45.642034707041056      24.836381246630854      37.384388189821188
  2533   1      8.1475018850089853      40.705584650488078       39.93669889522964
  2534   1      46.966712965953313      19.397354837487295      30.684547000063901
  2535   1      32.667006515794789      30.264328579270973      28.254956277069716
  2536   1      35.932684049910051       18.21488008910589      47.983308354300867
  2537   1      40.690067581756132      44.518924594450162      48.805385316319054
  2538   1      36.418908234541071      9.6934677287258815       47.42474528229603
  2539   1      16.003888173430951      9.1137889737395472      32.876638335294452
  2540   1      41.245702086456596      39.912200800126584      13.461688722254037
  2541   1      21.575805201137822      28.079422636767958      26.443927965549328
  2542   1      38.292079147722127      42.439427618586244      47.498208633177867
  2543   1      12.073375606351007      14.529923823915725      33.522807120197669
  2544   1      30.777322068161972      2.6085626975338014      22.390989524415733
  2545   1      12.868307205460102      21.507645100343762      9.8659728787208607
  2546   1      17.268005821539287      4.9451690624766407      28.103999923445873
  2547   1      6.0425594220221477      21.410250224384896      36.734595175840873
  2548   1      6.4238817030596476      34.251736680795091      9.8052898632354353
  2549   1      17.048309587517135      43.106491370699374      15.490929301913237
  2550   1       41.88501150521251      9.9633945473479724      39.086917341893873
  2551   1      39.771425186152733      9.3831343720250917      2.4353530969606214
  2552   1      4.2660458783676276      20.015261352481009      39.217849811360097
  2553   1      35.929964518286511      3.0495084566234816      27.487021555563953
  2554   1      12.961455080025329      16.102549248973411      3.2226209069903784
  2555   1      6.4426424734963019        24.2611321212147      27.013506275187282
  2556   1     -2.5069688428238015      3.5570522776296909      33.456613789963498
  2557   1      8.5313525295893697      38.215018120525563    -0.47688012022585891
  2558   1      34.192330508221396      5.9105329214384259       6.390175003367693
  2559   1       27.69807562566011      13.728988466246843      25.779818905985728
  2560   1      46.886055961815458      8.5695741868139361      46.648100239776355
  2561   1      27.480022877960632      42.472998616826807      8.9343185389261777
  2562   1        13.0918440195026      5.1911859875627471      48.168183864221163
  2563   1      26.367714399859377      18.267400354914859      28.904455599396975
  2564   1      13.267636187128341      15.614789214630465      23.088567160760771
  2565   1      14.791830360885568      35.997066197721402      32.913910112450679
  2566   1      4.4958607238092378      6.1371480864646015       25.19623944418792
  2567   1      1.8839925542296845      45.320037512748243      15.874555465376197
  2568   1      49.015786983097847      29.873984730022652       4.998003895271891
  2569   1      31.078834026464868      46.814571117554031      6.1018285533289607
  2570   1        3.49640846210858       21.45901177387832      26.844986838472966
  2571   1      38.072253250124717      6.5528280857606518      26.511453643724682
  2572   1      47.949783297868443      13.399100664913187      47.688653238391261
  2573   1       25.44886359332202      21.494038318699946      19.361199527941551
  2574   1      37.024461838304596      17.796041814131105       18.78469329342515
  2575   1      11.679116648133787      43.583622420784721      11.108173814598562
  2576   1      15.976688460527383      5.5614051270564921      33.096381202184048
  2577   1      12.941755424406391      10.550137190290597      13.564979696995691
  2578   1      15.663703575044865      37.131636053954971      3.2940973281327004
  2579   1      8.2346510167151266      6.6145547928392636      40.558594757736621
  2580   1      6.7068570856932963      27.346708452459833      33.978721137333466
  2581   1      18.155358996630188      16.869195914175602      42.722342240089034
  2582   1      31.828565597895665      21.707527496616581      16.920162882602316
  2583   1      29.127121246805668      33.000745541717677      33.595578475528285
  2584   1      28.710220111922574      24.238563725567285      41.955449587961866
  2585   1      27.449535369012843      27.972432721649412      10.439526393132741
  2586   1      48.012064731524219      39.224285351269302      31.419952946669838
  2587   1      20.580718504497199      12.193826446303149      8.1946219375086855
  2588   1      34.931274269764771     0.58569469913099159      40.548561936091133
  2589   1      16.352414207795071      46.401146362428086      14.547930869920373
  2590   1      27.605883088529826      10.132026510195333      1.3393050537059226
  2591   1      33.911939259447429      32.281359105802274      44.256606862449509
  2592   1      32.855512430473681      44.937617535285156      28.418239678989572
  2593   1      35.233296670115998      40.775439937877145      34.844590575837543
  2594   1      10.311370184994823      30.789093957395032      33.066209929071277
  2595   1      35.493186218096248      42.593157514615797      37.772675671080542
  2596   1      36.662876927614143       10.23461962324566      16.815284588994206
  2597   1      44.860642007049265      32.282422353514029      11.699185251616209
  2598   1      20.197454809769027      9.5451307918025083      43.450232494468523
  2599   1      5.0243671091912701      41.157045747116385      19.443707213306737
  2600   1      18.744301984449823      33.701741140620825      46.122340225834847
  2601   1       44.27865693982595      11.886905107571213      37.707305668981576
  2602   1      26.134104738371676      14.276618214969545      30.796472725342266
  2603   1      23.037846481157914      40.590868324666694      23.789801753514578
  2604   1      22.053606253500476      39.322140101732344      42.698252739283689
  2605   1       50.87725336769342       6.108650963229775      11.136501893619753
  2606   1      21.643610369255125        17.7857424040218      8.2479033014236016
  2607   1      37.909982348837794      18.519139541300287      32.487219854856981
  2608   1      30.033068333728192      48.017818924011344      1.5159308760791592
  2609   1      34.826905080107302      10.980078947492071      30.166048960425652
  2610   1      2.5407875401919648      19.597480151474418     0.63918107608245789
  2611   1      42.720308297100999       14.53962989685038      2.8312468201372414
  2612   1      15.419537422264559      4.5137449280567186      10.994320759999972
  2613   1      31.200242149036111      2.1801509979282021      29.774282549894799
  2614   1       48.08533526940996      6.6686597203791793      39.101606833263176
  2615   1      14.144396747087452         11.416743858935      1.1910761365000524
  2616   1      13.766470926306843      24.442648964986827      12.348340021483837
  2617   1      19.156512027009221      37.762413829935454      30.921547898124896
  2618   1      49.185603686777021      25.393201658586825      30.150588882764058
  2619   1      24.955591631307264      32.940183630571894      1.3403945563971389
  2620   1      8.2526570407780557      44.530489289009722      29.683664824414716
  2621   1      18.871858692064016      39.367489783457991      21.747478033713264
  2622   1      25.946287195237648      45.764326108249712      40.013028371820795
  2623   1      5.0397466994680071      5.0017494549576149      12.249110559222899
  2624   1      6.2905711725400728      10.386130973141613      21.791607487800842
  2625   1      43.506504619190849      12.585462051151641      34.164119452956491
  2626   1      49.007559954988814      19.103836673929344      22.135494566278489
  2627   1      19.792899881469939      31.241710766322683       2.438529224802314
  2628   1       42.45245349863918      30.238539451209622      6.9912338276626675
  2629   1      17.967574625305726      30.763117462718558      36.367094384831127
  2630   1      43.226182519944778      44.534332254412604      21.997909221670927
  2631   1      8.0667713357285074      43.750864608305385      45.623416775858622
  2632   1      46.310342510811601      29.404495757109018      10.668125602977724
  2633   1      5.7654013016865848       39.85404812970652      42.077832015770845
  2634   1      11.347357822806037      28.218404140260091      45.099754315646166
  2635   1      18.772309802976707      23.770078282256083      13.517802149600275
  2636   1      33.578625585829371      36.727071327756072       40.28077359140363
  2637   1      43.194320573293808      12.663991867701672      10.974665681300102
  2638   1      7.3831469457487557      18.874714515831357      21.238322511124377
  2639   1      7.2645977493852048      9.1077613358690446      7.6562907118826518
  2640   1      11.138936417073042      5.0493491945981432      19.445923092471112
  2641   1      11.920182876591923      24.466845878435876      23.263488625627001
  2642   1      31.127590820734415      46.791128023089506      22.856069183857304
  2643   1      9.4471452777055767      18.630042648828905      11.407934178843144
  2644   1      7.7904610032823598      12.376650547890156      41.443814438137444
  2645   1      36.101220510869595      45.284629361263235      35.830178135184696
  2646   1      14.191086260168706      8.3511935599148703     0.11527524000304656
  2647   1      6.9163998505879629      3.8397234487072498       24.34858300207177
  2648   1       2.648950128317352      14.499049462483786      14.013000919170539
  2649   1      45.619167566026185      28.640679307904893      26.041640701444329
  2650   1      34.550085520436248       33.83941496175968      49.535848989910285
  2651   1      31.922691961552662      14.078392703743228      17.685500044041358
  2652   1      38.983218504513417      28.840381834095044      29.475616753363123
  2653   1      34.733514614200558      23.482653908825917      21.853772669543432
  2654   1      18.285051740997396      12.344023579973621      2.2760763349675446
  2655   1    0.070614937907389749      43.223098573935175      8.4627209616499997
  2656   1      37.995353053081047      42.200153497621187      35.433761426141146
  2657   1      11.088799429987962      7.9055676541265552      33.431923855783502
  2658   1       31.45558698888669      16.081059294867252      10.265026642663303
  2659   1      34.062263503104887      5.5869215484249573      32.088689358617948
  2660   1      40.317770261491475      23.826453044773185      43.751473686824923
  2661   1      17.273813630764579      19.013895538956319      35.121563952977176
  2662   1      11.668493706819287      18.281624403704285      31.934394656544242
  2663   1      35.117285014204953      21.272526808822843      7.2049268237989512
  2664   1      40.900881622578702      33.847377551519358        15.1675898467773
  2665   1      3.7389190315513772      8.7867060793772556      11.742267386370211
  2666   1      24.527771219928574      48.164530030584771      28.211145976597578
  2667   1      44.637844126440378      48.281778261251368      1.4749779141932058
  2668   1      46.216458309002242      4.0457904371579154      45.821345085009781
  2669   1      8.0306865529598177      37.318886062344063      41.043822139458968
  2670   1      14.806176367734958      21.357682280358034      36.318283914005988
  2671   1      13.654889685545937      18.751904513901387      22.345923936474403
  2672   1      1.0189824742963707      25.221500833974076      43.840920575835469
  2673   1      38.183885087801748      36.850820374628341      25.016808358505333
  2674   1      2.2411413949839001      18.747632063734518      25.639255589085202
  2675   1      9.5740054919184079    -0.84297293457054134      18.849392984538735
  2676   1      2.2817636313446248      42.950635657882444      12.658766821213545
  2677   1      40.441031370902927      2.8018681636107026      26.554819505445675
  2678   1      36.309060915696861      37.043857213749014      37.374353067156072
  2679   1      5.7473653702469152      16.973705390438827      33.074158954779882
  2680   1      2.4860745737958059      40.553422183865599      22.291103855646266
  2681   1      37.133064281119367      9.7428030672499517      24.112927807845754
  2682   1      8.2490802691696672      7.8302139133702884      20.739001593427535
  2683   1      18.203759742869487      18.803008739217749      19.301462329112297
  2684   1      35.486841326646676      22.528364402623595      14.817186523189015
  2685   1      3.1995778409026676      28.662509880190608      18.914248355400375
  2686   1        43.1181991757921      7.4577450282169728      27.995773505196357
  2687   1      32.925499255360414      34.861850998839593      28.058203684924177
  2688   1      39.973118282660629      35.039798299727799      9.1988034417238129
  2689   1      35.998824658360853      6.5118725368532502      45.237444823739082
  2690   1       23.47690766854701      44.252880680869325      3.4174932721882265
  2691   1      37.673509380149262       34.04093527867397      45.755151409046462
  2692   1      24.936484100469009      37.944325236325696      37.261638230359289
  2693   1      31.430168701722657      8.9985433572721671      43.531387845581023
  2694   1      5.9194005767711646      24.772114708789502      48.271026958396867
  2695   1      13.667711715388119      41.134696142915374      31.654685452663553
  2696   1      47.109395066942696      28.196384457399159      39.500015878091489
  2697   1      33.010772876007522      37.019729946046496      25.774798928790041
  2698   1      28.065695020781973      14.039908813597641      37.579864213993119
  2699   1       3.165797118287601       38.47081515072081      33.270043420867182
  2700   1      8.9312771980115233      19.654993910931207      37.460496197462518
  2701   1      41.423392060722726       18.52529485013121      16.203168783213574
  2702   1      36.377389569069464      27.260395423472861      8.9015735592996705
  2703   1      46.921072139740382      30.300061522933863      19.796676916504595
  2704   1      21.732328235915446      1.6056716908089947     0.88410360385534192
  2705   1      15.467637645652408      21.878541338917454      8.0316879871351787
  2706   1      31.114524961251895      22.688026233720787      36.076095372385581
  2707   1     0.46973716555691986      12.245687369768859      19.922517528760309
  2708   1      11.028911394129905      18.579112142910816      45.341826138667535
  2709   1       39.40496814441611      13.703548892599505      4.4685301924670595
  2710   1      23.415095410068481      35.003429143550825      7.5076874622801455
  2711   1       30.49639950836178      35.980347802626724      32.739307413463514
  2712   1      14.419697785383763      3.2430449599514355      27.435379641296674
  2713   1     -1.0782833244318799      9.0180193542362677       24.83546206889152
  2714   1      36.593022006325064      13.931008844466882      29.900550051572942
  2715   1      16.647950693979279      20.694493123807206      27.934830957111956
  2716   1      6.8494564713185175   -0.018800428080525077      45.222095206462718
  2717   1      37.198967536619975      13.340403437470874      47.078187410240048
  2718   1      6.2557103230682589      14.832697546168214      42.878547550120217
  2719   1      3.6716655635424575      35.595285728939075      31.226643688483414
  2720   1      41.284238472403878      39.355323445046686      33.043785064673102
  2721   1      27.676201053388738      22.015445677469295      35.347135350099563
  2722   1      44.981613078348182      6.4439187166191685      10.528757279341539
  2723   1      45.859989693041989      39.272756753322071       34.83828284898469
  2724   1      28.634170255949517      10.409384579990537       32.09029378159309
  2725   1      21.626318426430057      37.723654448397667      2.0893134481120321
  2726   1      22.289576855912998      46.271820488794042      34.413565450832792
  2727   1      21.571653009857986      30.503470176528854      21.519064288567439
  2728   1       7.309940387589883      5.2127642683310382      1.7965069442881567
  2729   1      33.197485354185396      15.130390729224379       39.88776838859291
  2730   1      8.6306433823040098      41.717684098101472      42.867283554296932
  2731   1      10.964795431211893      14.355362638500001      1.4224366693683954
  2732   1      43.993596019221101      1.4547123971752673      30.604687655354425
  2733   1      11.911975598551996      13.050941193176065      4.1329352975223355
  2734   1      1.3146047303761665      35.043179680459374      35.410525296069949
  2735   1      15.045459177372738        22.2643816278425       19.65010900939982
  2736   1      41.134814073238623      44.334841507019043      14.187064942520852
  2737   1      46.467437108782498      32.075861362932429      42.506885736289675
  2738   1      45.727141240961288      21.490500972481417      28.618837065539736
  2739   1      27.257367114128716       13.79092216940534      17.134144262881389
  2740   1      10.714043251161078      28.055349973007321       34.99203444007523
  2741   1       2.390359476658471       9.224308037098508      1.9299497673025525
  2742   1      32.614841165622295       14.40285312173679      2.6765052166183252
  2743   1      29.577488236874032      22.326051154514076      11.744610071430476
  2744   1      34.618363053592375      42.026661540459777       28.27595467929115
  2745   1      47.976592035527467      14.579919688260954      38.805455820108193
  2746   1      20.704470102633437      41.940443591600307      11.253137749047237
  2747   1      48.346836620723089       29.62914441757308      30.672218551274526
  2748   1      33.434739867666856      25.523637723774485      19.848359066582866
  2749   1      1.1615345327723068    -0.56275887162275839      21.738918694291606
  2750   1      0.3336058944362944      34.081448563762081      47.795076939111766
  2751   1         46.260393167158      40.319586958800294      14.763493840312307
  2752   1      17.728191915182396      24.268340361449003      16.798752349205067
  2753   1      21.790818071789559      1.8154347812874583      26.683853860227149
  2754   1      23.414059085317888      46.603322567974821      20.961911743318854
  2755   1    -0.35915053448569739      7.1370776345025186      12.786864257882039
  2756   1      34.182264753377702      5.0085826458275831      23.328897428119667
  2757   1      29.153507253043426      36.706080526052183      12.277133948887954
  2758   1      45.208371397519947       9.331910365584168      39.535891936718095
  2759   1      1.1885737394226736      9.8946995996842038      13.437695469263488
  2760   1      21.225305582266522      47.574787505431892      17.226843919345544
  2761   1      33.166621043900157      41.445850624570916      7.9607640145902803
  2762   1      16.901102020561645      12.067521514875125      14.901709418348421
  2763   1      39.167623918864926       45.44060673933442      2.9018819792816388
  2764   1      21.228151554040316      8.8759325293080344      34.573180833384498
  2765   1     0.84501391555904859      40.132592299393721      8.8012191252406033
  2766   1      41.722337147614844      13.343668346896241      8.1383437174794526
  2767   1       35.78070767570258      32.891441166802075      9.8504661693019173
  2768   1      32.217676176466455      6.4974511900270979      35.142951290988051
  2769   1      41.078306484616803      37.118420101539662      6.5728667316360054
  2770   1      35.023690795350305      30.586600899579761      7.2627838164893488
  2771   1      20.821891689166161      28.405735785099591      18.934756161452935
  2772   1      20.078623270280534      24.164735583820427      37.147796105221644
  2773   1      3.4488348113170892      39.928477776259584      38.939188269887147
  2774   1      48.547787897956319      27.046348293652965      36.565607860508329
  2775   1      14.498198051316885      32.399106116071849      37.020690344804741
  2776   1      36.621682200017958      12.865639536180602      37.586714491146516
  2777   1      17.627742264401544      11.268733061033922      25.930653647503409
  2778   1      16.893555736523862       19.01510365560264      9.1333470142078017
  2779   1      28.312776081808799      42.013639858772102      27.639299046536358
  2780   1      33.273745200420265      26.139308137327351      3.3835546874711073
  2781   1      16.685232743604367       21.40341662516369      15.131359999481854
  2782   1      1.3630282959687852      22.621468245673871      41.563780222574458
  2783   1      16.276544055002539       34.76288748469355      35.441244855711481
  2784   1      43.494872499497284      33.387462699335188      6.7406006229668431
  2785   1      7.9118633992821561      33.389066501411435      35.155920274276831
  2786   1      44.034118288617591      14.289181251831188      48.766864450814431
  2787   1      19.288769801060756      6.4245656251752568      34.277248525965938
  2788   1      22.659739348117878      13.411246442882781      38.888895212357689
  2789   1      7.6280530529557673      18.551408219926042      14.118120874610549
  2790   1      7.2040873487456363      45.985082816794019      35.474744405804501
  2791   1      25.883698750507524      27.432043073247769      19.134459005626525
  2792   1      26.812987796984388       41.37104211376829      4.2380879345778251
  2793   1      25.016245968933738      4.7167419949735558      44.862549849125969
  2794   1      48.490319858079403       12.83989083238062      31.049829418897783
  2795   1      40.195326929862013      31.854232721488184      29.029220892996513
  2796   1    -0.43183842870338779      7.7658435834142647       30.67010919186929
  2797   1      8.7443188426452263      45.666421304371909      10.119250568926335
  2798   1      31.337350122936826      34.547431801968052      21.118975014759691
  2799   1      21.822534808204807      34.481758598245612      45.996073124008355
  2800   1      19.542755814891283      27.191786839908776      11.272767877271177
  2801   1      24.841744406745939      24.414837825026495      16.294198266456405
  2802   1      20.887836745921156      28.679452073592458      42.249745426430295
  2803   1      23.597073370517698      35.157071395164557      36.038757945240008
  2804   1       17.83762438356986      28.423262215655416      24.199848220117346
  2805   1      40.180472793146649      37.872619351845685       39.79490462511616
  2806   1      27.938225839768194      12.127387134524446      19.550638072549859
  2807   1      44.372987956174356      19.316595082719981       9.127210820083322
  2808   1      23.204837616127747      29.818388878632522      4.0997775039881246
  2809   1      19.687572928927636      48.215948884366796      47.198144229466621
  2810   1      38.758852578401068      37.698085544248016       3.432052541773071
  2811   1      30.396774766876081      43.450143357066914      7.5471794469201443
  2812   1      26.148164525609339        7.11665394203769      22.797573334637029
  2813   1      31.227851702334952       3.970626886989912      44.028173944807094
  2814   1      10.851707054029212      10.314428972329786      48.096839317245205
  2815   1      32.562935115570475      10.635672741204894      17.479518433950755
  2816   1       42.39080801411523      7.0663230760870395      31.524575123270125
  2817   1      27.473628306200851      18.535482434241764      39.836726103808289
  2818   1      3.3410389185137306      21.171666916829892      34.729403109449997
  2819   1      45.083133891921214     0.80880198592700048      18.291256368186122
  2820   1      14.868044315238436      36.804859745654284      28.951020798977439
  2821   1      20.538891384858005      19.684233760966613      36.284189895224458
  2822   1      13.177734988208254      13.451332744455593      15.648861363519373
  2823   1      31.111239001678381      3.2390877174679553      40.868580902241462
  2824   1      23.317314072805118      42.376963875579797      6.7507713556066369
  2825   1      37.862023895644064      8.0043122203623351      11.347433275022318
  2826   1      12.852720489888199      46.634388431012695       20.11831504901668
  2827   1      45.115607696587432      5.0263839715414216      7.4268449678632962
  2828   1      15.572253668504322      6.2255655825980263      18.555099350843836
  2829   1      7.7977016045851268      7.5516096009394831      12.242745326213761
  2830   1      43.585021051300856      42.175874277344846      32.839741174794568
  2831   1      6.5699084880954448      16.040593091430072      47.601686935239371
  2832   1      15.481411896167131      46.786817639237768      4.2782532986585675
  2833   1      34.090746539820785       8.907529245405474      39.725887446223581
  2834   1      24.513911791676154      12.621965810812618      15.084402386019127
  2835   1      22.352593692586019      15.849715942659126       35.96414957447351
  2836   1      14.180394736122064      4.6473111893431165      21.022120248533884
  2837   1      13.198578936055043       44.93903496148554      6.2939128259565393
  2838   1      34.489488899186355   -0.022971721146314038      37.145502514527998
  2839   1      48.361104601194192      14.480101155691974      15.210864333195484
  2840   1      8.2969465437292715      42.278574761376667      50.253301972478603
  2841   1      46.931878112491042      40.920816617654857      7.0459302327872297
  2842   1      25.399527718336255      28.585975024574449      30.114869267936381
  2843   1      37.584621621795009      34.051404584067548       2.727563589310007
  2844   1      28.632313234086517      18.679927761612554       33.14253251168271
  2845   1      21.833653194141672      11.548601699179567      11.164957804194616
  2846   1      9.5814322744075042      11.848722521285358       11.82489591069465
  2847   1      23.140410326226341      5.8312730923204859      7.6693101705234401
  2848   1      17.395521904388961      37.585696186308326      26.877627751642454
  2849   1       38.87665319496049      17.023013015648349      38.014202444103873
  2850   1      29.513304800245614      32.225280278547388      4.4677159492195537
  2851   1      45.990368105566318      19.096121473010239       23.51562463562043
  2852   1       17.38019787860571      23.888572572890638      41.020913646407998
  2853   1      7.4215782571965132      37.825669621894363        44.7027528771292
  2854   1      6.6073291914343306      48.529789284066617       49.42190563552284
  2855   1       29.62648183876674      33.973304156242499      10.548244258447088
  2856   1      36.818961379375793      26.694285367631888      12.850979735914906
  2857   1      45.431023938677257      15.766488539798086      28.886412603097227
  2858   1      26.747253502467402      40.485472380408751      48.397380417949265
  2859   1      38.467490844145424      41.841095496588792      13.033826512631254
  2860   1      17.982097895841285      12.425009908051862      5.6381571015713625
  2861   1      18.807901283604032      9.6369184378942432      15.893818958804676
  2862   1      24.272805880243844      38.761306561404481      30.280235754071104
  2863   1      21.766507267842883      30.629614596827604      44.549306582194681
  2864   1      12.180120579347877      4.7658886579375617      4.1366295413875438
  2865   1      40.589054328189675      38.644031587101935      10.398688900765693
  2866   1      5.9046578627569639      35.508232829305641      27.604246441038281
  2867   1      39.551253457865613      45.409944644698832       45.41013997119191
  2868   1      40.013178481495025      49.198482976988274      12.311600235611932
  2869   1       19.42106248602418      40.672188357886526      35.003156301162811
  2870   1      26.931445752147219      3.4982714747559847      47.844803577261004
  2871   1      3.8930538741089822      5.9102445166869133      18.050865813291527
  2872   1     0.82676830447572092      21.744988484026774        2.65195516259551
  2873   1       36.13940384299358      19.790765424255735      2.7977428034714258
  2874   1      31.614430862419589      41.443645506931183      34.167489102043518
  2875   1      31.116219706157949       32.42887439685552      13.172867306153664
  2876   1      14.173019860804194      18.025764347695116      13.959775915281282
  2877   1      43.842437469138744      4.5640926139329121     0.78948690166103619
  2878   1       41.96005344821986      7.1848946465781713      11.926350220574799
  2879   1      27.062899855895829      26.225277255841117      33.570479332906395
  2880   1      9.6911837739029298      32.894590274066388      5.0207667801152622
  2881   1      47.678802021012231      18.918307187357595      27.342481574069179
  2882   1      4.5009049924520212      17.126497636183931      11.578752698708046
  2883   1      28.055723595892768      37.267966452884323      26.477840139375679
  2884   1      43.218846672515234      6.3334279221904977      42.497710396816323
  2885   1      29.037022884027355      20.311130406002082      22.279977568952436
  2886   1      32.507225946453971      6.5451880755444956      41.427610112580133
  2887   1      43.539965356420304      34.656269140244241      43.409822270837701
  2888   1      15.043623851101946      27.788501860681293      45.933912071974611
  2889   1      32.678287677127429      9.9554671107425587      37.158244028921807
  2890   1      12.406239829745566      48.273279229197534      33.412615040586033
  2891   1       44.62097621638187      22.627800527669393      3.5297924278170862
  2892   1      37.992115711049166      47.482020236641631      43.354400221916542
  2893   1      29.672944530406326      44.313880225647104      3.2585628103774074
  2894   1      28.883070758186268      7.3912822803565383    -0.33234841622249378
  2895   1      37.070800316389992      19.059706368208055      5.8641180936196262
  2896   1      13.501740731590592      14.885299654446959      8.3454384198189597
  2897   1      17.008193317507278       33.71267924556328      28.623697607725205
  2898   1       17.99322476756619      4.3914921977630339      13.192976353573636
  2899   1      46.277025557115444      35.756091292594697       33.14963460380504
  2900   1      23.529900709597712      14.000073898430488      48.047093665318613
  2901   1      42.014607869464989      22.749035343077328      13.680655549990957
  2902   1      39.348732639270651      35.549044098175422      37.585985158580506
  2903   1      24.746323941564857      31.894897778941338      38.034499706220039
  2904   1      47.724956788513808      18.866484221610182      2.9046674510019721
  2905   1      30.831427539448828      16.471454431396172      6.3490495056614753
  2906   1      42.142066812714624      10.259544270817157      29.227883306330821
  2907   1      38.846751186540892      45.427741486508651        33.7330128462904
  2908   1      24.360391826315798      1.5389035890955303      11.050654012621498
  2909   1     -1.5546042184682294      27.043491390782837       4.517351114075538
  2910   1        12.1067628857459     -1.4492693649190778      38.579219042392388
  2911   1      34.285398123280615      8.4764526523968851       33.46471563646071
  2912   1      32.193795763063086      36.109495454890407      1.6810352649774769
  2913   1      12.822114783715721      21.585886091136349      48.377594022485781
  2914   1      0.5781558574412099      34.949687742398595      43.714017567547721
  2915   1      43.043067363452153      19.743159373670395      29.913573041937497
  2916   1       11.02318056862895      39.782644831359647      9.8847386357611668
  2917   1      25.865767955929737      35.592487151889706      17.686259473443631
  2918   1    0.089694023396429193      34.498747945646784      12.968597892197597
  2919   1       41.43926568908401      25.662673246322566      11.689627078167215
  2920   1      14.542598358882932      10.904541698452991      24.384279667695214
  2921   1      35.348475927537201         30.395921009014      38.476440375562724
  2922   1      31.702397428705883       19.68897656745343      7.1603368108417955
  2923   1       38.34158249340296      48.674655442112339      26.973586124825477
  2924   1      16.727619624904005      43.369436145514634      33.117814573408175
  2925   1     0.38528620254864304      32.675963516950056      10.230949537801548
  2926   1      32.730345275572923      44.263282229172773       10.17140411126158
  2927   1      20.972240917703019      17.604153529664657      19.429565808772526
  2928   1      27.158837541948863      6.9910148677816091      27.627369939495647
  2929   1      1.8636363468131794       25.75088955374445      40.726553466151422
  2930   1      44.226871891542011      37.744611116462288      5.5990507913561007
  2931   1      10.917260936654879      47.234823452710152      6.7161295064101338
  2932   1      17.839060163899234       12.22760166632866      18.073459455077941
  2933   1      1.4395203430350476       31.29115629064092      17.313830040631153
  2934   1      36.608330077647189      44.650510116104428      19.819149270428998
  2935   1      5.0615908387127808      39.285410111919894      14.077408627125326
  2936   1      34.577219795582522      37.928524056114718      32.919767583553423
  2937   1    -0.17951098412298269      5.4034719599565069      19.716962783576736
  2938   1      12.599168247116163      2.3027511752273462      9.5193746324705835
  2939   1      21.129806269751803      35.719341101537637      27.478712913732814
  2940   1      48.643062605011032       1.147303997237529      30.189261848137892
  2941   1      27.895571755418857      16.453376085696213      12.263409333774351
  2942   1      5.0071938084065328       35.43375393494712      12.692754203699918
  2943   1       19.51945044708517      5.8625548025718963      16.522726795695814
  2944   1      13.698267714255273       13.45791808141102      36.506958686896695
  2945   1       10.53238481034435      14.100196615196264       46.85467654815772
  2946   1      28.455242252765167      45.853576022149042      33.065015281133633
  2947   1     0.50704129117336605      34.980146388132603      7.5718464654793003
  2948   1      27.394480907938199      49.855645336724884      1.8079905155509235
  2949   1      44.828876595060208      15.793137297214617      15.061735819893759
  2950   1      25.751934676924403      18.444202189941624      43.578806720798958
  2951   1     0.77082583860775644     0.97538472290859835      18.109580874727786
  2952   1      48.461211573038781      9.1091581747058736       19.10257620770318
  2953   1      14.184756072049639      28.801231831626581       35.32016020788943
  2954   1      39.062956086490395      21.371913187177316      49.540235227901135
  2955   1      1.9376422205604367      43.836919138343887      48.302219131604652
  2956   1      30.933084876112897      48.134347248614226      35.652381974476206
  2957   1      32.138267406099054      45.068084823510155     0.93397307157331999
  2958   1      23.873003913009565      39.015692276274429      16.387988893051652
  2959   1    -0.24761252355580191      21.299307048472919      16.807331226086159
  2960   1      8.5183172226512092       36.12739234839394       24.29683666038385
  2961   1      35.842677157706831      21.013781565464093       18.90722683365264
  2962   1       5.211512751519904       18.16310661644275      5.4991966794230329
  2963   1      3.8518372333796296      20.517832508477031       52.38350680605717
  2964   1      32.241784494965181      39.111780786158434      16.903355487312254
  2965   1      20.428377965187721      11.049073554209402      39.317293949978414
  2966   1      42.523127772028623      4.5909970920924259       24.56642796049799
  2967   1      24.045657273556873      46.960911248015826      46.934809274181703
  2968   1      35.355226825405175      3.5142654963032292      17.507827274410758
  2969   1      31.974298295735473      42.408675086932625      13.992423724999609
  2970   1      41.646336459697622      24.000172107234434      17.285406170754989
  2971   1      16.754190646562915      32.739401851551285       12.43366004734149
  2972   1       20.11453595110039      44.699863238356038      23.120423606661827
  2973   1      13.944548834311803      44.467278525803124      24.097915751846205
  2974   1      12.630219982782913      6.9862398984872032      17.256014884209641
  2975   1      40.295047198258771      28.338930165375977       49.23457261193952
  2976   1      23.646786159105826      29.571634935372625    -0.26888104096850418
  2977   1      2.5541364746373807      22.643983415202648      17.857401316255689
  2978   1      35.947708015309871      32.835206543033891      19.543895052552582
  2979   1      7.8708366926120377     0.43198116831003686      34.800814745756924
  2980   1      7.1886375585637357      24.613778925544366      13.877137748368837
  2981   1      9.7414676786275898      14.671121643388171      9.8258212251927475
  2982   1      31.342699904939895      48.201249409464239      9.2275585444494475
  2983   1    -0.12308730744560126      44.757837023902731      20.562668062965066
  2984   1      38.992589823653304      33.424746986359061       24.87309562691005
  2985   1      18.726659690568827      30.327149916665299        29.1522394450128
  2986   1      42.301214902955614      13.580508624675312      42.706052798439913
  2987   1      38.579565615614136      22.649272066559618      16.793199321007691
  2988   1      41.173238880298491      38.679483685193368      29.826496207297922
  2989   1      6.0050391492337862      43.793619326857687      20.751469860749939
  2990   1      44.561338017338102      4.1246535852309236      19.810542849174762
  2991   1      47.403018699713222      6.8650865678487927      15.932474926110688
  2992   1      27.804560062262446      1.6616315859744499      25.321993185324068
  2993   1      13.578635991072854      3.6174527947448039      17.773181953190825
  2994   1      28.930217930154964      37.471565211358701      46.351691112742117
  2995   1      4.3974395707250702      12.823748667595051      41.272118304170668
  2996   1       1.301960482812837      12.948985377521918       10.73196409389435
  2997   1      35.471071220329364      22.095228584461953      28.964398061325454
  2998   1       49.06733610561696       38.97050153010241      25.079988269356797
  2999   1      34.840641972668877      9.0019003704086895      5.2584754442210953
  3000   1      10.078596995913081      44.017265886479606      7.2843089463507775
  3001   1      31.708579730949545        25.4167613985807      33.476294575902074
  3002   1       47.14768961841007       22.27311944956185      33.115738327716883
  3003   1      45.544920482005281      11.556020792733593      5.4637475717187138
  3004   1      31.165445754325745      42.189220512419006      37.421549622674043
  3005   1      23.493945996035137      10.641788144989501       2.714803552943402
  3006   1      19.286282717950034       15.36702345979489      10.113692182564357
  3007   1      15.974116058663974      40.602347232538662      26.233492119577921
  3008   1       15.92865861175949      46.983627393893912      25.260803546965391
  3009   1       29.78421271925389      44.990912187389213      46.775836576265931
  3010   1      38.082792619157104      35.809946748847018      14.781190264368263
  3011   1      6.5736136803796397      25.445374494239335       37.24488620484167
  3012   1      18.358330883569728      39.496589573235767      5.2452690984923178
  3013   1      42.273544210828902      13.708700165181456      14.488638570751457
  3014   1      11.200376086640288      29.087868941743508    -0.39258080771601439
  3015   1      29.162633136449948       27.60117368138426      41.431491099685964
  3016   1      20.873635932352101      21.124613440941939      32.739742900379674
  3017   1      48.984571730725605      6.0904635343692703      7.8799663794214503
  3018   1       34.95046592355974      30.051537402754828      41.920834732774914
  3019   1      17.960069036709285      28.797311379862215      47.056498125179466
  3020   1      2.1204522984475647      5.0318167637138842      29.205493138151915
  3021   1      11.029533267983277      38.066279596533235      43.768832294174821
  3022   1      10.266538844805535      43.819179061509104      25.234152231458602
  3023   1      6.5604316293479483      3.7018999767038885      45.761203041442819
  3024   1      24.103713907585508      28.460296421285889      40.019534808094718
  3025   1       37.10763430219717      6.6416314980653466      4.7298345221017879
  3026   1      16.439430719748234      46.564071586823054      28.623255398583865
  3027   1     0.37109475477784337      42.407075123104782      33.053656341404064
  3028   1      15.075745919455086      48.842595927381097      35.523518441419739
  3029   1      45.925513842562921      33.952407951190686      30.412360959198981
  3030   1      41.330240651905612      9.4214106422850499      23.157088186427686
  3031   1      30.456699330125904      39.257755953790948      28.167665454915312
  3032   1      11.359208406823045      35.699114746031796      11.506012984117548
  3033   1      33.909264033250736       27.62252944107632      30.715187425782762
  3034   1      42.574405446712824      47.017966213069542      11.154971204073991
  3035   1      46.813512246266448      21.959160199047062      36.437342162231936
  3036   1       13.92189097394753      37.962055011724324      44.542978118826987
  3037   1      29.151254151325432      9.8438152000140065      16.916882018199445
  3038   1      23.118293660336114      18.947165805825716      23.024887359895533
  3039   1      42.752434177959024      12.392451134048011       26.46443093737701
  3040   1      43.581744333295482      15.809922048277135      24.244318631503479
  3041   1      34.679995749296857      15.230350143831906      32.565306979712084
  3042   1    -0.13750887198455877     -1.9339742016702957      44.224013216099301
  3043   1      34.248855214622623      32.714183153127379      3.8411585771732226
  3044   1      15.359132602948792      36.346890984352541      13.922144959150847
  3045   1      47.250915729465625      22.334380837130897      43.871596057020433
  3046   1      16.119951283071039      48.240144192172345       32.36703384443031
  3047   1      13.263974802405226      6.2283762898384252      8.2315886962784983
  3048   1      43.235224694044604      47.910819452546349      38.963891713045967
  3049   1      26.672868512933579      25.262185067164921      12.244423394098284
  3050   1      24.617482254428868       36.03335720077655      33.001919451186957
  3051   1      42.553971766519282      15.466262930655672      45.661114422370488
  3052   1      41.263761616059597      12.974646252563341      36.769699275692709
  3053   1      36.668615828186439      35.992264050078575       9.946762634241118
  3054   1      24.104964544737676      19.155947102278031      13.537807802917571
  3055   1      33.049898115625851      28.304095325138285      37.254033698890126
  3056   1      35.888984933800565      40.240012825796533      30.907665045822032
  3057   1      2.5278407374667693      30.099370215790533      23.499478699865282
  3058   1      13.052924168656306      27.909388976480052      41.695677449505929
  3059   1      32.461050728104979      17.260251510180776      48.712176737842896
  3060   1      34.792949371140857      18.710683283344785      20.795867353887047
  3061   1      39.199010093403764      22.241677760836513      25.309371915652115
  3062   1     0.38203723081207991      16.532398212508689       45.31362190681471
  3063   1      5.3791603811662165      27.673448265018965      46.154000935426623
  3064   1      19.958667056478234      8.2765134695789158      1.0709535694715733
  3065   1      4.0446964550454121      45.897784314753018      10.358414800619261
  3066   1      39.707360241689955      45.726429856546979      9.5459106521658192
  3067   1      46.711791263595273      45.889252498850176      38.217151815545613
  3068   1      16.958685282892425      9.2086450901838415      18.676143911728428
  3069   1      12.458295533388142      47.965512680703661    0.028237757347164886
  3070   1      23.116009934051487      22.725090420616521       13.95021074150956
  3071   1      26.799087960981911       45.93517762752424      14.567128600625175
  3072   1      19.200350850594688      45.314593585889668       19.99686482795931
  3073   1      16.892685814332104      37.903277149797638      18.297860497381478
  3074   1      33.333841203077455      14.041987284745629      29.730965912905329
  3075   1      45.948595345778173      44.154196364836473       33.66476032014598
  3076   1      17.654703132856998      43.168929811280286      21.604003709853846
  3077   1      13.093836845297002      26.929078672806245      3.6320670066852148
  3078   1      33.741462437647321      37.803325271938689      29.696789450548003
  3079   1      34.697343627502434      38.666635275933501      22.723075203588682
  3080   1      28.594997319135071      7.0959249436698499       34.52195669082343
  3081   1      22.822660370664192      21.303707932168276      30.016469786748573
  3082   1      29.960800288727583    -0.16961796900266374      44.840483644357882
  3083   1      14.405323203990141      7.1901959508871549      3.2840706233040815
  3084   1      30.299767581597379      25.089812419442534      37.775283501875336
  3085   1     0.45494541818162593      46.308305944622113      40.938155279935188
  3086   1      44.498534649242444      21.638327772240231        16.9095762471608
  3087   1      40.918801162938173      41.874837825981025      10.965334335821122
  3088   1      43.500760881596712      16.028993063627738      8.2361837433491853
  3089   1      24.817261336734926      16.323618076153469      38.181416993796418
  3090   1      1.6206110142141879      32.080039908496389      28.952380122282182
  3091   1      41.809676551468989      31.564574065842148       2.448679911852262
  3092   1        8.38604013396208      38.782630173860262      11.733678103479667
  3093   1      32.068640733772725      26.031401338353007      6.6906869920481604
  3094   1      20.756834539486235     0.60510058417753165       20.62425880244837
  3095   1       23.53447300036219      13.815618507652758      9.0756356722850349
  3096   1       10.78499951485148      28.085793326167899      12.304950070901807
  3097   1       24.90669826540325      32.569975268013955      8.8566170177004935
  3098   1      5.5771740177069526      20.844527743086385      16.283598680243092
  3099   1      31.565277115430639      25.298974940099956      15.732415418004585
  3100   1      28.166714555396947       33.30491515432886     0.25965178723371601
  3101   1      40.168585632847829       12.96683397867686      33.662850476457891
  3102   1      17.960562825961077      6.5827611532642232      4.2099071104067693
  3103   1      11.716025964398879      33.299608289261855      9.1967956683759642
  3104   1      21.126050101806339      37.012736029369933       16.70065453181067
  3105   1      12.168780772129237      42.900519192932848      44.051241795517527
  3106   1      15.079599147430894      37.886569540046715      41.425449930864652
  3107   1       31.60164351469286      19.609847631359333       46.66106061714499
  3108   1      18.336159885781825      22.172982872297183      25.506174959825987
  3109   1      26.069023339829485       35.38316009880289      10.037227782864612
  3110   1       3.506494753050867     -1.7267742110315434    -0.03040637833074316
  3111   1      35.876214164925862       23.58506298256755      1.3187384968129203
  3112   1      41.676262115917531      20.776639321492134       7.675761249340014
  3113   1      46.984626320147704       28.77263580685548      46.603245068403076
  3114   1       11.03214093224614      33.906414542672771      25.049945372193477
  3115   1      4.0702773571467654      36.389417164581843      1.1231923705778071
  3116   1       43.91522134900292      39.910396069830519      44.712248683563722
  3117   1        22.7895201162485      21.956242251517342       36.76129231789723
  3118   1      15.147238375098796      33.964556237886072      20.718576623881269
  3119   1      26.381084350665422      32.190075732077744      17.523841035748948
  3120   1      29.176758134750621      13.162959339518897      30.081863464078811
  3121   1      16.105097057608909      36.917082051850237      22.136926729613169
  3122   1      31.893881639059309       44.70642879391611      33.522836961424858
  3123   1       36.46011079526248      31.300289284822821      14.168377477312266
  3124   1      6.0311514999159428      28.192596263547067      17.505222093613586
  3125   1       26.32218839752526      21.881011774551318      5.1628370686471454
  3126   1      30.207894514749185       23.68914623213886      27.474798828047668
  3127   1       46.53738132933772      36.791330142662417      8.7569024733818495
  3128   1      36.603327438665417      7.4682234602508846       14.21406449576245
  3129   1      8.3954031656722012      40.667526649557608      25.185148672959457
  3130   1      40.787407054702449      30.825639975208773      38.918109205872355
  3131   1      38.425101319371457      36.310609971430793      18.175920720890229
  3132   1      18.783628937223281      27.363139717020122      15.692596100844943
  3133   1      24.884694930153035      25.585252800619884      46.391763819238264
  3134   1      3.2967580212018874      46.979751954058131      42.951791730988816
  3135   1      48.549155669114796      43.357788483360537      36.446474934233905
  3136   1      39.310194196075535       8.212677237010185      19.935504626663892
  3137   1      8.9839402664559014      25.691440021884681      44.021998525933668
  3138   1      38.306130539955738      11.834140225387632      11.069631263822485
  3139   1      2.2019729930116845      4.5527550639225938      45.864022372146401
  3140   1      36.650344477428057      19.085358781275641      43.357156638564319
  3141   1      9.4813047171017573      50.620973653088249      8.3015169359735133
  3142   1      25.139848774213078      37.295988815900074       1.629252162333473
  3143   1      35.159426830075432      42.269565738717191      12.936878959219321
  3144   1      8.3503112618186606      41.209253005242104      20.928001975100923
  3145   1      19.346414827661768      45.850684682339839      29.987210698516758
  3146   1      17.928599259393852      35.709961291361701      15.737390105397076
  3147   1      10.386818530421804      32.220996384117136      47.575698348755687
  3148   1      9.4193259976653518      24.172880559140125      36.816477501577829
  3149   1      2.3943700607467742      35.323490359277507      15.459012161342335
  3150   1      35.475841526042124      14.976793218319649      8.8994176486517045
  3151   1       17.74734649965275      44.138825721711157      44.965767603400593
  3152   1      24.385547272600586       14.26634358834335      27.783401221460839
  3153   1       26.40045077240622       39.20326175012039      9.0688823170448973
  3154   1      39.036561843729892      20.328578215104677      19.608571733348494
  3155   1      34.486258428725243      10.777616973115119      13.082815040753472
  3156   1      4.0817901602286382      14.753994644283058      8.4855417190189204
  3157   1      8.6261634023986247      5.6143843945665965      44.141313615706679
  3158   1      35.591233684338775       46.70412492429093      1.7140320396541284
  3159   1      41.529951165691131        31.4278070771587      24.755251511247824
  3160   1      42.985689083686523      44.236228847089443      7.1559321534018379
  3161   1      40.686780570846373      17.336512566585785      5.3300558117598653
  3162   1      7.0017105223025125      42.157306982670335      4.4279890466221135
  3163   1      36.289072965529982       6.449942250034721      20.183375699869913
  3164   1      35.653120713965201       1.282571670230984      20.726737227145801
  3165   1       21.64150891019116      13.590112722439583      16.583404913596233
  3166   1      4.3830890381279648      34.731353464215346      34.715156532996858
  3167   1   -0.086639890161006039      27.760320308430817      24.880400181529563
  3168   1      20.494646836165462      46.997163726108063      6.7066781811482441
  3169   1      5.3901214287927814      39.758627970598411       31.02557945289217
  3170   1      15.046687561263267      17.841327865008171      45.789829927152304
  3171   1        26.3682713358039      41.572480202437724      16.425744830668606
  3172   1      47.914460423889459      32.885704788403196      1.8219111606158822
  3173   1      36.896509319363076      19.924621354245524      26.593195162587616
  3174   1      21.614528257883443      21.604647521951389      10.347881339306971
  3175   1      2.7358851487410982       3.256375861961033       13.42859729147405
  3176   1      12.854642567922678      17.356794136192956      35.971364440249495
  3177   1      21.185095733837109      15.736010965668624      27.772052134690526
  3178   1      27.049044555610372      12.011217366377226      5.3906872841981173
  3179   1      12.091889570718651      34.140468400661561      35.508685711162634
  3180   1      9.8131352685847162      13.136178797624718      16.331570737033413
  3181   1      43.902623838393929      31.253310926702664      28.834175462853029
  3182   1      24.672069975945561      25.070057410602271      21.388289273598442
  3183   1      33.987209307785726      14.078775142147933      47.694720887863639
  3184   1      6.2116957487592881      13.334481999673825      38.539972947343664
  3185   1      11.295068379157675       35.70101778884576      15.709050232926975
  3186   1      38.519413493008308      8.8073805922052255      7.5593227964168168
  3187   1      42.630520117994593      25.372040780615123      21.166126435586406
  3188   1       6.410207353081482      4.3952520265640516       19.07759871304285
  3189   1      25.819781778991047      5.3590462809761359      5.6868367747543145
  3190   1      46.583813153487576      22.310042067966624      24.334596899812436
  3191   1      20.764417625704443      38.428859402135743      37.116474470934854
  3192   1      17.445889489655489       45.99194579796697      7.8977670192183895
  3193   1      5.2694964970425087      50.062522390388942      42.622821184204732
  3194   1      42.122324125641178      5.0950270615603488      46.935039792789532
  3195   1      49.556739431118082       15.97326628718884      2.3063832715043877
  3196   1      5.7685434235436297      42.657112137693666      32.207403290541741
  3197   1      27.591357564051101      3.0991229430055407      43.090952645584508
  3198   1      5.1948164394688439      37.832225921438258      47.122586843541193
  3199   1      14.438798789163053       30.20002421215068      4.4247581704752941
  3200   1      48.319291340620076      14.327023478285849      35.306706042334291
  3201   1       43.25242417673644      47.397983173776062      4.4834638684505226
  3202   1      9.4779991972363202       29.33620917468204      30.184441852266296
  3203   1      33.632193545377987      30.609103422707221      22.431370348331747
  3204   1       18.39506681028022      34.726087329726646      20.472575386867636
  3205   1      30.230609366108375       17.47166389318188      19.587817061956432
  3206   1      40.549777783812708      33.339515905107085      41.144909414352114
  3207   1      22.871073347215908      36.464637640932615      10.438983363788548
  3208   1     0.47097472527773232       17.60070303365525      9.5068343646027156
  3209   1      24.420115435592539      38.597513805314257      5.3613509885955279
  3210   1      11.956073299049706      21.744117569928967      21.458855874198175
  3211   1      31.257822559056937      17.801142896971925      42.783839050761571
  3212   1      33.862195952802288      14.467474332719991      36.802554384809845
  3213   1      11.184291669493977      45.848425769503763      17.236379139751612
  3214   1      37.234425598533505      10.312126977254334      43.473400597315901
  3215   1      13.448837599895771    0.080494556835662645      25.736156464809365
  3216   1       35.13640170809051       29.22898726623793      11.963237671133799
  3217   1      36.940508874722461      20.646343177715604      22.447277020992168
  3218   1      25.686589674617267      33.482677437856054       20.64340737399689
  3219   1      28.305341932168453      48.739974843603079      41.138374733990652
  3220   1      27.518588081633382     0.86130221899878334      36.480768010744988
  3221   1      31.235914701170376      41.691140165064155      4.1789073526746847
  3222   1      39.995543252152586      18.190729812845259      42.481696428798472
  3223   1      20.312089341689052      13.681737869116343      41.619261650718862
  3224   1      4.2007564202509853      14.128635730774445      45.800261714176543
  3225   1      16.246877633841414      39.047520521396486      33.236009207536085
  3226   1      9.7180642329602023      21.947147195836344      42.130414576237072
  3227   1      42.861579257696377      27.892530486978998       16.00837904375388
  3228   1      47.704060056601087      3.9019912993481753      28.858484106547266
  3229   1      25.349244635353397        8.34905938810207      16.025106273405243
  3230   1      37.643734684220917      47.533544068728077       19.02786726144809
  3231   1      34.430629693210633      37.192422579557501      15.372220591497022
  3232   1      25.749714123715194      37.785347626592454      43.066625556237675
  3233   1      24.962871072183571      27.744742075167149       26.40211397611969
  3234   1      34.227277576489577      7.0456552121060154      28.689167597195119
  3235   1      14.736490126246601      1.0520844886352445      43.926286214105339
  3236   1      40.332847190579528      14.986643778486377        23.9875199071741
  3237   1      39.376845076853293       11.79660315234768      29.814594714899496
  3238   1      44.060964375030828      46.529875295096168      35.063703708631458
  3239   1      38.495608648686492      29.071974450342093      40.696298400975849
  3240   1      37.732938344391385      23.114420044294132      38.838934584835023
  3241   1      46.116462151900535      35.127316710236883      36.642152644246714
  3242   1      6.0088131782464576      12.726922632691176    -0.56193112200223883
  3243   1      32.203217462428221      23.120218759538403      46.360550792534468
  3244   1     0.45042855950677457      40.217258244105807       35.60601377853731
  3245   1      3.8096568739966012       22.73813182435903      6.7256154448718286
  3246   1      46.433269174546233      45.294349322680723      27.618999676911024
  3247   1      4.0367546214973311      6.8009598563812226      8.2062796593453058
  3248   1      9.8320676184616396      40.339350050644811      3.9700356469572715
  3249   1        12.8807601066722      25.396458082865664        26.9488759406713
  3250   1       7.897182676004654      8.0586574644412163      47.214281762711771
  3251   1       11.98146881934157      39.049535741318209       48.11548815477363
  3252   1       46.60353434993312      38.506211622280375       28.58113839509527
  3253   1      31.159801374447188      14.169087912588937       44.97393941136194
  3254   1      22.664834315365187      2.5580567036437971      17.776756630536639
  3255   1     0.48735902737919901      32.553014189896075      21.617850215437496
  3256   1      20.800609990349848      5.5814945988063442      31.205599542465141
  3257   1    -0.14689441127134908      15.072812670768872      42.459315893115075
  3258   1      6.1289841136154761      43.610052300258864      17.468071431648799
  3259   1      22.915489766582034      17.641425970343231      15.927263492289788
  3260   1      21.087741218731306      43.959630203089937    -0.64215645282246259
  3261   1      0.4703905642438484      46.235099800388021      11.593258159922701
  3262   1       9.262334164346635      17.675830824261915      34.602042421028585
  3263   1    -0.53395100064521794      16.529286857512425      20.054250435501956
  3264   1      6.9115886320661319      42.755283125699428      27.433109793974637
  3265   1      16.624241379179718      27.711179320669263      13.016358875784141
  3266   1       24.21975471952668      28.383779798664644      9.5360197471425376
  3267   1      23.471854309397983      23.398887348120834      40.431680254472411
  3268   1      16.751005208417638      39.531933483845933      29.359905723803202
  3269   1     -1.6983374772213586      16.691645739311056     0.41603157753963543
  3270   1      4.3438201222103299      36.315127172869396      40.347492146169351
  3271   1      23.842952052161991      23.804702491544351      3.7467831730661012
  3272   1       18.22604162916754      31.532992717059603      9.3672376075177652
  3273   1       17.86786806787001      2.4022601269476902      30.446381850314054
  3274   1      15.125924187393771      44.995093982201091      50.091841504723078
  3275   1      46.893778009467709      46.683256848743184      17.011141788140772
  3276   1       5.646525701482255       3.546349050150583      27.797937936707456
  3277   1      39.009978057143321      32.908650936230202      31.786457409738379
  3278   1      29.519637570237379      11.474892764895666       45.58931321586801
  3279   1      14.557533997163498      31.864026683521619      26.876742486738152
  3280   1      11.138865695792326      16.154142180887906      29.615067983695756
  3281   1      15.161349076046125      12.783859475791408      20.716869547637504
  3282   1      42.169303430785021      1.6865974242083974      2.2440868201921633
  3283   1      5.8386701692916789      9.3877668256292459      25.452407362240379
  3284   1       28.10040694246689      26.621732287829669      44.355019624378407
  3285   1      17.027199606493337      21.874520839077562      1.0063428044719032
  3286   1      5.6219960899941528      30.660013424702733      20.177941235333126
  3287   1      14.306160186013519      23.176784544926143      16.786247475731393
  3288   1      52.299486248720129      23.662473926323159      2.8847365806470968
  3289   1      1.6406357197306627       42.04284600449742      25.768716095629252
  3290   1      23.466359790683704      11.716051165478538      41.990823918233787
  3291   1      36.520045873817672      27.416206907034187      37.377299489916055
  3292   1      30.086407158644185      24.435430101720069      4.0758271865710345
  3293   1      23.719105411207714      33.681444876569977      16.319390481608512
  3294   1      47.948907581985679      23.487434799044802      48.086450100775714
  3295   1      23.595730155417911      31.519127210115787      41.481544870168769
  3296   1      4.9345800444433205      15.355755553284178      1.4677527296803823
  3297   1      29.410614163523743      16.233787270696947      27.112996740418147
  3298   1      13.752542273955173      46.383671808445797      46.050763087260684
  3299   1      25.408027252044739       8.474425572743046      7.0866757154693563
  3300   1      1.9646310795701887      28.870819673767254      33.883976322886305
  3301   1      32.278152956571766       34.00529829122776      17.851090341617617
  3302   1      41.373812172669311      20.367565443078615      3.2036640630607258
  3303   1      19.816000843090052      9.5842213911290308      19.949152593236516
  3304   1      24.218780437590425      2.2639752319573931      35.561075626151727
  3305   1      9.9955216224279599     -1.5721381624320059      41.223425278010431
  3306   1      4.9978924188854181      16.177067831890927       40.15749754225498
  3307   1      18.795052398415841      6.1042360611783719      20.855481827268765
  3308   1      26.318883416653239      30.522181281210969      43.780356787439807
  3309   1      1.7753731089315241        25.2596517913674      16.456839885520093
  3310   1      50.464071133380209      1.9586144814975621      34.590077073530523
  3311   1      38.976108879935794      36.313271119797342      47.670322950388986
  3312   1      28.786286453589426      5.1222567777177241      25.454455603771063
  3313   1      33.840573083938445      46.154336022697152       7.716548723761278
  3314   1      41.754952398553414      30.802268475383027      14.800070363522378
  3315   1      37.944210386384903      3.6904273231663764      33.998138022435676
  3316   1      17.862785368306614      31.625145455850323      26.289784203713339
  3317   1      7.8739410866784114      5.0188711888524784       14.32259233225286
  3318   1     0.85175372889898748      36.932863132097779     0.39588375328288755
  3319   1      1.1956836504293764       25.29962915995339      20.782547217944771
  3320   1      44.244507954840543      26.478693391699746      34.615743242550913
  3321   1      31.489814307127116       26.28835736397647     -3.0640256967553507
  3322   1      27.755002547143679      16.483671915262779      24.051571908490214
  3323   1      30.477066455442216      5.9632330800515287      10.231156502264813
  3324   1      30.571271964401852      35.054253293692639      15.046263552852164
  3325   1       6.392605256357581      4.4950425548269459      30.828184769294541
  3326   1      3.3848381430520749      40.917919370053184      48.824073437882909
  3327   1      45.659782246452465      4.3979759003383236      37.179678927098898
  3328   1      6.4557023152390807      15.247240942995754      19.707000719805791
  3329   1      24.129313351744411      2.4932026518870711      32.076074929543537
  3330   1      4.6724267532847845      18.404222755257731      36.178309739953249
  3331   1      31.094948056352901      5.5804376881171924      1.8217620768294003
  3332   1      4.3524837037720321      18.622433258681117      19.032178435776927
  3333   1      46.098100941807793     0.16714060736545483       44.41244709073073
  3334   1      2.8895560622159464      15.935408093441685      43.005838788699343
  3335   1      49.195455265833097      49.782994369271108       45.45550719668028
  3336   1      35.387508759676905      16.027997658737551      2.2249290414589615
  3337   1       14.46755657327175      40.644364341020314      22.266103716467899
  3338   1       17.47540012779212      9.6270933839829897      23.033502421008222
  3339   1     -2.6638197320688426      46.199806346885367      46.435263663618734
  3340   1      25.850250653347615      24.222673892340666      25.665689623616721
  3341   1      8.0451967847083559      34.523318225304145      21.364170119098727
  3342   1      36.998552180528506      31.709645849126009       29.19445058590431
  3343   1      28.777823076394935      43.341249933349282      16.066189729660927
  3344   1      30.624431525944722      9.2536454542442605      39.592525931822607
  3345   1      20.875977606916209      47.492392636370838      38.492381139640436
  3346   1      4.7584687101455785     -1.8918245021033859      3.0191161833646989
  3347   1      18.825453739074671      39.244641594438725      41.728536442951942
  3348   1      19.317037618260564      34.044608387604008      31.225097554997816
  3349   1      5.0988549539023298      39.846616345774969      2.9190869146181204
  3350   1       31.04611783166213      28.291490562173617       19.07979975683725
  3351   1      46.689842084978665      17.858703319053735      38.018127902686061
  3352   1      12.747978490703421      42.703798503713131      28.736069285477917
  3353   1      46.863257898326516       48.01806087569728       7.592169952087751
  3354   1      10.564222034600396      7.2232278497585556      14.383619556576855
  3355   1      18.828321555536721      7.2068235405676839      7.4428035139892916
  3356   1      14.052100427282506      10.632335193176223      44.980121498994222
  3357   1      23.087910542957857      8.0081568554800633        42.1159178208949
  3358   1      6.7573508186847775      22.635575226649053      4.9720451464987425
  3359   1      32.153838222688485      23.659927353847209      24.078849967344599
  3360   1      44.207563472365486      45.232175072864699      49.160082114405533
  3361   1      17.837255963073858      1.9961191139128522      20.981321170301353
  3362   1      43.699162163724885      11.436635769270735       2.015514436090589
  3363   1      42.431174392339166      26.663767526853718       6.569960311766244
  3364   1      38.482744916344096      26.013241450559917      31.961586289789455
  3365   1      48.530004783469742      35.848227723198747      3.4094066300483097
  3366   1      19.175572330136728      46.628219577040262      26.797275291463379
  3367   1      7.1632691720336377      10.241371257177782      18.537947714820657
  3368   1       37.19495741018401      39.263048675338567       20.20731066616322
  3369   1      34.338304214604378       35.94180350868691      6.8966375417755836
  3370   1      13.489105936441785       38.43849827919518      19.727342314563074
  3371   1      9.6891532726024145      51.075083815081371      17.868192535338238
  3372   1      48.226041473564926      2.3873481360996163      21.011119043691167
  3373   1       15.92076244164036       15.08814242130072      44.660275814197973
  3374   1      42.038173002123983       21.58566571646201      22.470904871297073
  3375   1      38.427259492745868      8.4185170276311343      39.199678684658416
  3376   1      19.275585356426877      7.1477637836648178      45.523841109806661
  3377   1     0.42747981885877773      45.912808875857301      33.100878622593697
  3378   1      31.632101607053421      18.695535272925451      3.9504722828290095
  3379   1      47.904848967583085      47.415448243707949      4.4230182248040073
  3380   1      18.252238586061864      30.566315313485322      44.199060423879494
  3381   1      37.715695837646962      25.964959520239425      48.449179601171515
  3382   1       7.216079370990844      22.790261087593315        19.2365514886122
  3383   1      17.040742410360529      28.104885763469458      9.2338661984970134
  3384   1      41.500597639663077      6.8007941221335306      1.0174537321300641
  3385   1      10.160594465586319      42.091658507498629      47.248818680133915
  3386   1      23.891936915280688       37.65344158290015      40.422207579584082
  3387   1      13.369040255906066      30.799048342307231      18.992308258082254
  3388   1      37.060996539677042      25.498214008343332      17.676571002166057
  3389   1      5.1703410230801499      5.2823777860191941      42.790173357445894
  3390   1      9.7284263619398619      2.1228345029815059      25.604360836569082
  3391   1      8.6609488652977298      38.540071541304741      32.208775825111694
  3392   1      30.055486038082709      4.9763442326120328      38.356789613990465
  3393   1      45.100699563911199      7.9115557491864088      18.141618185987681
  3394   1      3.9618379171725762       26.92259343510446      31.761029211971415
  3395   1      9.2826836819487166      38.014338634462945      14.991984748795945
  3396   1      44.011102694407441      34.217833577906433      48.852914052583664
  3397   1      8.8745161312741772      25.034370126150915      6.8618247944217572
  3398   1      8.5445218563950593      17.529323578269388      30.980636336849617
  3399   1      26.851388563098993      39.668387619583456      13.962369794964159
  3400   1      15.911595665231149      25.366021944233786      34.399799762428778
  3401   1      26.976105063978693      48.889920109060952      12.478637490742758
  3402   1      38.334429445558456      38.691693566530653      45.567867776449901
  3403   1      1.5027853485175244      48.947120261594016      8.9998265544040184
  3404   1      8.0064132813555862       32.90816697331325      24.492538962620358
  3405   1      20.109768075080428      13.849421173592972      33.340158694723456
  3406   1      26.519062267970142       30.81642491911586      32.328955518290293
  3407   1      39.364987289428477      38.605424623858177      36.641470428714868
  3408   1       41.02636632998815      41.109260205923469      43.072720310863787
  3409   1      19.539513043035239      43.749963203380126      6.5562791311574982
  3410   1      9.3744907738702992      25.468970963774147      25.988433303151719
  3411   1      29.359375598868656      12.877628134936344      14.316932770696972
  3412   1      23.942640832026715      48.005320888089059      31.804631203781316
  3413   1      30.795158189978618      20.949145983127419      32.273444744844589
  3414   1      39.150276703278934      23.997240975995592      19.708665207178388
  3415   1      25.057481445341882      10.201367076592717      47.369452231750287
  3416   1      11.124406125061705      10.756159872554694       30.03768809993845
  3417   1      23.903200267319047      33.623889924109335       11.94487244340425
  3418   1      37.982551136504249      2.6230104539546586      37.433270558117968
  3419   1      22.410964100743985      12.401141227572662      30.971933956780582
  3420   1      14.993503833163578      16.832003354469393      18.612167497256571
  3421   1       46.74585327029321      39.024197664430901      46.103938963956665
  3422   1      39.484064176364825      15.548652772455394      13.284256860314002
  3423   1      39.185540481889817      32.295740386207328     0.32267671440392748
  3424   1      23.308094084864088      36.540299656512232      14.125547798141127
  3425   1      31.355163622044991      4.7620712532347422      13.065716775509513
  3426   1       27.62927551626295      6.9647215981792145      18.515600590337673
  3427   1      27.032429566993073      30.652643516826796      26.933396030593588
  3428   1       6.578805590834385      10.701928626284101      32.228023339653589
  3429   1      45.184199422213062      3.3970346116328018      26.508840484121837
  3430   1      1.1733762437511441      10.000253626855995      9.2721722360334464
  3431   1      47.867884500388946      11.317954585539601      41.117661522547571
  3432   1        29.8808498497438      31.550809420714042      21.204963397658432
  3433   1      25.729571529491331       21.18574141806749      45.284860757510749
  3434   1      7.3085596073336374     -1.6788589723045364      16.604885576843628
  3435   1      9.0712411709113958      43.478781006732277      18.722451010868316
  3436   1      22.178763840487484      19.418207217678567      44.810017436226673
  3437   1      36.745792247539796      39.619587805247377      1.6474979238648695
  3438   1      10.363184155309424      6.8369490196915397      6.7171240783228008
  3439   1      42.420775373590331      42.933347253061427      46.069832603083569
  3440   1       44.94116334346122      16.046005398252966      35.499979431549328
  3441   1       39.16071627926582      41.254678949770692      29.261294342291066
  3442   1      28.091157028379314      14.671472690117493      6.9756699188228319
  3443   1      12.557181181179004      35.846839165006116      1.0068971201854826
  3444   1      44.783225679062376      49.856208984165995       36.27787297528274
  3445   1      28.319468640346035      33.175761048997629      7.2484943254014498
  3446   1      47.795298402686818       12.64305816598082      24.765734621185093
  3447   1      5.1311844752985012      39.986314597331685       6.222938209324921
  3448   1      4.9468216778321601    -0.80117173351387549      24.462535743857522
  3449   1      25.462282036681849      3.9084575697618491      8.8808200319489963
  3450   1      3.4567017244335361      45.803763888281992      22.670535137740828
  3451   1      2.3591636217159277      12.125322519148339      36.064076717810913
  3452   1       32.91165662490976       36.52100461521519      44.064835900985194
  3453   1      31.182895578532431      34.980175607946833      38.704413091497635
  3454   1      16.125494801961899      31.291717748424023      32.907086565324335
  3455   1      13.767264629760009      16.214472361578281      48.664844025311254
  3456   1     -1.6288710348371864      11.451640047076285       10.31365358817977
  3457   1      35.231295931598034      36.418644136372237      19.858721559266638
  3458   1      5.2418703596974634       13.72050700176327      23.507656022116045
  3459   1      8.3823545255995313      6.6418703179987597      24.689716567683071
  3460   1      26.260168232524371       11.33715185404105      44.137488195653042
  3461   1      25.558137764146508      47.319588643586471      43.088063378194761
  3462   1      11.229123014005953      7.7566536839956566      46.398721631441575
  3463   1      25.343504791884516      37.275466614646795      46.920561736021568
  3464   1      32.585731828965841      3.2437336755128974      10.086271068292605
  3465   1        38.7287709720622      11.998815166896472      19.225143876311165
  3466   1      15.982619623490484      24.163870205675682      23.842461918266689
  3467   1      10.215179582157651      20.860460518732602      13.685774851828654
  3468   1      23.073961310193749      25.437109635425102      37.907881189380603
  3469   1      38.617135715065579      29.100728825475347      7.0325760333956646
  3470   1      38.116552299585436      13.277428393201184      7.9271260789767446
  3471   1      18.675759118227163      35.249665194173545      23.698375272976815
  3472   1      43.631410520044717       18.75230591998325      39.446526783445798
  3473   1      42.895228683725719      10.687857756219261      20.564833471286629
  3474   1      33.770448011728753      19.619268477167068      27.545886861654143
  3475   1      18.485175138303294      42.433018974500335      39.815505830315544
  3476   1      20.802645275520639      9.6212314335802986      3.9666879922413827
  3477   1      9.4854513105306708      35.346594087959296     0.85155359337336278
  3478   1      3.3509052013417362      22.699644454373054      37.649476466432048
  3479   1       37.73969336918497       40.35844476428278      10.197318328839449
  3480   1      7.4991363100219974      20.287555874242393      47.101477883886496
  3481   1      44.955643112265527      40.232025725587093      41.229271518437173
  3482   1      40.119534567961765      38.783673293393171      22.260765108831304
  3483   1       9.164603903651841      25.211097564364131      17.556641455125245
  3484   1      6.0393417053400116      44.132507300281752      48.484898980354259
  3485   1      29.084595925542033      29.070001924029761      7.9827642061693451
  3486   1      18.190832919109116       1.108731729949074      34.080747942279821
  3487   1      45.389569873655688      42.131114658483625      47.283371795038221
  3488   1      29.958902688333225      4.3055710319925424      33.412733735571564
  3489   1      42.073033996981387       41.21766503593139      27.759738918976836
  3490   1     0.52528935138225286      17.777057843683718      16.688935593675588
  3491   1      42.972579492677177      18.714005066376174      25.588027695068615
  3492   1      26.597685269869569      34.310916956565883      42.353037244175439
  3493   1      44.410180579452735      22.221799054482691      38.777161734516326
  3494   1      29.092884357920415      38.695165850562027      2.3720969521942568
  3495   1      3.7970038119435015      36.840205997239245      5.5765897397954562
  3496   1       22.82025264728615      39.780090133573438      13.359221350183839
  3497   1      5.9491477872928495      34.606786066628793      3.2991918248263978
  3498   1      43.902403396586188      28.866388593044395      50.098894674729117
  3499   1      38.273014868996754      12.288804919815464      14.552641995640935
  3500   1      35.657789594148838      11.516520091868324      20.945410853035607
  3501   1      17.801891666519737      48.758684281801472      16.268913740428999
  3502   1       47.34178331497796      15.904514758660062      31.705833556438105
  3503   1      16.422160085190974      24.071723121470317      37.392682369692992
  3504   1      31.249858649165152      44.097844376201763      25.549567661497353
  3505   1      3.9378774059267796      35.486548027949709      20.519776182044502
  3506   1      24.186430853614013      35.238987932369547       28.21353028051999
  3507   1      27.699932997579353      6.4270844126196369      8.3923233073085388
  3508   1      6.9106114568381178      36.566324312342161       16.53223079982606
  3509   1      8.3564524737787256      11.369212859040566      46.050508590596017
  3510   1        41.8417972335684      9.4075342544364844      43.134749310781004
  3511   1      38.514067032264727    -0.64119202714663681      38.562460893809025
  3512   1      23.924971976211278      15.908456506442231      45.308585703968639
  3513   1      21.715949613333095      16.746535809487391      5.1203781250356402
  3514   1      45.138796279044534      13.580370237715652      31.210236488709342
  3515   1      50.036722358634819      5.0177178571566126      4.6683805216581371
  3516   1      34.577768094340158      3.5875694986100801     0.12896722086115306
  3517   1      43.332003084138385       23.58654134078834      26.593775793598613
  3518   1      14.753556540579176      41.366559531477996        19.0591089116175
  3519   1      29.841500720176576       3.740667693550602      15.835518582578706
  3520   1      21.961063685517694      9.1917480443063937      8.7815287135947298
  3521   1      14.924437995863059        14.7522813933943       30.17567962228182
  3522   1      2.6170668844770191      10.269875472467179      25.595159938321022
  3523   1      25.092787542857948      7.8367582151109882      35.191661971422619
  3524   1      15.116410592572381      19.248968531774224       1.429553562519768
  3525   1      16.494966901473497      31.763058180282563      6.2508999729195551
  3526   1      26.878486762937168      18.132536855201668      46.990021945163448
  3527   1      22.797173485680723      44.257597708446845      40.522326678505131
  3528   1      9.7588918374350797      20.695581303284747      30.143824289208702
  3529   1      25.113170945803716      31.795557719986352      29.503718388239495
  3530   1      5.3133174207058422      21.701222813840449      1.2088802891522326
  3531   1      20.613704370218052      13.746406993518455      4.0732574509633936
  3532   1      46.333071422082014       29.58247865596217      22.896402713053995
  3533   1      28.557219131147509        9.25648884553671      9.9497937146906441
  3534   1      5.9094010758281215      26.010897124416495      5.5783938490789877
  3535   1      4.9515136591479303      5.4462840411621523      5.3988749587042406
  3536   1      36.019935658567846      11.825817198365668      26.317815605815358
  3537   1      23.583011523570036      32.320688753298221      32.504728227205547
  3538   1      9.3869442542525121      20.435210180150889      17.968220842259989
  3539   1      29.920989812487047      35.598646003217453      24.070419952915547
  3540   1      24.235910814068941      7.9734104898089582      18.897318860741873
  3541   1      45.100643291381751      1.8250551855828241      22.793395428549243
  3542   1      4.6519596116871993       9.266266248337784      4.7016598097125328
  3543   1      43.396755891102515      48.900171245932086      7.7056468520073018
  3544   1      45.459582089690599      24.914975669880352      19.397574231185406
  3545   1      36.233594135963436      36.519516097669822      43.836234076022542
  3546   1      31.421156604796067      37.797475623933103      5.5214639129619449
  3547   1      44.736931200709797       39.47480768369693      12.052361518343162
  3548   1      19.826832519111292     0.97514453326195194      9.5430572362774466
  3549   1     -1.1721840053280455      18.298129400294066      42.981081824544511
  3550   1      2.7091502253493434      28.413138098951066      14.867256961187145
  3551   1      8.4851691297270317      9.6340626706071095      15.020032401485022
  3552   1      3.0146819944253465      1.6943844427346959       23.75060233954526
  3553   1      35.007328837749263      32.832925845803594        26.4340574366088
  3554   1      13.306798334556644       11.42419953058471      33.111217522457011
  3555   1      7.6090053934914428      27.932006295630149      20.453995709815029
  3556   1      3.4933847390296502      8.0273284723443084      27.679684673302436
  3557   1      21.010440855868627      9.2458223012108114      26.200113563219194
  3558   1      30.343475032624916      5.9691805435007961      5.1597042668140221
  3559   1      34.704972672237247      4.3537741761737001        3.61868788821055
  3560   1      8.6824933952732373      23.789412664403695      32.444660746477268
  3561   1      46.867040085340747      13.683919328460471      21.724814552508313
  3562   1      28.738029601813547      37.471707243508114      21.793532717750097
  3563   1      27.782851096374383      44.094237052090449      42.864775806744092
  3564   1      18.147821296828052      37.441609475351711      10.853999885698915
  3565   1      7.0811718505836208      35.292424509339668      46.840885373765886
  3566   1      18.240278364332053      19.092980174024863       2.773345124461843
  3567   1      38.167589599160024      7.4372953302390066     0.63826777238781685
  3568   1      37.453576246463477      39.396453255694126      39.328220079194786
  3569   1      19.037772551014839      25.167667303472758      23.733490267229342
  3570   1      28.755191889233185      37.357631293824291      17.764481379879811
  3571   1      24.214229942314461      43.528195102712488      22.127150419576719
  3572   1      7.8711434984840478       32.19526339259356      30.779478569661737
  3573   1      18.172836346337672      32.632485971538145      39.511818853599614
  3574   1      23.793968102283756      17.006138837462021      25.791768686859765
  3575   1      37.288981422698235       22.11002926526805      4.9764361411379712
  3576   1      4.3819429819433404      28.844382505878933      25.955926362581007
  3577   1      38.787408906763297      31.901073924738682      9.0864449352543861
  3578   1      46.260531524157358      41.700596936247443       29.87863873982872
  3579   1       40.91704725517129      5.4946636170462622      20.722537945391945
  3580   1       40.86622251344042      44.433726874535694      18.921842476204844
  3581   1      6.4780525604552404      4.6880894434612816      35.179640999792532
  3582   1      28.069615595587194      29.437807900509213      18.234048307220831
  3583   1      23.834100722056512       5.629609976110407    -0.11213383411136499
  3584   1      24.224485429524549         18.771941534057      6.4679384699740421
  3585   1      39.801945960645057      1.2156086251848226      4.6648874082285605
  3586   1      4.5301643200986703      32.453778889395366      30.330607185831838
  3587   1      23.063317503506983      5.1165643958115306      11.886730723092203
  3588   1      27.730418766932868      7.3013434446723249      41.374510942142152
  3589   1      22.296866159166605      24.400142736905661      18.187730888687152
  3590   1      36.927827576330181      13.854398126885748      22.965256100036207
  3591   1      44.769741513530448      5.2783041229318952      29.582576548346704
  3592   1      31.187873374289556      33.779299197093259      47.364076565292919
  3593   1      20.559900074775438       23.25172735280001      6.0372003278792361
  3594   1      8.2307939293106376      41.489250222203808      10.239159186851767
  3595   1       36.59255104686293      23.238324893748487      11.539937929498873
  3596   1     -1.0867663807813275      24.448438948494697      9.7365578536779154
  3597   1      33.779638589572748      29.407959365817007     0.78217462468835708
  3598   1      5.7906949239995331       21.43250321675761      24.393038346301189
  3599   1      28.120896157630817      31.412365008794858      23.858042546255756
  3600   1      17.719516871427977      36.022546569066876      39.163528487352487
  3601   1      34.165016791514667      41.083645307209657      20.176538510421935
  3602   1      16.677950305457017      19.729078085764883      43.525031701672098
  3603   1      7.7176495344434226      50.337976900690357      15.525034334770437
  3604   1      41.665422867753747      17.795375374677345      22.456562335006545
  3605   1      47.595792701317407      23.016566744585226      21.387561461015594
  3606   1      22.893146292566747      7.7637746215915504      46.035839648894701
  3607   1      43.203913512237918      44.701163048043384      16.801363436746783
  3608   1       9.165281628195137      12.843940329439972      24.146347036928013
  3609   1      26.760868156622553      43.042370932500091      33.672934460904095
  3610   1      3.9654818592136607      4.4367750209048316      21.259203286480588
  3611   1      46.643393972874769      44.677597829437154      6.0894976371677023
  3612   1      46.570554726638747      40.121616428521911       21.62334868644545
  3613   1      18.228670381177938      31.974537001103069      16.145453313578511
  3614   1      31.844427852211684      46.393655923945083      14.387829721879379
  3615   1      15.616038231384238      17.908238042265854      40.798894012417861
  3616   1      47.251713264480891      34.275946399842603      16.231536672642481
  3617   1       33.19606703586367      38.696342700543333      37.610320919831508
  3618   1      34.982908298253292      27.056742564303427      46.655046946632716
  3619   1      34.505151676863747      39.234026035787529      11.394814213826951
  3620   1      25.810987200694893      14.016951511134458      42.094656810377856
  3621   1      47.768301149981767      0.8209918693146443      14.495644617601622
  3622   1      29.772607200653212      27.529227502713653      31.574731325052113
  3623   1      17.842958299997555      14.308191004880003      28.416086396589129
  3624   1      35.597883412727171      24.580431388736336      34.045029339531766
  3625   1      44.696117202717382      28.158056621951449      20.340699576973474
  3626   1      22.305396752657526      23.828563703669264      34.009444601688571
  3627   1       29.62791814204321      46.460224472846399      19.245426253998687
  3628   1     0.37986102109286157      38.346100446014994      40.877566187146158
  3629   1      19.314523740368546      4.2095041121837129      43.065394004341712
  3630   1      41.517983586124494      23.627175837494143      5.5588191957225241
  3631   1      42.771734518592929      26.070828249420337      44.027673524475965
  3632   1      24.214262797109228      14.080902624557583      24.537904695973101
  3633   1      13.960458117527631      33.273419872492745      14.504346434666358
  3634   1      11.890567070971048      14.343042687291817      18.451291708120028
  3635   1      5.7571093983337782      38.550067632708256      25.417085290543184
  3636   1     0.90620394903045431       47.41256161153413      37.655588195554394
  3637   1      21.821178467028101      12.648577271609257      26.512112862010838
  3638   1      -3.039162784611531      9.5155388542962811      30.431646776456741
  3639   1      27.611800127521995      8.4853643544698514      37.706830024486322
  3640   1      34.331731445025909      24.751866285181144      26.752980916809395
  3641   1      27.790451927923453      33.928392605054249      13.480480171611871
  3642   1      31.808793790327211      38.148879509888744      46.667384707801773
  3643   1      37.007707208080433      29.903963298719052      35.586231653741677
  3644   1      12.910803093104867      29.585761166779044      29.794557713026737
  3645   1      19.023403163585492      18.062373450440756      39.754877341295966
  3646   1      19.603767242748681        40.9312480411403      24.656317281142556
  3647   1      10.603394966770567      25.081818092190087      11.295965295884601
  3648   1       32.10478329758466      33.192190765498459      7.1533783060908842
  3649   1      43.891386782972837      9.0583541475484726      24.948420582585307
  3650   1      21.384322684132744      3.5351066665944932      37.142692248967442
  3651   1      41.534624133079149      41.994468539171933      16.585462559545039
  3652   1      14.353515437778908       2.876829641268503      33.049345636013676
  3653   1      30.845133203309643         32.361187723312      42.238869890091692
  3654   1      23.098681718445643      23.505401883203387      8.0542431949411863
  3655   1      2.3586868435213204      40.572452728030967      4.3160524073369197
  3656   1      3.6162420184963424      17.175618778240043      15.472797105557868
  3657   1    -0.60972071071516343      11.445013063993715      37.215231764167036
  3658   1      13.505549994039759      19.555140811678449      16.951334438512966
  3659   1       6.320233691820504      29.307991242335198      29.729604534183956
  3660   1      6.1161474598108692      34.887293139256165      43.559381138119917
  3661   1      42.149218504610502      26.504065374224528      28.163402534926007
  3662   1      2.9920549125045781      28.030318424469574      5.8244779735117458
  3663   1      23.232882515582428      44.548491464369043      25.995807430775287
  3664   1      24.540483388364073      23.660800709040746     0.59686063342815421
  3665   1      29.872895843545777      1.4918360372834027      19.387927453440152
  3666   1      19.286929721791473      19.240658180377494       29.81792302894884
  3667   1      8.5995351361938326      25.932271934225795      29.331849105781767
  3668   1      1.4133918171864404      12.072384800586729      3.0647080078128277
  3669   1      30.373483494747205      38.815158338389857      24.344882054119385
  3670   1      20.918161637131711      37.934726692018252      23.965611984258171
  3671   1      10.082685042867574      16.288605259714814      37.548671881690055
  3672   1      5.7678321342034344      7.8705713441645031       36.26095954820579
  3673   1      6.9255983325612478      12.050006983216887      27.018887721040159
  3674   1      33.852812404827773      21.456788269981924      10.275606596954241
  3675   1      38.114129579153754      2.1087445545282772      40.612967206032629
  3676   1      21.078589346984238      31.767269778290721      7.2156716947355841
  3677   1      30.536684688537704      17.188887516006812       39.35285822348505
  3678   1      34.847179499315494      18.184075696394441      10.934193687333563
  3679   1      33.678292312308656      11.154393635340689      2.7270466763148606
  3680   1      15.504998512097606      27.086815077913794      6.0247611162994366
  3681   1      8.4943311853523014      31.473665100259868      12.239792490108577
  3682   1      17.101655799728157      20.757996097781476      40.242614769204053
  3683   1      4.3381867006678521      3.0039526642746841      16.767937360924321
  3684   1      2.7825075816728546      9.6058576520111973      20.203392912507105
  3685   1      9.7407290055977018      29.360434559311823      16.041177524967672
  3686   1      2.2534625201995144      2.7335023591487468      41.913835462539943
  3687   1      6.5267710660171954       47.12368656253232       42.26801896513512
  3688   1      10.632911711173591      41.637515217485522      30.768189477837506
  3689   1      27.262741845206058      27.309035188100186      22.417622729747919
  3690   1      29.014162127341578      16.339882241638129      15.464247159911094
  3691   1      42.535767227016109      45.545244849312958      24.973240904831542
  3692   1       36.48347396393455      15.407679328525621      5.2318563757597403
  3693   1      47.867802430372436      40.996981854459897      39.831992736989925
  3694   1      1.1656593262695896      2.1327686172062634      27.242992812112462
  3695   1      33.077918037681179       5.932646222219832       46.91612675151319
  3696   1      20.693160458433702      33.470561258389715      41.834482484339908
  3697   1      23.658957586568224      11.442613652166861      6.8455143442616961
  3698   1      46.824521893150695      32.533531821764747      6.9266509845418467
  3699   1     0.45173528693615111      18.220257490098909       33.63398314293493
  3700   1       20.68049687120817      36.583603171245606      40.753836309842441
  3701   1      31.654076032461834      32.346793755751918      36.401338175812846
  3702   1      31.388257933514069      22.442155055305363       8.636324958588979
  3703   1      9.4835206371205221      33.842741325937126      42.936088738652458
  3704   1      15.694032990095621      11.527326519788552      10.841397618858979
  3705   1      21.954033851817098     0.97051125305662811      33.787698628671237
  3706   1      27.993760080262678      11.157702821048913      23.959221203225074
  3707   1      23.830468551401708      19.808452181169088      39.213461740089301
  3708   1    -0.11197202060126285      42.430256869138226      45.897017735462711
  3709   1      40.455041036358999      39.141663548837421      18.992554612109274
  3710   1      39.659940360778421      16.421134514292529      30.248167672807515
  3711   1      43.029015766610819      44.123144954931476      3.1911349961153275
  3712   1      43.717130645310888       38.51043777096978       8.939966394293883
  3713   1      48.018657222460206      31.350681198105672      13.176444894671128
  3714   1    -0.76375672671133987      41.618255527732458      11.556747537781124
  3715   1      43.055572785134842      26.257968537016829      40.599255867454502
  3716   1      13.427728027272176      24.212656384209826      36.471356193759931
  3717   1      41.875258763585748      32.242683843211445      21.348138537280203
  3718   1      36.961554718449527      5.3585586857640717       8.439131544113204
  3719   1      7.5638663741556229      14.498387910587203      12.310979184851984
  3720   1       23.26374528129319      4.6720618349188152      20.907015630000469
  3721   1      9.8702016118949629       37.30373456010679       18.25702846989207
  3722   1      16.508916122588282      5.6613736086758069     0.74213872698148531
  3723   1      43.511268115339512      36.451439686554103      38.360020028543637
  3724   1      18.063000615529919      25.207420334163416      7.3000192103060213
  3725   1       26.97329556929547      25.391046407066742      2.2421343929831674
  3726   1       43.74583288114259      23.414359682670955       48.95480412634577
  3727   1      3.1936439261486465      12.211742318227168      17.986590364842652
  3728   1      12.971929491944545      43.355933219214172      48.320331069799266
  3729   1       38.05631364087273      17.813640881971182      21.634783132942335
  3730   1      19.410045415146435      7.7970745108132862      40.269705713255746
  3731   1      38.744630969806522      5.4320279360073602      18.130145134568934
  3732   1      47.297007172448936      29.607999520897415      35.353059531481705
  3733   1      17.145647293312489      31.862220975352429     0.36461814535997539
  3734   1      23.235363092571529       21.71494517353948      16.957604710231774
  3735   1      11.281804078489678       46.57721431756304      3.4612974408259798
  3736   1      20.463059882157509      45.832473722610793      44.933111408775098
  3737   1      46.395600500911996      42.765975230896331      19.141248532505777
  3738   1       9.203283573552806      45.150895129955138    -0.12545809473852712
  3739   1      13.941161877701587      24.876396700468234      44.111876804147137
  3740   1      10.568594897401224      1.8790500672777486      45.703494899920948
  3741   1      31.682221318401389      44.243695282770581       43.31436066809254
  3742   1      4.9147863963520413      50.519030234819041      2.7974106571654822
  3743   1      14.602238282337517      13.751507653840664      26.274537683268818
  3744   1      17.717010914879143      35.981771270011876      6.1049213646189306
  3745   1      31.116100315907708      19.386939857910658      35.652746000266511
  3746   1      2.9783975780414851      7.7359264291484164      34.502519255228179
  3747   1      13.839371182136032      24.780162955700721      49.191497187002192
  3748   1      21.842680444959445      16.701891995563695      47.881406285309495
  3749   1      47.329413622643287      43.595423056294962      14.725172305315072
  3750   1      23.142626786259662      6.8760625827001576      37.764740314757162
  3751   1      40.730642991379227      3.9512727731864645      37.135216982006284
  3752   1      1.3909659861801917      31.499182644580237      41.554495578745872
  3753   1      14.900326658475196      7.6411359743600693      24.050837534469835
  3754   1      15.959036055148063      14.460737005278283      3.2958494084117391
  3755   1      43.522834917554142      30.563310690681941      17.719718137916324
  3756   1      44.347615462027264      38.719696476244465      31.851646941252394
  3757   1      25.418432344931716      38.306777521565941      20.044329355720759
  3758   1       8.460592878400103      34.931185391936481      14.257389289311586
  3759   1      40.527164461556232      29.023202137809978      45.735133025142446
  3760   1      44.431552840229593      2.6706946022801539      9.9225221824130934
  3761   1      28.003727563001984      33.058740116584211      38.344343465447693
  3762   1      18.207404066500423      23.499750677532006      20.930313725986661
  3763   1      12.267602543548696      10.787897346868567      36.556250794407639
  3764   1      22.118111595156474      39.267825065080359      21.020270907458684
  3765   1      36.405648623266323      26.432381680066612      5.6340906185005837
  3766   1      19.051645920321636      25.814616206267761      32.209154884855344
  3767   1      8.7346186555054004      36.264053152490874      29.606900345880533
  3768   1      1.7535974947691064     -1.1984015019616596      24.854116393249591
  3769   1       19.98732780312076      33.549475099795345        11.6661034437333
  3770   1      12.417042954793532      15.746788081225942      42.978270625142322
  3771   1      33.343247116641201      18.177019570653382      16.928247709419374
  3772   1      18.526355546150416      10.019731496215522      11.961728497795519
  3773   1      29.087883098443559      21.584034966087749       3.025520993685114
  3774   1      37.932939265481295      24.274495417259832       7.695272300003694
  3775   1      37.528698087388008      36.008928774136045      40.164399199565089
  3776   1      37.043841548413567      16.422906283596227      26.168733495983247
  3777   1      37.037541083845809      45.028111477400152      5.7487725858032404
  3778   1      17.030550765122154        32.3876787066541      22.913364707404543
  3779   1      43.712876818372408      29.229603741018181      35.898026024353953
  3780   1      12.309190397481016      4.5238491926209257      45.090682754581316
  3781   1      13.784307301048806       42.22090271400323      15.390579166372286
  3782   1      26.878799964507472      39.152993221253084       23.77120196255219
  3783   1      46.371912669439915      11.001521250640984      33.348291690751807
  3784   1      35.563168380103924      22.315836896450691       36.42131034773513
  3785   1      42.942842550653417      37.021378958561719      1.4810558999340191
  3786   1       37.56553065816842      4.5980283643908351      47.225433563575159
  3787   1      29.069665560962651      33.207941305430801      27.393503925903154
  3788   1       23.70658682780628      9.3783496731691383      28.013600647492961
  3789   1      32.672046984728809      41.196666450525726      25.494115659419659
  3790   1      17.200068931972492      17.686535616575824      22.345262946409175
  3791   1      28.026385793802337      23.123600082339205      20.330430439999262
  3792   1     0.40744117791440643      24.449794636410857      23.982245788807969
  3793   1      37.179788417892091      46.686939735203943      11.574502006717033
  3794   1      30.885652729177679      8.6119320966978528      19.448055434315794
  3795   1      11.114175075991954      5.0509477610789615      26.013963113013137
  3796   1      48.764591929797909      23.789451358199408      38.346514196267975
  3797   1      2.3188528907469794      42.967695182423782      18.828565956633085
  3798   1      43.511920305853131      12.114426854372196      23.462341399859536
  3799   1      35.069900454701674       18.79906763677285      39.381477978579341
  3800   1      11.415989600566299      40.986809669408494      38.207111000199099
  3801   1      10.360624289890247      26.153983734774634      20.589455115614818
  3802   1      1.3939666329632068      19.905102317688101      29.421109282720209
  3803   1      6.2376659156498171       27.00218733040035      9.7528901406623216
  3804   1      31.347725675840678      36.082541739891937      8.3656459636795422
  3805   1      14.776973683251834      49.395709835972099      19.302527800332445
  3806   1      7.5016765874918727      8.0748248376878902      27.981572844394965
  3807   1       19.08388675052775      29.261108093731867       33.70089154692544
  3808   1      3.0029051869986181      26.447406016490177      47.953707861302746
  3809   1      32.858404548654796     0.99816418055854039      44.134473744132791
  3810   1       23.51698153000698      1.6158745184197483      41.244575108088284
  3811   1      20.828498763789558      40.225962136066272      15.904044643313179
  3812   1      37.997712119615358      8.1097508247664596      32.252162517082112
  3813   1      39.920239524566753       10.30235131682109      16.715432073099631
  3814   1      24.800189558132878      20.921096299781308      27.306772069334095
  3815   1       17.17793574988934      43.655168237406272      36.322607983674857
  3816   1      28.686064412864134      31.658028715615988      46.301822881676003
  3817   1      36.627917086479023       44.55260524206934      8.9945095439706879
  3818   1       21.10143450704189      30.585063879320174      10.601415898171396
  3819   1      39.736975081627342      4.3042062669201728       10.16948673781366
  3820   1      35.081878784429442      46.428614097838604      39.314909109526894
  3821   1      3.6438536086299105      46.480997964937153      31.227466504724166
  3822   1      26.084312214221249       13.82974954737484      2.7723658525436781
  3823   1      4.3044732457142976      18.865112901218961      23.000778414944126
  3824   1      40.689279403453668     0.62219325973324757       23.24156289548295
  3825   1       13.12982066632072      7.7409214347213524        20.4344215567654
  3826   1      46.834305643208822      14.127342552884858      2.7761381772541522
  3827   1      5.4150704543274957      2.3909494067311527      7.0312862658274211
  3828   1      18.166430615127084      15.596092777059727      5.6046431324906987
  3829   1      16.022113883474532      21.886424731430072       46.28618957677395
  3830   1      36.973834967889985      2.3897020243604539      6.7559400084262391
  3831   1      41.832305689877153      32.922222965987878      46.453185460172413
  3832   1      11.941312003182249      38.547964153030009       30.68419303250527
  3833   1       45.79517214416893      28.848094151968603      15.991163399663261
  3834   1       14.93878531545313      17.731084509518432      25.365168180107482
  3835   1      20.253947123795186      19.162903168051113      24.785196528849522
  3836   1      46.164618973415415      33.179449785983351      22.030966752092816
  3837   1      40.834879638576865        34.1955932567829      18.265074743613198
  3838   1      4.1186369259781408      30.037905254078584      2.9579544777792175
  3839   1      19.783525796895688      29.851827503132437      14.215811201102255
  3840   1       3.058552090973055      16.644144534042454      30.971247637011398
  3841   1      3.6905401484613165     0.36924856161432112      45.118058984832068
  3842   1      33.983916703511866      33.166729072378672      40.939878512720576
  3843   1      10.844183365402969      15.778071958625949      5.8545220969461456
  3844   1      6.8491412328166277      5.1246613867833313      8.4419818207662445
  3845   1      46.840815707990615      49.466776704952537      47.645432719198297
  3846   1      11.412818314140468      13.165359884039956      27.779011416820069
  3847   1      7.3060116247182396      45.696924631485601         24.714981964208
  3848   1      18.165765675347554      27.392177381686899      36.574650100538612
  3849   1      28.334342275799724       9.212318531934752       21.78023368491619
  3850   1       15.30117769245466      34.395784244729612      8.8074358317658863
  3851   1      5.5821870445711781      24.053749687689379      9.2239737226571599
  3852   1       45.70586063805375      42.609272312331129      9.3231500784666981
  3853   1      21.619858431866543      14.821185572363511      12.619854093318693
  3854   1      5.4663507755997713      9.2959187986913285      39.449035175312083
  3855   1      42.794402350552055      5.7001701257251032        34.4509386507833
  3856   1      2.7259665167460416      13.229546607029496    -0.22128014613100142
  3857   1      4.0254585634308402      40.471464750356162      11.084858338256616
  3858   1      15.504750544765495      28.520499346003561       1.672920362692214
  3859   1      29.413704750775665      9.3890278153872195      27.432013285860279
  3860   1      29.167319136126562      20.205738253375046      28.625762151966079
  3861   1      31.159664686871693      2.7153068816800041      36.394459600420269
  3862   1      23.780645078001562      6.2020713923136341       28.43092179541074
  3863   1      30.923418026178187      32.491171853625545      24.909309673738353
  3864   1      3.4293664002197981      22.964265369296282      44.096892918763601
  3865   1      1.5393747771139488      39.574582047624837       46.43521824412278
  3866   1      25.889090743345175      42.808491111999373       11.72044318484426
  3867   1      18.116973831544808     0.69642327185451802      5.6272761441402226
  3868   1       35.65485586364229      27.807118550893531      27.597061306970414
  3869   1      9.4038879801231676      42.251809060722941      14.061018187755632
  3870   1      1.3569024911540422      38.919839442674316      29.026576301302843
  3871   1       20.44352409259406      44.394128977038051      16.045358673927502
  3872   1      15.516865464027576      38.376766977220775      7.4939531984583798
  3873   1      26.469372238149965      19.334180493877149      9.7170947974399393
  3874   1      41.017703601309101      30.347585292445952      42.297786780044532
  3875   1      26.012797815562369       5.582423335820323      37.237733439996425
  3876   1       33.03603760314747      10.347708055289866      26.168009871973812
  3877   1      44.740083598410799      34.843163354458262      18.478931980958443
  3878   1      31.024091380032647      23.516181540944309      49.652802646786441
  3879   1      35.957824675115134      17.319992100642292      36.575951756584871
  3880   1      9.2352468524646945      18.497643870565561      27.703366610838827
  3881   1      17.994445400886924       47.68894801399216      36.759924327999279
  3882   1      14.812292449399196       11.65148070572946      7.5816730552394302
  3883   1      46.003375754696044      13.641158295226878       17.48697596170754
  3884   1      14.412135624840035      14.114183634319385      11.651506880066989
  3885   1      9.3985793173647139      36.440368127409606      34.413904045557004
  3886   1      31.956208157699511      33.058967654195257      31.830510833423684
  3887   1      37.270001279732298      44.908042077149389      25.808702081362632
  3888   1      5.9565671820766406      26.974040432740242      24.045191237533018
  3889   1      36.277122638974504      12.423479550230359      32.922760281459936
  3890   1      47.521017084659903       2.226512837792705      42.134543841271736
  3891   1      14.655457145580382      34.336993283886038      40.492584194009616
  3892   1       39.90157958516086      4.4139630712509881      6.6201212855965057
  3893   1      20.200877728708889      13.820812940018293      47.274567526922908
  3894   1      20.785239700068018      31.871744628297083      47.796366442871893
  3895   1      27.363084466354888      37.806648784604256      30.012626949773544
  3896   1      21.688481175067253      21.173272412997559      20.835119252184437
  3897   1      41.490896258373581      38.106711743574934      26.496914163167926
  3898   1       22.17767818864014      21.857204391503849      24.311189525712901
  3899   1      29.338599869194017      31.104110217853801        15.5287679363827
  3900   1      39.531522628314576      16.016272881524173      33.649389722461692
  3901   1      43.740367792084243      19.492669737439254      14.390210429161451
  3902   1       35.84347961599196      23.000597559374139      41.626160997740335
  3903   1      5.6343338961982088      20.137381378462045      42.736421032283353
  3904   1      21.492886160947076      4.7615941033032909      40.110266518927311
  3905   1      25.387882572242205      29.970581439055827      21.440424767256552
  3906   1      28.347163404733397      4.5989307825031078      30.458461618564762
  3907   1      4.3009380968258846       44.54792535952447       38.21542998525608
  3908   1      43.257583215744198      7.2880909591013072      37.620385122477273
  3909   1      8.8964473847705285      43.921004305291277      33.159009157735156
  3910   1      35.851153113919956      15.790301026564823      42.997945597448023
  3911   1      5.5596479616328693      41.848799986965787       24.55842882450985
  3912   1      18.397615275830713      13.973766109551097      12.826969955222024
  3913   1      47.770471334679819      34.711236641780694      39.816852405779315
  3914   1      52.093286703570136      42.418463188476032      45.760257802630804
  3915   1      44.368408846810141      9.7217026197664254      11.802885978995473
  3916   1      42.895144070218002      15.096619785881007      17.546968295981262
  3917   1      34.291386913603432     0.77311825735713535      8.4521351911972413
  3918   1      17.787054881320472      34.957763346505587      42.138617731789729
  3919   1      6.1628320114144399       38.63224332427901      36.484850344441632
  3920   1       12.26448126676525      29.598836705062606      7.7934936365892131
  3921   1      25.887622749994062      21.930937689460212        22.4962688639588
  3922   1      29.574183542589044      27.869868664816412      34.839981553412485
  3923   1      32.205671015112983      30.264128216931514      40.344276982104617
  3924   1      37.315938678758791      10.699897383744688      4.5562508389202483
  3925   1      8.9869574042997389       18.10540574706307      7.7998592330002001
  3926   1      6.1809204178064645      45.021317614305701      8.0950614188357388
  3927   1      38.610429872430387      3.4169415034541712      13.333092298969691
  3928   1      8.8305632754024774      34.132145818833692      17.558965858997531
  3929   1      18.628057594300607      44.162174650642818      12.697275863930598
  3930   1       2.176453928961223       30.24850302286805      49.207941518306207
  3931   1      22.314920721500854      20.092001990821949      4.0729255632078631
  3932   1     0.56488800426067143      27.895688636993288      12.695004987931812
  3933   1      3.7827000922423202      26.699941254283218      12.223914106827744
  3934   1      20.794386772062065      5.6801473044415181       5.095834977098689
  3935   1      43.309292261497333       23.10367116377272      42.470165990546654
  3936   1      46.471572209739186      19.541249071260143      20.123740064253134
  3937   1      5.8727043435496418      7.6638260835364518      15.104306038903525
  3938   1      6.0932896704765334      15.375846178506007      30.014825081901776
  3939   1      39.967424698005097      22.992239423047668      10.866429031370387
  3940   1      46.727930352208162      5.7330917881678634      42.265519609772333
  3941   1      11.767144397522154      6.2264568370956015      39.669059090315891
  3942   1      13.977917350363903      45.122208062250238      36.583947845366318
  3943   1      35.185101731182442      7.0112068442310616      36.539155689892056
  3944   1      19.448138672781976      16.603035695886948      14.671360533310782
  3945   1       10.57473970432841      25.122922327410201      39.930523535792091
  3946   1       13.17934570202889      47.676401003660473      13.302247684919674
  3947   1      9.1366161027192838       28.68463323752302      9.7976512819343906
  3948   1      13.057722789903925       6.827649533855296      35.973300685550655
  3949   1      32.025975831316941      29.774579669267613      43.895264159840792
  3950   1       27.21318394284998      11.510603015129169      35.712721297319256
  3951   1      15.508679638469372        2.72108548675696      40.526286673719795
  3952   1      12.548968826351519      20.411447808455744      42.984856069710368
  3953   1       11.55762424919137      32.183046984231964      16.529395770335388
  3954   1       27.79462804955272      36.377638664699418       6.137567905322439
  3955   1       40.31580500933697      26.661283696921672      18.261541537821241
  3956   1      9.8967926391981678      4.3569539001080395      22.852269107746089
  3957   1      31.143688971696335      41.740969675640692      45.079884237132255
  3958   1      41.421368094860881      9.6977138246298171      10.099904346350742
  3959   1      48.123620144326246       37.78361576287061      14.946847913684698
  3960   1      44.976036728135391      16.912888087359146      3.0554325822705919
  3961   1      15.901205599641139      46.811293090427718      21.274342347301495
  3962   1      36.345155675881024      7.0135589325413248      41.515824456282104
  3963   1      30.947387974279739      16.793252251674861      24.157504316917134
  3964   1       34.32754277314411      2.9666212922559256      14.137954333616973
  3965   1      22.977003688359147      8.1168903511847841      31.998705845724192
  3966   1       26.95106875626815      43.581944745354221      37.097309867742254
  3967   1      27.007480128429858      4.0589691719898369      17.211117722946799
  3968   1      37.587006581793823      29.166712216870565      47.552811555732504
  3969   1      37.359281724090081      29.811871003243308      24.214849302617292
  3970   1      33.317133017573418      18.701981791348658      32.839255783169577
  3971   1       34.13719919453618      47.988690687478233      11.759231055157002
  3972   1      40.099323581893394      41.478962340964991       3.093897353955676
  3973   1      32.995159867672122      12.156083064645356      32.559156819572109
  3974   1      25.672038910426238      24.791419190681289      42.993139534449824
  3975   1      14.425916069248842       37.80054524716541      35.883270094186621
  3976   1       8.220424152298758      29.278355476796438      26.985795238047547
  3977   1      29.142119534473451      31.891116714949426      30.383843820236731
  3978   1      27.461815063596195      12.938643709295539     -1.1078724536634994
  3979   1      40.866807172495392      48.430279436332022      36.427239897537433
  3980   1      45.657716313347656      43.527783169146581      42.683474724967304
  3981   1      41.389323625449293      44.160818726130422      30.047558389412593
  3982   1      30.475424313717266      6.3706009670731634      28.202683433234679
  3983   1      38.915144246332069     0.93752703497013101      30.295431104382711
  3984   1      17.044405010684624       25.99304851353218       26.26727178012106
  3985   1      50.140775332674686      2.0360928203468278      5.6867217587180541
  3986   1      43.432288023098721      2.9377325251388915      5.4587131773181188
  3987   1      12.494113657953253      1.8384109765022751      2.2135134354335726
  3988   1      19.473362503482917      27.099498234749358      1.8747177869323304
  3989   1      6.8562004259862146      22.559291551192736      44.693310344037648
  3990   1      40.084217906774498       46.09654537101558      27.445428512964725
  3991   1      12.418436133429013     0.97638234688744541      40.750386427751614
  3992   1      26.586814175661182      4.5750303783661028      33.370492353168977
  3993   1      8.4732375176385979      14.498258045862233      3.9734512540381575
  3994   1      1.9230966653769304      33.698843244221784      25.724441578618233
  3995   1      37.144307254497235      5.1746302072046033      31.058001689818347
  3996   1      8.7868128216161718      21.171386888239372      3.0017351108365187
  3997   1      42.490685744870007      37.092582612006467      46.365600745684731
  3998   1      39.238091523092812      43.459707502229094      7.3155211628254024
  3999   1      41.946866847246113      30.992983353698595      10.664428156384634
  4000   1       5.896146207528675      11.953150319354343      35.198866852151966
  4001   1      25.774233091813397      12.051780458489068      39.667341654712544
  4002   1      46.382441993345338      9.1763787489566067      43.140751048153518
  4003   1      31.450936169951476      9.2308919058375878      47.601858983319616
  4004   1      25.643508836557626      11.597412379448706      32.771973877781114
