(written by ASE)

4004 atoms
4 atom types

0.0      48.780000000000001  xlo xhi
0.0      48.780000000000001  ylo yhi
0.0      48.780000000000001  zlo zhi

Atoms # atomic

     1   2      26.289943608556051       31.19349544453144      49.077250465446831
     2   2      47.970670485599044       22.64816404735824      32.805348724258614
     3   2      7.0500457452797711      20.921016279239605      34.024908246478681
     4   2      10.564341519540868      19.364164162518076      15.953603577165232
     5   2      17.575620070495006       7.897984699039549      23.532627266965847
     6   2      34.239152398917739      36.989786208729022      45.469280615561388
     7   2      36.457614321534173      6.9550157425107839      47.441585007083134
     8   2      36.943048752945586      29.643229307874869      12.538138499566902
     9   2      34.504428928937742      10.763621265378854      19.423618167634341
    10   2      40.206528510654628      14.324075035576936     -6.8529154260467031
    11   2      51.314990108734179      48.557847006999609      16.650166876897792
    12   2      31.874660541092009      8.7423069137815688      31.080234577565907
    13   2      40.285657676517644      47.002477602987703      28.393018605867336
    14   2       29.90096953078713      42.772409903531688      40.548128354174402
    15   2      2.5374702755228489      21.054351375385959      44.039307281934875
    16   2      21.641020205920004      13.321912796713058      35.067031785619648
    17   2      32.442333833787089      13.795102397331418      19.107795807770817
    18   2      30.962796792115238      30.018277298463477      13.684927846981187
    19   2     -3.6621087435022943      18.895287188054116      6.7166426695611348
    20   2       39.31336456669159      49.081006540418542      33.875274573689381
    21   2        21.3209619191455       21.64210184988719     0.66146578402833478
    22   2      6.9275439679655442      11.983809978204778      25.200557066718154
    23   2       33.79583557406999      23.504097344872971      44.532718104998445
    24   2      39.043431091117625      10.187975754843162      16.897597487127754
    25   2       6.311339846142757      9.6309946011594736      49.264973445750528
    26   2      27.050115185706893      14.679058765672568      28.010548320144963
    27   2      4.5648273333506122     0.30704274726683894      47.340996416983835
    28   2      12.946839015177238      34.592762466565297      13.973603887662442
    29   2      39.618790079452772      41.675648436613244      4.6738066063893502
    30   2       10.90931417804604       31.20969362798489      39.271848265218161
    31   2      10.758553878519745      27.196397501415568      -7.980293698596971
    32   2       23.05420598905015      10.621286030885976      38.428911293033998
    33   2      25.190596766895993      36.970539439362028      15.643701999730732
    34   2      5.0699418035727817      2.0749843187027182      1.6054373331322309
    35   2      51.522809704876728      18.579762702524771      22.076428952239301
    36   2      42.773246069691773      47.636617154590091      8.4964991970941508
    37   2      40.970608886833041      27.619508522126765      46.276275036229038
    38   2      22.411602049711611      49.525836221683186      37.906883338554962
    39   2     -1.0432929644543643       34.51377539051601      3.4330705216549942
    40   2       2.195327339668196      27.025639801105687      40.669376734048782
    41   2      11.014342299044619      13.537487076913177      34.065801369813258
    42   2      36.569535248448879      -4.074597749280632      54.503857895285066
    43   2      18.494134279928858      19.989522975646072      4.6344702227652803
    44   2      41.562014069613809      41.899333195712138      32.176189058808752
    45   2      40.607688690898627      26.601375430382337      20.452636379680381
    46   2      41.908903811596552      34.333588983713732      8.3145785894531876
    47   2      5.6447646560512652      5.6830186685854525      11.034329663035816
    48   2      28.049127853222448     -4.8445136700947087      27.080869184766602
    49   2     -3.1536985651158052      29.624165444978271      45.341952352687173
    50   2      46.737593315636822      11.254855075143833      23.403222100492503
    51   2      29.593208222019832       12.39458632653302      13.689710533001314
    52   2       10.29579024353122      30.490371326246276      29.320623103970568
    53   2      3.3794981480991182      41.206049771558938      43.878757223340294
    54   2      26.372816589564195      9.1449723470843534      36.868426880470508
    55   2      43.835286971335975      34.270754417291187      14.268452828630355
    56   2      36.122959946365931      27.551208349736079      26.094259020648384
    57   2    -0.64227354377327284      6.0641848308052735      51.844638926057442
    58   2      44.055940206216363      10.579812852355145      41.943662580239902
    59   2       34.89471845886446      11.580265658375476      14.794305965896495
    60   2      10.697872865009797      20.045253876889731       20.00421436179731
    61   2      15.758785584536872      11.620843006853997      3.7179055578046185
    62   2      32.614474326835364     0.31189015604206111      46.906145008794013
    63   2      33.860826431735454      27.214905808160236      5.9154100903247437
    64   2      1.7006644332256293      13.380930195931208      46.482803912726688
    65   2      31.026857463462303      28.573061800156907     0.96526883114585704
    66   2      22.423575407567782      17.089207804856908      36.864328648773274
    67   2      13.809400353668732      26.734387835666514      27.975048202006764
    68   2      16.287588703276558      41.274290176799582      37.053919467399595
    69   2      23.305110626505208      46.102845209447779      42.456667514986705
    70   2      38.886717115295077      23.250754088846126      52.163480449576895
    71   2      36.499564731179881      8.2203265905629941      15.085727937379827
    72   2      44.913577981741625      50.849954662532276      28.641956701095914
    73   2      38.470597970143423      19.026716648183655      29.015630166994804
    74   2      41.140124730095707       15.51414457757229      29.625004678217145
    75   2       21.95156232061268      31.525225406396601      36.870652366771132
    76   2     -1.1063522266250148      56.230892858717795      39.792538023269586
    77   2        18.2006086628157      29.892607481446397      10.702164141242044
    78   2      36.515627882814037      45.224689127077291      23.281681146377917
    79   2      35.879818719458534      7.2864441040639862      2.4221159727641601
    80   2      19.516854556060387     -4.1434493002328914      7.7513053306250672
    81   2      38.031729299600748     0.93424958611589171      38.034577005511188
    82   2      46.692886507749101      46.004894879746502      37.587940502653929
    83   2      26.784287614762036      40.081866558575243       19.21557821930136
    84   2      33.470811764277173      16.750198531007413      38.364469224344894
    85   2      32.035434960963769      19.858367494403335      55.692842945247648
    86   2      9.0949877989892656       25.47401495957476     -4.3451856954346786
    87   2      28.079100462476301      30.474609494849862      31.231071835733072
    88   2      18.116040043012863      47.701117384071232      8.1105450862847039
    89   2     0.96523165296464308      17.084993405870222      1.8519888112617195
    90   2      21.795587842267299      38.736899230009371      4.2139228606187107
    91   2      10.990047353241492      4.4197446115162542      21.186323490455656
    92   2       29.48170834816457      14.952392765551821      35.512145902682811
    93   2      36.934351389304169      33.022273237189843      9.1892430462757559
    94   2      29.937532081853618      24.407900703208103      30.711788752345875
    95   2      24.958422823657624      31.726277243080059       33.11605582867891
    96   2      24.875481511405006      11.169162014376525      29.387239203900588
    97   2      44.973020796370143      29.034945079615774      32.236944538031544
    98   2      23.682716516051059       13.36511305835451      46.316909784276454
    99   2      25.192279435576307      54.075005479559742      37.114680743296454
   100   2     -8.7971118121901526      3.5847135232157918      21.524892687114715
   101   2      4.6243381631443592      17.003535318291608      41.206222586527822
   102   2      9.3376461800132553      42.500466808279882      56.571448256248971
   103   2      40.704765019332413      24.796657106341225      37.717285283015777
   104   2       5.891815688723506      46.240022321753784      50.096276983684483
   105   2      26.204445534628004      12.767348311519168      10.997542496515907
   106   2       5.038923189699287       6.469245783289594       51.08153711120535
   107   2      25.805217534243052      39.558784538994637      7.2636983046589574
   108   2      34.646147805052479      18.404434633032203      5.1218177020447602
   109   2      26.700821022868691      35.327406595707842      42.919541594654319
   110   2      45.980831241958107      37.152071192290308      29.692863439946077
   111   2      24.836303443174518      8.6792148853110014      13.729896476198405
   112   2      7.7236405372098682      19.092613268888648      22.766427980392873
   113   2      5.5912143323408126      23.863046576225234      42.276303592675191
   114   2      7.8622597770409772      4.5961180466196287      26.109267892921498
   115   2      28.418728946048816      16.290365805576716      14.418804692685214
   116   2      10.457283341464814      31.760115018387168      44.671100844397202
   117   2      18.679890356470889      43.699321737450013      11.665509512595985
   118   2      48.875785219401784      7.4644217893516407      46.610487452611572
   119   2      4.4835447634036667     0.17767897858229575      40.776403977336059
   120   2      44.006121834846077      10.990551741411707      56.295585619534627
   121   2      33.279719229234104     -4.8261513454393894      34.021997473179312
   122   2      43.239513004385678       25.52402864266768      4.5785440663237207
   123   2       8.369332024772536      41.496873581518358      29.852723210051341
   124   2      25.099985037894548      34.051757189553499      22.863867023111588
   125   2       22.94774399816523       20.74904653812083      36.232048844953425
   126   2      19.065927610416423     -0.8290367197467482      18.311413464695875
   127   2      37.293093325565046     -3.0789186570889653      35.883287679415886
   128   2      14.405344885909717     0.52642605831008937       38.17137214480686
   129   2      4.7773615498925874      3.8742670208851955      14.713632104891623
   130   2      33.062758818005214      44.982775602586976      27.587105929337749
   131   2      6.1979296460568367      23.884584464168249      25.932256083557778
   132   2      11.318280259413598      32.145303710120388      48.863902915228635
   133   2       25.40314257198958      17.343672455336343      8.5804910297734587
   134   2      29.451569310186784      17.706245546692848     -2.9606425897210245
   135   2      39.648157963644373      11.015336065822231      30.674588036337664
   136   2      13.135811913435406      27.832245366276464      38.213382658137164
   137   2       35.90825444627022    0.020884013362871153      30.873061704943805
   138   2       42.77768218747434      4.2074044164372166      25.181914170624648
   139   2      13.095410451259406      17.726621362514397       44.40035494196362
   140   2     -5.5126023969900064      38.932216780266288      42.673039903297955
   141   2      17.650192699088464      13.916157784414658      8.0494668293581402
   142   2      25.319545545474892      49.175547681830878      12.989140291154847
   143   2      49.443690349062507      14.004700133390756      40.793702463489034
   144   2      16.391734270856652        23.4748839533544      12.491431339402975
   145   2      12.350460363631454      43.381338873265783      29.156204263201285
   146   2      17.720987189714435      43.439145878214553      26.114510533023633
   147   2      37.210579539117475      32.993022976536174      42.711924373151312
   148   2      3.7578095516370991      38.413348224945629      29.138083910163008
   149   2       39.00733529873245      39.369386901284294      18.049101644659682
   150   2      44.574432702034699      37.152530708705164      7.1269660856678456
   151   2      36.698416549712164      5.4304550564113354       39.85317564865116
   152   2      20.606227948704301     -1.7922059765837846      4.0366397663782907
   153   2      10.872293428201914      40.754705952393785      27.150529092425224
   154   2      6.7920985832704028       29.31180893461924      9.8776324570087777
   155   2      16.617435158401577      45.398432911644747    -0.30603672032691359
   156   2      1.0685286860783296      43.798255612040386      2.6115899181368118
   157   2      9.3682053552381319      24.562190446883626       23.07354905403475
   158   2      47.578771161272755      26.747714643221446      47.013935850936761
   159   2      26.101861835884058      8.1414508922824993      30.876560295433727
   160   2      13.204535724035084      41.376786401478405       41.02312463742328
   161   2      20.735061528424843      44.845628125902564      39.282164815394815
   162   2      37.812471589446062      31.943187835716159      34.390589474213797
   163   2        26.1964219503412       37.16990597580002      3.5903323041644084
   164   2      36.905128677870358      42.849028897778837       11.45741750962998
   165   2      32.216036881056624      10.095208647256651      16.447518720853044
   166   2      16.199418922236543      20.002441022090782      44.163739478698339
   167   2      26.674322986990322      14.805999320090855      43.520381430039059
   168   2      21.037720355677294      40.498458643572789      42.766993130456093
   169   2      41.593200788790206      43.777359490915195      44.267508763981972
   170   2      15.649209339571097      44.716682301829699      39.030432392356481
   171   2      33.305422482699221      24.582684988101335      23.102126362564618
   172   2    -0.17139679208664638      15.156263926041145      28.238244996885168
   173   2      13.375726825568554      39.621771086405808      30.595545957875419
   174   2      37.080562769498592      30.137246902340419      38.813408680789053
   175   2      34.918240319282134      12.109547925426945      31.949605956849897
   176   2      3.9774745926860167       23.69181458236682      37.564246302761958
   177   2      4.0648320004920375      14.931570844184822      28.069491315465203
   178   2      32.498327466592954      9.8736442574957959      11.527927938842183
   179   2      26.465340740522755      52.521440935730567      24.226597795723681
   180   2      22.881611103291039      22.043846084797011      45.278313394983073
   181   2      44.299238429679036      20.876377171192239      34.288881453449534
   182   2      42.161222245518836      34.177044985052746      43.404624862915455
   183   2       22.03984441001883      41.241803298949151      34.553041780227453
   184   2      4.8908334341494539      28.313527931113047      34.840047493046299
   185   2      2.9251024475018657      26.761603023064051      18.217851685970896
   186   2      46.249299756337614      10.958723453517221      48.804203917604866
   187   2      11.514724441055041      13.422954234264228       24.52599998018502
   188   2      8.6707491949735545      43.287721447851567      24.342871666381235
   189   2      37.993400984253377      50.394283400470364      7.1382691823356925
   190   2      7.9005919313813884      2.4115772948920897      38.175675224180345
   191   2      15.150654359870281      14.580137656559772      49.598584969810958
   192   2      14.291784643058639      38.509158755258795      17.577475238127594
   193   2      47.520510446064563       2.318064126433522      41.734890172743185
   194   2      10.739781675490129      3.3240164909015038        14.4912474247666
   195   2      43.400879553988453      22.855505956983539      30.686411404591123
   196   2      16.778133783726869      15.538576634222972      45.413619593023775
   197   2      26.062057863141415      30.173506783423566      36.458258479344856
   198   2      36.763122056988465      51.196921246678777      42.169562492593712
   199   2      14.660070465635537      31.962363365163547      52.328045080025582
   200   2      7.7587159941313288      3.8368652414869548      19.266759681763077
   201   2      5.9722733864709099      33.530122426733556      18.368802846049711
   202   2      17.439978403913059      35.721982700247672      34.852225597233939
   203   2     0.57575656359925631      42.240742407857212     -1.2097690380337767
   204   2      31.176003335114991      33.509395060025966      5.5694150292464828
   205   2      41.979045171976551      35.084719361415608      32.823966318939902
   206   2      39.582537594089622      32.661152683371938      38.116674821903025
   207   2      9.9953788750415118      41.763459739665628       15.94663768986068
   208   2      41.842292151184004      20.323367226436652    -0.25402467878973189
   209   2      19.163625812637623      19.733101398298103      12.522106361417965
   210   2      35.653179073120782      23.792609467852028      37.899159644828941
   211   2      8.2561135477794974      14.471192507788658      27.486565286734852
   212   2      9.0023080669587685      32.272324636587406      34.776190779222318
   213   2      18.686061035474324      13.076257369662695      20.911714934419752
   214   2      34.079395032023037      24.819031138930217      18.430889432087895
   215   2      22.502489879393572      54.888889279743985      33.720480739601804
   216   2      40.867088933936365      2.7692109914780896      11.134420437885623
   217   2      20.345000866057863     -1.9752844024387939      11.481311574550336
   218   2      29.803272633237054      33.742131185944984      29.645338374409633
   219   2      35.595043036001016      34.211714374259643      27.647644323457573
   220   2      14.151888594805445       37.53732272341572      34.062854489184332
   221   2      14.457962612118566      12.275713628234938      29.578184034972832
   222   2      3.6078032751563978      45.395801254718734      24.024866804924343
   223   2      46.649883476847293      19.713792379242427      41.872848097142068
   224   2      3.8770288282206584       41.85564312703589      37.806202435579252
   225   2      50.147837870604278       3.680404458844059      34.748582394972168
   226   2      14.495104649274404      35.957016184419274      5.6735812412462803
   227   2      9.5720735082519042      8.4407570118895094       22.15387789021786
   228   2      7.4934228168344976      22.209095014807094      18.254043485541789
   229   2     0.79085863140564072      34.903654116277423     -6.8430425035816347
   230   2      6.3887810461668666       29.17426229192931      18.916358696954671
   231   2      23.897582336530828      24.172977545714019      7.2425540643402337
   232   2      40.913844676756646      40.120571638549926      14.426157453083043
   233   2      10.749492792170743      36.374246317002516       37.00508024376353
   234   2      3.4808511398486028      36.771801553642561      37.777861465443131
   235   2       17.60621495878161      38.021200142707293       26.11582339886078
   236   2      6.8209582857900051      46.358437058779636      21.349315038163525
   237   2      29.242272161049357       33.06629839645305      34.269967853006804
   238   2      32.829780997541071       11.32322377171347      38.164855399186891
   239   2      37.173177326501602      27.239072597980446       4.353190389408403
   240   2      11.484667829215102      49.372048590466541      11.668681108184451
   241   2      8.5582781115537259      29.099313405966893      36.720610176795418
   242   2      16.818988056374028      35.456387314034835      22.762169653746032
   243   2      7.1794453157221065     -5.2380663756532879      -3.124460543330204
   244   2      27.132889782970519      22.034361576353682      7.3816541260900959
   245   2      6.4574045372667834      30.025634411801438      27.916791549177617
   246   2      20.665665079696687      2.5434872004450839      11.864780164900358
   247   2      42.602902717115413      28.535706213757713       41.03636584673977
   248   2      24.816747847247523       33.09832149710482       18.60455348960226
   249   2      28.773088497417248      7.0779446536131623      15.548591058115091
   250   2      25.188960069422485      13.988730083616982      38.910122607043476
   251   2      28.654000551823881      4.2458727265467973      39.850500257816307
   252   2      35.128071379497491     0.93733986013416082      34.630984831284167
   253   2      11.714365611965375      34.424863294305055      8.6110433214058695
   254   2      22.384128721675658      35.344047210529205       43.15225664844764
   255   2      45.119032403946157      18.723167800746378      27.551005362181726
   256   2      39.395098305696017      42.211610710171364      40.734716190116927
   257   2      6.8215969209317624      5.6522518300136104     -1.2326904393562064
   258   2      55.363330979581178      36.302358332358693      13.156701315683106
   259   2      20.967394211350499       26.66676949235676       23.22836791011007
   260   2      39.209686734973204       9.299743440766747      8.8461100188043886
   261   2      20.244881224175035      20.772242837160821      20.907077221156193
   262   2      39.708916646510815      9.6488059253994916      45.979794498792778
   263   2      4.4740324286355966      31.550298772960822      41.893923029817429
   264   2      45.297056860659573     -2.3032893190016717      42.933860347440124
   265   2      32.993060735314174      29.334496663769272      37.204234618157841
   266   2      13.713167043312762      7.8174389629708445       29.51409095881414
   267   2      10.074218104226832      15.293575465951317      41.061960908769159
   268   2      11.209386038928471      42.500068242972361      45.807746799654225
   269   2      6.0392387249451538      11.211681562661669       5.625125294307419
   270   2      51.790283827403357      46.354726586041807      9.7294866330496514
   271   2      10.485851875525464      5.6414398554042879      11.233343050324402
   272   2      26.967401804135974      43.903491717983655      5.4029759361143803
   273   2       31.19702853891604      5.2323814772464265      9.1063105814352081
   274   2      32.932908638150536      18.339940238630291      47.644267480473637
   275   2       39.74803724575699      48.551787180704672      45.084190946687727
   276   2      6.2368740979082853      40.953945705678329      19.610808280631627
   277   2      31.975453320814609       41.68681306483807      22.575392743833994
   278   2      9.7293833886231287       24.25175967405772      2.0756159145505428
   279   2      22.539284457469424       35.19626231080008      35.536415669229626
   280   2       38.23995516175281      22.121434252148688      42.457722936486547
   281   2      9.7807940677298557      9.1196211093767161      27.122543544299429
   282   2      41.085341697663893      36.371882549813854       3.056643446608073
   283   2      50.747439704043082      37.962243179958058      45.829269925906196
   284   2      43.889880325314429      45.413664430030295      18.929676358123224
   285   2      46.436450309238822      37.444826444938855      36.838755853922081
   286   2       31.93256811253594      26.588725157546627       14.48566062281216
   287   2      43.607496813031688      13.796969592865986      12.626205639547418
   288   2      51.072397527816172      32.837402965501944     0.83522255423013703
   289   2      58.715817349480311     -5.4592090948154981      33.572981011559548
   290   2       35.95159797195597      34.627776373689983      0.9136339004221381
   291   2      19.081434596323973      2.6959298531929199      21.107366673928695
   292   2      18.166927947607189      50.984721081477545      14.888197020618891
   293   2      19.575731175178372      12.412344873265834       31.42661025874872
   294   2      16.742293024615652  0.00015628226487001198      34.141624067229408
   295   2      17.225664046848969      37.939630436702167      41.662065498207795
   296   2      19.081482143349316      30.455182732481184      6.8406416099644023
   297   2      41.689430493657142      37.688803036090839      27.523608025379126
   298   2      29.566457191806375      15.936225517632439      39.710153279007244
   299   2      27.583352945754015      20.318288804516463       33.41488340274924
   300   2      3.4483941292130806      20.723378703892333      48.058473208939255
   301   2       22.53752424806898      38.428747150490921      19.856694784301681
   302   2      9.0708521546896979      11.152977317517072      12.500848138458668
   303   2      13.780148968900924      25.326039335741577      23.937852114212042
   304   2      28.897235130222175      11.529624567764055      31.508053535897073
   305   2      28.112983798484613      31.705551858229803      26.719025214424121
   306   2      10.949905223640602      28.999959971586826      25.767743036292703
   307   2      15.911702370856483      9.8433304629709255      12.367193617166329
   308   2      14.651187373208346      4.6380283834425464      17.322048319800928
   309   2      48.059599893930489      16.394172889901352      14.124562178040142
   310   2      18.378240944874275      6.1301160866879405      19.056557799972527
   311   2       35.66736090212882      33.831485277169541      38.680055113729701
   312   2      38.147546113382347      26.783926631277531      15.715728667321807
   313   2      37.855272723768408      13.482612126892032      14.009334071382339
   314   2      18.070680504767132       28.65735225814197      20.653270731980438
   315   2      38.029063248041581      26.246256374998488       9.481850728872379
   316   2      49.686530336600057      41.848625281948379       25.66699612500333
   317   2      9.1520449844056024      1.2215065948110042     0.20996637578326358
   318   2      47.642798218813901      11.096473494086394      44.697162531518124
   319   2      18.451251041775681      4.6774629912031367      44.878481833504154
   320   2      35.316575575395241      24.736907184698758      31.876883774291837
   321   2       11.49032418601977     0.26760094679255303      35.375890517782587
   322   2       51.36259110247353       4.953339864458016      54.117188941828644
   323   2      12.007559346463134       27.61195786663999      31.627116229006557
   324   2      23.454744962302716      30.851123649468612     -6.8801578914622752
   325   2      38.986310266613167      12.425906524262384      34.430682858647693
   326   2      37.270188542130875      14.634855961855497      1.3362948738108968
   327   2      13.959025727158172      12.595459798890198      45.091118371211579
   328   2      50.106835536737556      50.562172939817955      3.0341938594142408
   329   2      12.168053785577278      15.765885538874352      11.865060072799231
   330   2      25.415656420003966      40.611057011872461      3.2874161121908276
   331   2      12.492446863040771      27.774921884485554      6.2564748247887314
   332   2      28.697313888591598      37.596691977942207      36.893095406275194
   333   2      25.225990691782922      39.312823358147718      43.427985810385827
   334   2      8.5172968277880052      10.684470156290757       18.01788258040192
   335   2      11.856996344166923      0.4413503339776142      25.103446476012294
   336   2      26.298949915213552      18.755592287456654      29.465664748428999
   337   2      38.937994004137011      43.316597095611449      16.592057077623082
   338   2      20.805532885356698      44.406412080742236      0.9168919083511724
   339   2      16.400753134886266      33.156430233061421       19.39095961115402
   340   2      47.968271439514368      28.924600663721986      1.4325243286836182
   341   2      34.269200019178655      3.1869089959845316      48.787153088019984
   342   2      21.724499854920232      19.569040542674042      8.2822259168169161
   343   2      25.876121968986329      16.696480146292089      35.820495357459151
   344   2      12.443508315410289      12.001230931173245      41.972545783925987
   345   2      30.074831491751219      22.425088057950216      19.912183920151751
   346   2      37.337417665506315      44.142175279809067      0.6459820975213354
   347   2      15.177176675362972      16.564218305331174      27.481281598029359
   348   2      41.388299190643927      21.392144817845431      20.086214095465625
   349   2      -3.003768632371997      52.366284686508195      33.458001214791899
   350   2      10.082274301284016      31.954714198539335      22.764613635813848
   351   2      40.270091756190467      18.105342045671051      44.732671078876379
   352   2      -1.649670925781783      36.313006879811198      11.570129034954073
   353   2      29.743366306620864      18.959811083404265      16.339876990260016
   354   2      23.565257081606305      29.716662383530899      21.432099101212266
   355   2      25.795003956712719       26.31727352563648      21.240033946738972
   356   2      10.214479105286173      49.711492511338577      28.947344219295299
   357   2      34.503497490138969       18.69912296916613      10.252217101355171
   358   2      18.909352795687045      33.295514844034265      42.006730523213704
   359   2      1.0315394264664786    -0.64129345838489038     0.55096376962140026
   360   2      17.656749764999276      20.584467682913182      16.141187027305531
   361   2      36.363270475721478      4.1436114861488971      27.871449873321318
   362   2      17.619993945937065      38.010000073585047         19.874086094347
   363   2      31.427856087292241      3.7051689478404164      16.323555432078447
   364   2      14.517430227001606       32.59706054479615      44.786066138646419
   365   2      26.236691655911901      13.785380706405281      15.552142390519657
   366   2       44.08448945561134      17.460124426451628      22.317734684661669
   367   2      23.965811962180961      38.185063602003211      39.497159877808031
   368   2      26.080523839850525       19.84769461011301      38.858617095878088
   369   2      15.161071174116334      14.858096984306677       42.43654850619194
   370   2      7.1344581103280715      19.075006346184313     -10.765131818923905
   371   2      18.810986412348129      40.280980157131815      23.118718394767363
   372   2      13.600536057402637      19.649514543082226      33.956448545999208
   373   2      13.701160737205907      15.834234937859341      17.439366846535385
   374   2      34.174209380254915      4.5951431045633351      44.415704282559489
   375   2      6.9997099548046107       6.462170165634415      34.649298732698846
   376   2      7.8492378496209669      11.987582621015964      29.894970736223961
   377   2      25.442076499432432      34.040997538800276      37.320114863122953
   378   2      40.507506445215533      41.639244637806591      37.126344246764063
   379   2      18.565719984331466      23.453879804179675      23.313469068461004
   380   2       23.23215740172876      47.892505262652847      20.952073256762969
   381   2    -0.69217536386548717      19.110114833763042      44.900995630533949
   382   2      28.095396309025116      27.658171294472154      33.737850707628162
   383   2      33.616247621052594      6.9081459140695261      37.346534377587119
   384   2       24.13429624698092      24.524080878273875      36.047160613344317
   385   2      33.554787969306126      18.167381680750641      19.843989351155081
   386   2      41.703529647593676       11.07990941460657      48.816349877000199
   387   2      8.5019469029588102      28.402579754496397    -0.83713781371624585
   388   2      13.029225935505986      35.302282059950244       46.61979775965164
   389   2      13.239086882343257      7.4513612894296806      20.100926759683585
   390   2       10.68331898143515      44.341887111162642       11.42762783818165
   391   2      2.6990689542624713      17.249390588592469      45.683098331573014
   392   2      36.960503250634467      11.639831805706285      42.628239381314927
   393   2       7.340722714341446      24.825934571793717      33.978132384711103
   394   2      20.839649688434331       24.98627276930684      51.727544999248821
   395   2      18.587040211326006      11.271928955726226      17.613555457836409
   396   2      27.425905417038031      10.781761820610571      23.907831497445947
   397   2      20.228852412244922      39.793857786511957      17.000620331586394
   398   2      16.517225894573375      20.637861489978118      39.526732081832037
   399   2      14.608465076170512      28.288264314131137      14.585951406314219
   400   2      11.514727139089842      12.431109913245626       19.57194221642289
   401   2      36.286502685867148      23.474077433432079      7.1263280067333827
   402   2      24.506514430614061      17.608006547374867      25.475802596121603
   403   2      15.388349669895463      1.5077234293780148      42.707780608489422
   404   2       25.61440174149158      27.926631170642224      4.5528080136579563
   405   2      28.074804616924983      16.752883059666633      2.3352216994931867
   406   2     -1.2873556007334954      32.416915907231463      15.222028782464644
   407   2      2.7809919812974262      24.438565438796587      12.871612862667568
   408   2      44.603854172627962      30.815038179720727      18.570674131258219
   409   2      4.8537438584215504      20.526159884825855      9.1937943064749241
   410   2      26.090601345371994      44.837634038626199      38.724001497827651
   411   2      11.659748077169063      12.153342610994144      49.656335263869877
   412   2      14.731606557646611      40.197945729779534       22.33004542569897
   413   2      25.732910299950515      36.123561826440806      46.635444603816858
   414   2      46.680630246785412      19.052151882207973      31.617293856775639
   415   2      38.670813699431314      22.084319628234599      32.392361580395445
   416   2      30.895260865663566     0.49852477226450426      37.463448173077367
   417   2       1.404559975007952      34.468414599780694      27.438681387137756
   418   2      7.2086162141008421      33.593968129946788      38.524609839440963
   419   2       19.40118660492293      12.072017295220695      39.338588899154082
   420   2      5.6180584052590099       38.78681971481106      6.0379881462467351
   421   2      36.480323435433391      31.816970836626361      16.798028875530701
   422   2      45.908409357036319     0.45318028039103592      4.6900987109200587
   423   2      32.009722086609244      7.0357429965325764       49.89103560962289
   424   2      24.022533473383714      44.531892492924996      11.884620370946584
   425   2      5.7546214836958356      15.299393067955798      23.648707455606793
   426   2      2.8903545341075518      21.145837469323602      30.524256081894006
   427   2      23.709784208223393      22.662919930467872       25.04337232143132
   428   2      10.158036936802588       15.08065796231296      44.994845980673318
   429   2      52.469441723420594      33.973847476492686      23.497072261738683
   430   2      17.727249612118474      22.387822624926784      35.313280236859491
   431   2      39.912545142494977      45.342116416235307       39.64802777209124
   432   2      10.601137847642233      37.246499722133947   0.0077680939351502439
   433   2      10.051116971490705      19.268412232306133   0.0072597389413538334
   434   2      47.539215395977045      3.7848030746840906      12.593450218097699
   435   2      14.206655776298344      4.6392977648382301      12.185930648423168
   436   2      44.407290771901287      8.8865733946867245      46.689678212734457
   437   2      27.064403888927522      38.079021367164664       22.73230243777877
   438   2     0.59020675413123613      8.9321860270540743      33.543180545384878
   439   2      47.278567267568519      32.671677906389604      21.542077253958826
   440   2      15.313715971076833      1.4263255268296449      46.774617946809308
   441   2      14.541416356983047      19.928496724213876      14.159798758370602
   442   2      34.026467063981521      23.160963186205052      28.507626917069786
   443   2      32.836473165072533      34.837537099414334      13.075134707864049
   444   2      43.421852803074252      9.7321199533257499       14.20938055977506
   445   2       31.18551910139745      35.624595459989123      26.242753352646965
   446   2       33.23399221368004     -7.8896395256462277      43.558424238775011
   447   2      28.308167407233437      11.833945254002455      38.490721747394709
   448   2      32.589606399644282      15.786481096067204      8.5596182751409717
   449   2      46.988043793369194      45.432560499783762       11.66952919477033
   450   2       20.38855233722477      33.801989609699277      29.914186649740817
   451   2      6.1451885229472891      45.195751889969337      17.717543120942938
   452   2      47.054412982475554     0.51468148224076704      16.703504896912584
   453   2      29.405663474873993      31.947768004245351      42.594252156420801
   454   2      46.727419016115839      42.708865768474709      15.582730018051736
   455   2      11.417160731975995      8.7999151803964235      -4.830148512260096
   456   2      48.187468391295774     -2.5095904430623559      25.032815595825205
   457   2      53.496262450737383      26.249991089724844      30.816666318775294
   458   2      4.8103269867386738      32.139103511666718      35.752744674338416
   459   2     0.11830731136386312      18.933064703502549      18.741392609916865
   460   2      15.381323577160062      31.693165446648329      37.107508800612095
   461   2      11.299776296345584      28.908245116789619      20.969310238272847
   462   2      17.187019814473921      16.204674082627768      18.102574885936662
   463   2       49.98772090491957      38.267128690147523       1.754193517406464
   464   2      31.992928117179684     -4.5949564614237755      11.223893888900312
   465   2     -4.0587016510507974      34.446741819572537      26.009814280161962
   466   2       3.097932502311703      40.365535581613784      8.7723882798782622
   467   2      2.2814860329585822      4.1598699396414318    -0.13391710372048993
   468   2      8.7133467149114345      20.963256841175358       27.35641864910632
   469   2      6.1731242776771831      26.952904545488803      40.144399653421253
   470   2      2.7816908121174806      24.227258779202227      34.093257645221755
   471   2      30.918355461554988      18.389422223003347      32.192221865641166
   472   2      41.247845667258026      31.542522110745495      23.670847201269613
   473   2      32.403244678505402      7.9305077865797928      41.327144660297201
   474   2      28.665983254733998      8.7076076513232774      11.175403349244531
   475   2       4.182378760480038      2.5267410491037077      31.499781718651487
   476   2      33.712483540875112      47.395051395796585      40.952143437934829
   477   2      17.759498187920432      25.202257861441595    -0.21185159600998379
   478   2      25.727777883409129      13.463051665445889      35.029321228548135
   479   2      19.394735707866392     -1.5807108812642585      23.149271186258783
   480   2      8.2948460832053055      33.123921394175113      11.946191901714554
   481   2      22.034337201805752      1.6808381479530214      25.798301599213719
   482   2      50.518294661150016      3.9067824653599019      24.041876244801195
   483   2      31.488918929558348      39.731491827308446      11.552774211943371
   484   2      26.042366754292718      7.5926579575693083      40.233448261312638
   485   2      21.700011914258521      27.802600664610129      35.395634346379673
   486   2        22.9018940566691      7.0226795950272942      25.037779071808789
   487   2      20.864736156305057      2.2309462766145489      7.9191151533838866
   488   2      17.352791829160434      36.517098158894974      2.9046624750285601
   489   2      7.2534491599427771      47.545154384762981      24.914875119696397
   490   2     0.33915266795747739       23.25732512312976      54.454993114798334
   491   2      15.514416487067178      8.5377541693574681       43.44148856995416
   492   2      30.030412854474477      33.189003452004648      23.068471257247673
   493   2      19.014573937592473      7.1657028972170123      31.469666746864362
   494   2      43.292407000913833      13.711784607062873     -2.8245209915002394
   495   2       30.94196442611311      3.1011197401938935      32.894342866777258
   496   2      8.2442928239948827      14.558130922182359      14.422592367262563
   497   2      5.3612541225148522      46.504057778958725      35.062941654422985
   498   2      33.424208252849063      56.460038526283796      26.575925120526026
   499   2      47.037721743087076       14.81859493328532      32.663859563202919
   500   2      14.311655025013915      30.828046675746322      27.768698892933365
   501   2      21.250487807972323      45.287304271131759      15.011745343028695
   502   2      29.144529699094726      20.181996389651324      48.820270729261601
   503   2      9.5132240404021573      15.616741537141053      51.182333250719132
   504   2      37.320035613793159      44.735232469573553       43.32287564512545
   505   2      32.317263106228282       21.80200616912013      39.612064448954939
   506   2      40.416694583180124      32.077480712395108      12.034925123252131
   507   2      31.356149221442738      37.251057757210049      19.950783955774835
   508   2      38.183725580267321      52.641424523550313      32.434723976135942
   509   2      36.739734470682635      19.591665941963971      21.803726152154134
   510   2      36.968215957373914      8.4443677089262295      32.288044552529982
   511   2      2.8585694399080914      8.6300315185264882      9.0412151676458485
   512   2      45.224096409741378      16.789174315859594      17.363173299121712
   513   2      12.389974698874116      7.0478238484591342      15.342950161386735
   514   2      21.868771584930332      6.8705665082241199      39.066980393412237
   515   2      8.3759847170404154      40.573119507393059      12.540531041140797
   516   2     -0.8234824002421538      54.505243975630364      18.288870476292256
   517   2      32.946709729569989      13.915303130223217      12.062734508659355
   518   2      7.3551745414072114      22.291355220118973      13.346164903397403
   519   2      19.120393207269291      9.7119325553766505      8.8633094165735855
   520   2      31.229011101584728       11.13427009960391       22.17475393525072
   521   2      38.359202952748703      24.593559831199311       23.95838980382246
   522   2      9.9825564602459504      48.382599880357795      18.687972014839776
   523   2      40.142016591645756      30.711187792460681      7.9765119201554375
   524   2      14.232844290929389       55.18871882179949      5.6816970176212971
   525   2        7.55709534291874      28.355659102157055        24.5122884359651
   526   2      49.102050541043653      31.321902136143628       46.43909510846283
   527   2      31.701278978690002      8.5465362366991773      5.8028746145031187
   528   2      13.061870582162708      54.810070876622582      24.253959870812658
   529   2      46.097895854727462      21.899906925911644      20.173558700137558
   530   2      41.997559806792331      13.258912461270366      38.933564740027194
   531   2      22.926240365534312      27.145796483167665    -0.83837841295730664
   532   2      16.770471381947878       47.09534723081822      4.7572534802725217
   533   2     -2.0342669532624873      19.832498853098798      10.504528082853193
   534   2      32.928762690776026      6.5860393168952545      13.529153445931296
   535   2      30.762599011476837       18.91567729123437     -12.697320333964422
   536   2      21.705120482060323      24.721096690902961      11.231775698157447
   537   2      23.616449717425883      50.622204914822916      4.6016160084026172
   538   2      27.679128884134599      4.9135712698876652      11.874915517657453
   539   2      18.704275020568048     -4.0036331411633048      43.631085066413959
   540   2       51.08643329596179      38.271059797425359      12.828257835028795
   541   2     -1.5159469200080196      3.4915668057608351     0.41643628362473634
   542   2      21.640121755880738      12.399180088901867      7.5724899811281992
   543   2      29.798128001752183      42.117003876027567      50.192696362983483
   544   2      29.389841657715248      36.297087004506679      9.6132850249323134
   545   2      29.838462630260949      25.457099377072719       43.62590210261191
   546   2      9.4636205632693837      6.7147850141148062      1.5096160480026972
   547   2      4.0524992919337564      12.309326488960233      40.185130801542371
   548   2      27.069098739136486      30.617948049038048      22.294642244591692
   549   2      26.447754709881334       32.67506703992008      55.483460721659789
   550   2      44.884751180069038      17.030423366277358      2.4321697301768297
   551   2      44.088358474719961      40.950253824560299      27.153314447157179
   552   2      32.311494379360425      30.846243242210253       26.39630207787966
   553   2      15.166811678101803      2.5971657159639339      34.644789718597842
   554   2      27.259160193103028      11.286457317970074      42.123811047035723
   555   2      34.853389485547574      43.348483027562352      18.881599579908709
   556   2      18.990396712398137      10.223797123300612      35.461525454393495
   557   2      44.036806350471764     -5.2812372349159746      39.193066850647028
   558   2      17.323033692087908      40.376369820360317       32.95162907676599
   559   2       14.08398819865493      21.486987957489315      2.9590668640806883
   560   2      18.626126519358941      11.958341607031189      44.740221598255864
   561   2      32.475359648500017      32.003368614723676      32.460362098688677
   562   2      14.949322664990129      48.006269739734137      29.724376011523429
   563   2      9.3424043010844766      25.904028315468874      27.314105308313341
   564   2      16.205830164979837      5.1169795940278471      39.822374412302771
   565   2      1.9732812537636708      13.452294483851658      31.799699902754458
   566   2      29.806807005200675      8.3510914458162997        37.8596420818767
   567   2      41.296499022374505      29.893682913806462      16.754192621168681
   568   2      6.2341685079934726      31.043351093014511      52.183031865661526
   569   2      11.024972551186462      24.268926684523457      17.147931742965643
   570   2      7.2755454554500023      23.526196831563052       5.066971742168553
   571   2      24.542158985644821      42.338001541929344       41.11701170934797
   572   2      22.581918741604177       35.95780440014363      7.1622392681791265
   573   4      18.868763521415072      2.1121439779425359      4.6080396041136291
   574   4      39.184149148256978      5.5663092858433005       25.91093096387338
   575   4      48.023081955910492      36.405029811673415      24.281010642140831
   576   4      13.772995092516526         22.040630703102      37.216207108439491
   577   4      40.870159225035742      27.606829114498659      2.3079053929744417
   578   4       40.77115813839238      22.024537706865303       6.957259121463256
   579   4      5.9778697309005144      43.226856297985336      32.569194268926353
   580   4      20.728673024349813      19.447929314957936      24.733561146866794
   581   4      12.464529370842595        12.7209215356988       14.57105466254021
   582   4      22.250161386543557      15.028498972851162      41.267863601630118
   583   4      30.569513651001877      24.704395985920183      27.232664805023262
   584   4      26.410196862821547      5.2662521094326733      33.573543681382418
   585   4      16.536288098368605       23.55413615356121       27.00996272692548
   586   4      2.2406117389678415      8.9694404321604342      4.4140430382152394
   587   4      34.644607959947933      21.490727081851581      31.332889209609739
   588   4      36.125563417246532        22.2322017460415      10.955581444233774
   589   4      39.987898805089884      15.461783734027113      21.867094726274534
   590   4      35.216033183200594      27.019923097911494      48.337219474560236
   591   4      9.2299416680170623      10.394458147874833      3.8787877602820799
   592   4      25.587866380917795      27.769524657897822      28.805945917368295
   593   4      46.634401385287362      30.327778124107397      37.229451961437995
   594   4      9.6398038218125581      34.602656919023985      41.840423766591179
   595   4       39.37004836583565      39.466543868495748      44.150446963349253
   596   4      44.411997996567571      27.650194331131573      36.410951537680226
   597   4      33.052905414724727      4.5181044267469943      29.567667694536592
   598   4      8.4971774106273816      49.885083407391726      21.973187396829829
   599   4      38.399005851284272      35.599728822105355      35.348013171142746
   600   4      6.8658806272188615      32.205002476997535      48.841734281577899
   601   4      35.321237574139168      19.920408573157211      41.485853949211268
   602   4      44.105262907855831      32.497567053912512      30.508698558308538
   603   4      42.511916595476563       24.11547082913258      23.110564411086987
   604   4      28.876301621754941      29.356491652132455       8.442553277334758
   605   4       36.98158361055917    -0.43107493866797869      26.913638552237437
   606   4      8.2351425003771457      10.294677820654849      45.432230057245384
   607   4      1.8988272443514829       25.40871736848667      44.467277884973321
   608   4      23.953491019496052       46.58443099888477      28.009982683916398
   609   4      38.387533309773907      46.685242134650977      13.957976675177212
   610   4      3.9127860866914133      3.8311547980471694      37.775074326062445
   611   4      29.640794450641057      39.372547000476771      42.970217682347005
   612   4       14.80607892595777      38.426164694388341      13.938784615591931
   613   4      20.895813296568175      22.927570173221408      15.599278438639775
   614   4      13.932377164224434       2.649433057700223      30.406347871042396
   615   4       6.213222267119539      40.396135811623353      41.176404797023721
   616   4      8.1591477235170817      33.589221512881579       26.38901789090675
   617   4      8.9003699217136489      43.198917234981209      41.017726720519818
   618   4      5.4891198145506506      11.731328925278216      15.219265432936108
   619   4      44.797723764082271      34.580138228841115      18.011647629346939
   620   4      25.674736454991674       1.272193409270032      18.006001130756221
   621   4       24.12615804747929      40.966751515305766       28.94412528020132
   622   4     0.88879840242802788      17.711493831403175       41.78560379839027
   623   4      18.877070413817446      22.022986728459308      45.906641702425595
   624   4      4.0408553866423143      15.731876131003235      36.767870826899674
   625   4      33.403320896350692      37.866336142214855      15.546158486036482
   626   4      20.720104821054157       35.41129583342024      17.374882663703119
   627   4       41.17083245809723       12.05193067864151      20.747399231530821
   628   4      21.488192366413006      23.437362527626707      33.705278575032743
   629   4      9.6560321270810405      31.814005311431135      18.265032249238683
   630   4      15.477068666429041      6.1141700715415492      47.209862268862423
   631   4      46.623522585335564      34.376376704320982      44.924626744618308
   632   4      21.819240937270724      1.2133527704269564      15.066252232567129
   633   4      21.185484208419631      30.013537012564175      32.158608797808135
   634   4      42.791919140034857      38.097516875540016      10.521487741314326
   635   4       10.00780475976843      15.118059784671274      6.5487951512373064
   636   4      27.883512275443888       24.12852793677742      39.901756543752967
   637   4      37.071726369340482      40.752690658677174      7.7174928933966447
   638   4      5.8983543177293658      18.380628879552233      19.320449327152271
   639   4      27.810737607225033      14.321460630491053      47.696107787472329
   640   4  -0.0056234111316820889      15.546020625105976      43.952064486206474
   641   4      29.877755658645764       46.83971605418472      40.498071986059571
   642   4      41.102355127374118      29.405386560299192      36.409212205900893
   643   4      36.060632502146895      14.815229672127767      36.286338946708319
   644   4       45.48521532396677      4.2140434950296664      16.089569931221668
   645   4        41.9666736941629      19.630078549490126      4.1561763954883011
   646   4      20.262380277773943      37.225709618549452      13.216289303721616
   647   4      11.317045906812563      40.322116015426523       20.38104966127522
   648   4      30.084061302469078      24.700072726192499      35.022179658715331
   649   4      17.700026673290495      26.082551079749305      25.643955504954675
   650   4      24.859475554907259      7.9198369084198434      44.689211042016943
   651   4      46.554499540496778      7.0153425199518917      35.596642740135472
   652   4      4.7969932923470768       2.273824901623454      26.734798386203916
   653   4      11.263709476054842       45.21889064673973      48.701036537082693
   654   4      36.675792215472399      7.6913634818413437      43.329584709700704
   655   4      34.039501805560789      2.1810884075974251      38.948461193032315
   656   4      34.216313054275126      46.722931185921091      48.426319639256548
   657   4      42.373637784740453      8.7399645572673563      10.752130785079041
   658   4      45.653732648448297    -0.26271606128203429      49.198801200579467
   659   4      44.151830738015903      20.165251067951619      44.737903105829915
   660   4      11.440589975845192      22.968750382309924      40.125390530651266
   661   4       38.57914138302187      6.2963930226857814      36.193150627108302
   662   4      31.183864828712711       29.49644708210127      21.769817049531689
   663   4      36.088031429210318      4.7127836611144565      18.477289090591974
   664   4       43.23018728695039     0.63500643743609131      36.313389519369728
   665   4      31.429653193890879      38.221771401109756      7.1934758653411741
   666   4      25.031802027715134      1.4539647379995801      28.998317492809544
   667   4      8.0189144446497949      8.6082412106183739      9.5430824519056277
   668   4      9.3857344535495972      46.772613684069569       37.93311394227706
   669   4      2.8893543434555244       45.00654337443045      19.542754287562204
   670   4      8.0175061045643456      28.922010531212162      43.546158201278388
   671   4      29.604271717258857      1.5833724358740766      24.125866325374918
   672   4      38.648518028926816      3.6258809017065001       48.33897405640122
   673   4      27.384344706850275      26.342925840409922      36.915167256939696
   674   4        44.1418296549625       23.15630500088966       8.187292308284114
   675   4      22.656189673759656      17.391248087469513      11.839920979523667
   676   4      47.963053537193424        11.2871156851878      29.534096828137301
   677   4       47.58656671663973      25.565496282816397       18.31784463531244
   678   4      3.4917610204496707      46.345504415012392      4.8059791387037647
   679   4      22.392439369696692      3.0070885087248813      18.406030859311496
   680   4      45.262323395162404       30.15538921064433      24.220778132792567
   681   4      42.238958868816852      9.1704982570579343      18.440170428313607
   682   4      13.212109707471209      46.601308433660577      2.8219099901783604
   683   4      5.7154028175939313      36.268874689597922      26.653026075429455
   684   4       2.460127380245515      20.509368047132785      35.479303801983015
   685   4      33.803067195597585      21.685047162831516      20.622962275606938
   686   4      19.050495752567432      38.304040184829837      6.8471973531228416
   687   4      42.768796783899077      37.441601340878599      36.760418656442312
   688   4       35.26340885875296      46.448335463412278      16.209116240584738
   689   4      2.7526880991912339      18.789773648405955      38.701481510279621
   690   4      31.528730547702043      21.439395414343007      33.478262014320293
   691   4      17.905535249751217      39.922068054795062      12.204346424976777
   692   4      15.537543782534016      34.758909747263928      27.944298040411734
   693   4      22.544510184416652       20.38385137033093      27.955988705423859
   694   4      45.927799120045066      41.892492971434507      42.036041455202842
   695   4      32.250813467634323      12.935490310596203      41.915766691238034
   696   4      23.521774447434261      32.429207904957387      10.089714063522237
   697   4      31.614371525111682      47.994804332704462      33.742036348610121
   698   4     0.16655773005945282      48.854489217774116      12.548593946220649
   699   4      26.633551359914311      10.975670259551498      46.227104776244055
   700   4      20.478126541998577      8.2942418028811122      12.845109707145221
   701   4      41.041809112781308      16.331667163492543      12.208286976728321
   702   4       20.21403946271743      32.757180854572475      20.063712128965118
   703   4      2.4095371546470212      28.907087922842813      13.400201549019743
   704   4      31.957184717106244      25.564679399014747      47.013595472480077
   705   4      38.333809228667903      44.988650517348354       31.80656428659217
   706   4      44.244938779046464      25.184409909210718      39.388689908732168
   707   4       51.12004895091367       45.47170738624515      28.094231269324258
   708   4      42.850309598843729      19.636115936124373      41.381509603384558
   709   4      10.635324990803282      16.646098276344905      36.463462930058952
   710   4      47.638878538265523      20.156502622604073      23.406759666066549
   711   4      12.044307940223916      45.933928239317645      8.2187437151804836
   712   4      36.631921557717021         15.363080850669      19.993265197160159
   713   4      19.990853036657771      48.467681419375829      41.708959256149249
   714   4      20.306121924705774      14.906517942510748      47.364487255959347
   715   4      14.746993923718096       11.81299854371675      17.451181950224822
   716   4      12.374321198885914      40.578317817784729      6.3290929431764189
   717   4      17.612157210540655      6.1907194543182245      14.241607894739399
   718   4      10.235950074681243      20.277587679657753      4.3582423745866778
   719   4      30.809053445791722      42.658032085466729      18.881111957235781
   720   4      49.217682956940919      15.028136411506757      18.018194035480779
   721   4      47.935474084866712      26.922672032018905      13.455371480349891
   722   4      19.965505301418439      16.718028755517246      33.492560950906508
   723   4      20.620010649967728      9.5424624233351434      20.530515137510964
   724   4      6.8586178112163232      25.732122925757366      17.241274261585687
   725   4      2.2090962872468722      10.363137684423794     0.76871973168519736
   726   4      14.282375498129703      40.056926485080403      9.5581874566597271
   727   4      21.521137410293523      2.6845868404597248      1.7709286582687216
   728   4       13.48280422251335      45.855206972618987      45.697702324567295
   729   4       18.94324247561552      29.023249338034667      47.872054260856132
   730   4      11.584458556480095      23.594239770522488      30.895657856330935
   731   4      19.161758280871297      22.910865416963503      7.7829299189040508
   732   4      32.462711953843851      24.985129622499418      37.840981296092764
   733   4      12.367188475260058      15.841388168163471      47.559407680871573
   734   4      44.654987502330371         32.526284836715      6.1027613227608182
   735   4      7.7572175916921093      22.985225383358578      30.924552740065966
   736   4      24.362527249544421      3.9679200212933239      48.312885192995957
   737   4      33.323789334471329      36.037276643719849      23.063847571317332
   738   4      29.094872950190656      18.576532247788915      9.8311850864861405
   739   4      41.889623076037608      19.012259767273321       30.09521980488336
   740   4      13.022271539964663   -0.058753458994449149      15.562502088136043
   741   4    -0.19448442147636624      43.419222788918603      44.297151783326136
   742   4      10.693401419653139      19.636207791331202      41.853221829612615
   743   4      36.136884311738584      12.354779174607746      10.069913959050139
   744   4      28.633424445781777      46.352403026796559      12.216156527676112
   745   4     0.16084637502004984      38.684218308977172      6.1423462500403874
   746   4      4.0607199246476586      37.216065608256656      41.557871997098061
   747   4      2.1876564236283689      36.285085873412505      8.3307897150685122
   748   4      14.292785592438175      36.426434918736923      10.749363094750366
   749   4      35.260750537143082      1.3057222799381376      17.305608256139973
   750   4      4.8833276973561039      20.188682981703831      25.883516651170492
   751   4      29.871831288760141      8.7472677543640831       20.04937163127568
   752   4      13.143205077865639      5.3852935154448325      1.3540733894776686
   753   4      7.7658242948912468     0.90893971925562134      33.007836930417582
   754   4      41.351268102382036      3.9890033024577289      28.567866485972509
   755   4      11.493876279385365      23.370516259322642      6.2818949581305015
   756   4      5.3790950769189791      28.333918168156405      14.993962455174769
   757   4      44.366988482198792      43.355591998981964      35.117921390471011
   758   4      42.735461753221237      13.356637121010877      33.088537398205688
   759   4      33.294510059560515      35.331936213517281      8.6324456977647852
   760   4       7.688147412737691      50.517411226490061      11.924568417135623
   761   4      49.077854124603235      15.171878933014249      36.731494929356714
   762   4      15.004115907308968      20.411362888624929      25.538615766951541
   763   4      17.415660969331601      29.233845853325853      44.214250651238018
   764   4      38.195082555929282      12.938261705909071      39.023854236495708
   765   4      28.274532511932644      41.113700210298681      24.465835702600803
   766   4      3.9461133595989413      29.646805385640523      38.062199385222797
   767   4      15.903985956145981      13.978435516581465      38.659750617817245
   768   4      32.430482514166435      12.278032699596757      28.093957694583906
   769   4      34.904477129270845      26.856591971687845      35.504605393008575
   770   4      30.653895685389781      3.9413991537995949      46.712761796902129
   771   4      43.595118461314584      39.454423433364433      4.0259560469951357
   772   4      33.332514969937982      41.274539306194583      8.6467086268319591
   773   4      44.846236862168858       20.55713076360157      16.641128015698946
   774   4      15.020486951469463      10.703308180228939      8.4646420389559545
   775   4       22.93831290878261      42.629653213597855      4.8485282388404407
   776   4     0.76761596173167845      39.273943156650773      35.606538291156632
   777   4      24.333493429052933      13.247995857875528      25.388784410575628
   778   4      14.763337902684876      29.122450070796468      34.329685715130168
   779   4      31.224166766799154      14.964100658486828      48.685242730228978
   780   4      10.628813587394605      37.205077332743329       10.89836593830891
   781   4       41.50733065393014      35.626780980068091      17.048458207598916
   782   4      1.0230647513108055      9.1464971276887823      20.295636734131097
   783   4    -0.80015996940503809      10.525663199010383      8.5459518883997205
   784   4      31.252066995307121       17.64715680848624      12.819342197271766
   785   4       46.75746552793057      33.470865630632289      38.920955745754682
   786   4      27.172538044616417      16.367036507129484      32.609067200852408
   787   4      47.220948702309407      23.172050051571265      28.660761627895031
   788   4      29.463756267293501        4.52545145094739      5.9042976537357887
   789   4      31.016172706942282      45.328341484122888      31.065443889378379
   790   4      36.568366700815027      39.354426218692474      15.032874769529965
   791   4      19.821937615573471      33.079238360497563      9.5415832679993908
   792   4      2.2070922284570913      18.064019546649149      11.635942199296444
   793   4        41.1321599242942       8.558181310140343      26.706402794758322
   794   4      11.514474169777065       30.92469061455261      14.979279975389701
   795   4      38.193640001965875      2.1853755620703956       24.59494130417929
   796   4      33.892058516905443      26.873910305252835      2.6933106707979344
   797   4      29.984417389281333       46.19082295953168      3.9864482132254984
   798   4       41.43997154635084      2.9089919510585007      6.7856281418406486
   799   4      9.3734636339962432      16.914200207930243      18.792830363340286
   800   4      11.522647983239404      4.5738119783648372      28.134129170311294
   801   4      48.563343702778035      40.122148754364957      29.322704754442903
   802   4       22.53523328677948      34.494299844400516      14.254715019589387
   803   4      18.128157218408052      33.198209237261729       25.75034712984472
   804   4      15.376989213514467      23.644588236431186      30.734873738831979
   805   4      47.195894918956384      40.387642800400663      3.0941910011968878
   806   4      32.765164174753806      6.6035855012147611      19.033714592079434
   807   4      8.7600080761498944       12.34448418758763      38.227593021910344
   808   4       12.47334582077781      24.804862265668689      13.000460167632005
   809   4      42.283271109566833      48.832137264482768       21.04590994528796
   810   4      16.801793685837996      16.526771045113275      10.882778787131613
   811   4       19.72526867438896      30.860433916586476      23.363988565636742
   812   4      36.755431420457931      26.688442158137075      42.257299110813634
   813   4      39.235194608196728      6.8246601123341293      29.379164160862405
   814   4      4.6019320693590453      24.454370612545645        8.04564367120242
   815   4      18.166114524065215      41.669544719428487      40.472921837720271
   816   4       12.55210539177482      47.858099315221416      43.034428744977248
   817   4      24.226504603108658      3.6448464317298592      9.3898676851381069
   818   4      26.548888393393497      46.817958774619022        19.0592889008011
   819   4      12.003414476175768       40.41786384569965      12.347903003269835
   820   4      3.3891389844454611      27.286178138762011      26.643513983054159
   821   4      3.9527928034596322      31.078498646201201      46.656000767315305
   822   4       22.47248288924466      42.858929938984161      45.639667354735536
   823   4      17.751454455219164      40.532116470637412      9.2267701577258094
   824   4      16.916620433821173      15.825279715543443       4.783837884595596
   825   4        17.6281129181164      26.075664515294623      9.2700318893827625
   826   4      33.517201627820299      40.534156622460323      47.225616632227165
   827   4      41.843545940826573      46.646618286824577      12.242298678596194
   828   4      36.066730330624971      18.033548142866916      25.810775304535436
   829   4      2.0750972387792976      30.880615661395272      20.872012544553272
   830   4      28.368760003960126       8.334210245547764      48.301401826482625
   831   4      44.212090595594503      7.1510167634892845      2.1425168574660405
   832   4      31.530949738385932      33.360140419571344      1.8984414786321371
   833   4      43.262465128353121      6.6616399566827811       43.70871777776707
   834   4      14.466815614985583      19.575663714815992      18.278293456271161
   835   4      20.334424813910868      16.897318557091275      20.383725363784638
   836   4      24.785510294106071        25.0248604809371      41.662494137822776
   837   4      18.066235308622094      29.083164614588195      15.388600335438605
   838   4      39.357321323640015      39.721150958123552      29.888210058068854
   839   4      40.622936332183308      12.572361086097658      26.646551489163052
   840   4      24.142258404606686      45.412840125079732      7.4731409455442517
   841   4      21.380546729579663      45.118460377138803      34.702491653994024
   842   4      16.278134164275652      47.226614766849416      14.274512213788583
   843   4      14.486188727046292      41.510999791977511      26.433634398780239
   844   4      12.812634991807835      28.427556117263851      1.8737719624707918
   845   4      35.637883062362185      29.051628112561261       32.69957916932713
   846   4      2.3606298409460931      45.252443440471637      46.447998619144109
   847   4      15.860029017651367      12.553314275203123       24.51525362133205
   848   4       12.98023650074623      6.5869407768823427      40.099347458801375
   849   4      1.4424025448988764      12.630689336197497      20.653597676729266
   850   4       1.023777039981155      16.973387863675136      31.725313665761469
   851   4      8.5057160784987058      30.482967195332552      6.5699241503948533
   852   4      38.344193717720067       48.36733476203392      21.720266372313784
   853   4       6.083574788588062      17.977524559088209      12.008818731444281
   854   4      2.4212903339795893      4.0536945078783511      41.343450477047845
   855   4      39.586136997481738      32.531876122560838       46.39986561026123
   856   4      14.290117426553898      44.325797081394946      32.449410171138688
   857   4       34.16392684327009      28.907260471586198      15.592062142028498
   858   4      9.7817339983887024      18.869721298926429      12.305097525401653
   859   4      47.369563206059674      16.498515480674282      24.558777658662766
   860   4      48.162610707192947      35.446766732626159     -0.4971802153674969
   861   4      3.4944529590586177      6.9602924959272929       31.49316620903851
   862   4       12.43389950255148      43.722112981821716      5.1093045490013775
   863   4      35.037379418648214      42.026952266058451      25.403406927540384
   864   4      20.897494224814562       24.05554927515421      19.254989257148164
   865   4       9.797319572025172      45.448456502182474      3.3685983428071458
   866   4      32.399633416088619      32.362650984693204      44.608298765722388
   867   4      47.580160468940079      24.855783174906474      9.0105518526145261
   868   4      22.672422951977982      48.063632294025147      1.0732792412140162
   869   4      43.175132376471716      38.217930003583298      48.946555205487932
   870   4      17.395947750548949      36.386541717032266       30.62818265949398
   871   4       31.07969017960858      27.157469360306663      10.302272597112301
   872   4      26.388131573804568      22.001357156114302      42.585944002719167
   873   4      43.934646035886573      25.930242944519367      44.919385827568824
   874   4      34.594300855018354      13.042058433334754     0.16733510281971042
   875   4      38.609587071503945      21.112895715082548      46.275852817453746
   876   4      42.545498305369904       38.59670096298079      31.367555617214581
   877   4      12.754491537808143      36.613061405019636      42.021964314329963
   878   4      9.7045206619245796      38.008244173043344      7.3668318268521924
   879   4      7.5897337549007773      38.508041517489843        2.54970163716184
   880   4      34.710925615569685      43.966820963986805      45.949469119697532
   881   4      38.749456036063179      33.914739231780494      4.3693201015222805
   882   4      24.146159897829062      27.439743038254647      38.857836167759253
   883   4      48.849324701027108      1.1613664490290929      32.001814582818696
   884   4      46.883762525380284      42.675889349510513      19.411130956067904
   885   4      10.457832250753624      17.596354717384965      25.157624225273675
   886   4      3.9920545583473599       49.13069449766197      12.241059581761981
   887   4      26.083581444486793      28.414073171781354      17.844914748833883
   888   4      49.687798023314848       42.48109671197443      12.516142510128335
   889   4      25.286747306311582      44.267567947979046      16.429235916251642
   890   4      9.0306538180388376      7.2320070316954377      17.621737392852793
   891   4      35.515736061647743      3.9305070856489013      14.797444757518816
   892   4      44.118086275642433      6.4830080865708917       27.80075963948514
   893   4      38.177162229502486      1.6270105608994467      13.418157901647355
   894   4      10.322322390048132      5.4579773771432967      37.512309731178654
   895   4      22.764393115482616      10.498707292097096      10.701919822105316
   896   4      3.9282103199411398      34.037705641578953      11.026898407603431
   897   4      20.244981094364171      28.676171220169181       41.68215907892327
   898   4    -0.61994744914126654      22.428632733173302      16.194443324133609
   899   4       4.301412466532752      17.778442780435064      33.501300684395972
   900   4      12.674870873948263       33.21896065756615      19.953873323082977
   901   4      26.054197557643668     0.87485407851257579     0.77275391906871249
   902   4      38.439442801259794      15.372683712077214      25.265487759005168
   903   4      34.431468412851011      16.606755391203521      33.345983281752488
   904   4      44.474713666813308      17.107345916120586      39.949464470645147
   905   4      5.3176611911288285      24.431596653483993      1.5926632403355048
   906   4      45.680751492784985      45.599458106733763      7.0675939731996449
   907   4      17.470271851740922      36.383152661743374      15.671013563017311
   908   4      3.4844509301877742      3.6632056428239688      18.546406620467515
   909   4      29.561637641932574      10.539326664580615      35.238605617548266
   910   4      45.358784226633695      14.303112987836075      42.302901134750151
   911   4      18.605281213323483      47.316398062848926      30.664097639117816
   912   4      22.547100281394997      5.8894480266450442      42.854351189141177
   913   4      6.6271451680822766      15.659720937416092      31.402628510654818
   914   4      6.4376578441549439      13.434793720035039      44.071363614543266
   915   4      2.2517053298880354      6.8406628515292036      13.047737151073919
   916   4      42.892862299987478      26.652883010845851      30.117658160861495
   917   4      38.885311829929329      30.670357781304325      20.439880587074335
   918   4      41.739034047796707      49.713591557242076      41.587863624153613
   919   4      6.7618913275376844      21.263477314352642      45.807031880240714
   920   4      29.316233832732614      11.959730740196985       8.422044954001608
   921   4       21.98419303743588      43.660471451843961      26.827155648414912
   922   4      10.110326756074956      36.370906617932263      32.707959497941729
   923   4      32.522314796914785      7.7127628683535931      22.568233088736932
   924   4      14.919611673052861      18.607223746810423      48.368154700622959
   925   4      23.591271556472488      5.0275788094544707      2.8422597657304389
   926   4      23.456755259211668       4.221068553805261      39.818052051118634
   927   4       43.48074784289404      46.830131854320939       46.48551479949861
   928   4      8.9605538620369192      39.593261519832851      23.310114552522201
   929   4      29.450741105700871      7.4851110397952452      33.338157743484338
   930   4      31.773159627943325      43.711500498599008      6.1896721763583376
   931   4      37.992751036546537      11.248015150873851    -0.39007361752825137
   932   4      17.988887208534809      44.486587404615513       33.18456292963068
   933   4      29.449277166733673      11.293382844247299      4.5629476671861564
   934   4      35.480871575211467      38.851913182022408     0.87247637343729567
   935   4      17.951860826546934      28.923654224566715      38.690053081757711
   936   4      43.634211907527273      35.255341534266471      39.870978722198892
   937   4      20.088137242629696        37.5012794922213      33.059622973539163
   938   4      18.701142107395437      29.624541342579967      26.740849197937841
   939   4      30.561439260950614       15.00110119374725      22.362988099944314
   940   4      14.907089454248876      9.7164281626243572      48.552541547391634
   941   4      29.285202333008023       27.34270078934745      27.976221735700744
   942   4      15.535004171941381       8.480084809656482      16.545637894099251
   943   4      31.690070582828806      32.768522858917841      37.721753030588495
   944   4      0.1472522509319715      19.652214541693247      4.4269187210290379
   945   4      33.241448364318337      16.539713934636929      16.061749593617694
   946   4      44.962901194211753     0.28354952530948829      39.670135785334452
   947   4       32.66113703792977      40.950772278422228      38.211761228856666
   948   4      30.320824831764103      47.002227972847699      24.440262735150828
   949   4      39.722018596325427      20.967658759316244      36.358323832491315
   950   4      16.094186547805961      9.9473600513396505      32.145361216309368
   951   4      10.406466053024207      43.372455568709697      37.637709496082209
   952   4      25.434974937144684      47.278823324023676      35.341694091864952
   953   4      40.768095395901781      27.321694405581159       12.56582226052706
   954   4      34.042222317047532      16.395603957353572      1.7713572863168581
   955   4      26.207139722363269      17.486003291624179      17.660104009406364
   956   4      24.585357082298469      27.199357806847406      25.222953342898109
   957   4      38.776618220951782       17.57553329080989      3.7898036365027346
   958   4      28.591040727324465       19.10750809804663      42.119498546813411
   959   4      8.7654807012687748      29.169499079990025      32.755955098772127
   960   4      20.408679439400384      9.0537215353639073      42.553115697489922
   961   4      11.190412320934428      38.614699220650706      44.816738052387755
   962   4      18.371942226311734      1.9509922988391977      36.827815966184481
   963   4      37.023407126215702       34.31883598959859      13.724487922489828
   964   4      20.271433819323001      46.786738347202679      27.754322715428046
   965   4      14.241301018147222      31.039056522365918      7.9115903891447932
   966   4       34.27519781128521      2.2976459094521733      7.8636417338910825
   967   4      46.222819818410272       28.16407522862534       10.45350334732321
   968   4      29.438453363004491      23.582777689858421      15.850961945409921
   969   4      19.976821754601282      20.752375458776118       39.40095009125281
   970   4      8.5247767595616608      23.446799277654705      37.838849014981314
   971   4      43.796471278588591      22.941323216391893      42.394702629997902
   972   4         18.734293862748      5.5602974261550013      35.319010949387454
   973   4     0.58417045335062823      30.804632784678713      39.332845971947442
   974   4      41.804934738438241      32.639323289630639      19.164584065323517
   975   4      35.351708364465907       47.55560836881542      44.952312584936315
   976   4      13.501117644102639      3.5197432263836212      8.1962470502356872
   977   4      11.765100101167935      45.359963853701586       40.26991571465279
   978   4      33.492309999795729      45.195164853503741       3.073273667403229
   979   4      40.577921159056778      41.945226428254379      20.430159271533665
   980   4      4.9173112748231684      43.751629299856042      7.3112637898720605
   981   4      19.466288318743047       6.045783456504763      27.185147431072842
   982   4      1.8188394357616986      26.972703353611148      36.660089833933746
   983   4      29.113459210553199      4.8805810132842344      35.953360486671642
   984   4      42.131187679892278      10.641264335011384      23.777702226640226
   985   4      45.141880889705497      32.451611351481155      41.997030921636266
   986   4      47.612131751882465      24.022983568971444      12.728069221454358
   987   4      43.880369007162621      8.2127977395115721      21.556930331438107
   988   4      37.457598328732146      21.592308624086378      26.322310234200341
   989   4      17.361450526799384      21.417992251655395        0.58391637819149
   990   4      27.969229550175875      33.840753590623969      3.1331292590411879
   991   4      32.544583648724839      8.9341367993888223      34.605616152101113
   992   4      47.154042548820136      1.9722466732935509      24.510003949095903
   993   4      11.689398403259268       21.11726865489522      24.067624943286344
   994   4      1.6183226959078045      32.998983194969476      31.326151940832101
   995   4       7.591642064536428      15.109249731204546      38.011244046679096
   996   4      29.936660620727217      5.6303950897896469      43.554085841633963
   997   4      24.666538616400437      23.919391718424198   -0.075660175108803226
   998   4      27.877801096968483      3.2065814078263104      15.494951685026324
   999   4      10.269847884351721        7.11689396990276      30.771173611938327
  1000   4      27.819143871943975      3.5514077307552618      8.2618120802911275
  1001   4      22.102165274545122      6.5086298875102706       46.49069760520409
  1002   4      18.097743208459764       36.35395689332379      10.108872633591304
  1003   4      25.961305964076356      34.003542076331797      30.409555846840984
  1004   4      20.556639648293206      14.193225138087568      17.757211095627255
  1005   4      27.352460830924883      36.040729065315702      19.341633580205993
  1006   4      5.8292357197796489      38.527252327515413      16.718403715189289
  1007   4      1.9592832327117573      12.336253036897933      6.4919150583926397
  1008   4      1.0991109304619358      42.504443783277033      21.786938636084088
  1009   4      3.3894491345358846      27.214652094390054      10.187820269071294
  1010   4      20.000028450393721      9.9650834773112109      4.7490861833556499
  1011   4      11.961338476534628      33.919967125836045      26.846489949037004
  1012   4      27.582651674026103      10.229750449137295      17.322840906471964
  1013   4      23.289182006301015      4.0851935997561153      21.961462409080827
  1014   4      43.478694216301342      45.028136889864705      26.581683461570442
  1015   4      44.710716472607992      38.330788787137337      24.355849607139078
  1016   4      26.645402978183338      22.297258890779577      21.937509216200173
  1017   4      1.8405871506021112      9.9757617204710325      41.357890141574771
  1018   4      19.737459921418182      3.2029867624509079      40.245467656037768
  1019   4      42.554108298895493      2.1549403760813441      31.672156793700136
  1020   4      6.1909993186623877      3.0400337054987117      5.7949515240632126
  1021   4      11.980223691049547      26.005005647139221      47.791288488190453
  1022   4      21.926746517660082      28.871073856900107      28.729784174985838
  1023   4      39.259954722930168       6.640486362594201      18.338911126512137
  1024   4      43.900033748788537      6.2795619072565572      13.281412552550481
  1025   4      26.810530308129245      7.4430522466248563      26.459785688280203
  1026   4      24.598162123299097      18.738861929465017      3.0302791941066651
  1027   4      12.987328222219871       42.42681794467876      35.440472983515825
  1028   4        27.2573325980334       31.76823611736457      10.946262312268988
  1029   4      14.906947405711072      35.941323349404769      37.412171459805471
  1030   4      10.808494866900997       46.21449790334696      26.949365707719636
  1031   4      1.9816831488508531      15.374065093070383      9.0152022727351842
  1032   4      15.611802844812541      4.5215094938928484      21.579450990480641
  1033   4     0.81290655988560889      4.1981057487575546      44.862210259466956
  1034   4      41.571252480310477      17.426357973411474      19.085853681678252
  1035   4      9.4515652897201221      38.318705145183912      41.476100718775591
  1036   4      44.129469561500372       9.233486375195568      37.547936613838189
  1037   4      27.217742099330071      5.3948243893883623        46.2378544417586
  1038   4      48.223983258224138      18.313536096854321      34.930190021117518
  1039   4      31.635641737737988      18.573573343576498       3.168019426105503
  1040   4      18.995675990077274      36.934027606913212      44.868688504247558
  1041   4      33.838879568192063      23.311583922171621      4.1761401565620533
  1042   4      14.270177688695906      25.805705905280782      19.801638920951866
  1043   4      9.2084237861791145      9.9263408892311347      33.166116147483145
  1044   4      6.8752563418707391      25.670696826094268      20.223932373675915
  1045   4      43.179828651594036       43.40974273809168      13.669474636456565
  1046   4      8.4801551668894497       3.143764375442804      45.292689493276697
  1047   4      26.586029735272987      26.945701907271832     0.53479894348367329
  1048   4      27.162574275206147      22.845094529118629      36.515718575857342
  1049   4      43.975571156699012      13.296261419036396       3.381359891467894
  1050   4       36.45825681748142      29.377258557782021      7.9448665094780981
  1051   4      46.972659932973698      39.015926522900827      48.675787469282781
  1052   4      4.7757703986945232      46.562880080953349      43.903971431467312
  1053   4      46.999862664022402      25.286387782598116      1.7184078319174672
  1054   4      14.053608254948751      16.214862145632136      31.266947149916625
  1055   4      36.206963829498847      10.935144603633985       6.599925783564073
  1056   4      12.290383016129791      9.9966789103966693      5.8671616315998563
  1057   4      4.9048154367142134      16.958269843236735      1.1592173434261905
  1058   4      31.330032523484007      15.011543985029229      3.5753122068517187
  1059   4      25.542263754802487      32.498362308410194      45.413725422894522
  1060   4      47.583372503243432       26.37106557916578      34.485798949182673
  1061   4      47.410724231435147      7.2623747208253926      22.638951425718297
  1062   4      6.9114522456483742      39.874700837560063      26.688412505070151
  1063   4      6.8753669373726884      36.116515124049478      34.695905529644591
  1064   4       2.045004515314194      29.923067822782617      29.183347926181753
  1065   4      35.888507156962014      19.190997557047773      44.400946123755347
  1066   4      26.595356282304671      38.991873815446731       11.79669532488035
  1067   4      24.390111906628864      22.482044983239479      3.4903474975820568
  1068   4       40.53767252936732      45.412387888448571       3.309479286776059
  1069   4      23.012169981502325      16.461993209535368      5.3491237500903557
  1070   4      13.914181989338459      9.9822708955873427        26.1639808338909
  1071   4      19.342713406710001      28.727049408060711      2.8401364474150208
  1072   4      7.3065757137540555      10.271404289360799       35.59691046094391
  1073   4      23.049656051384062      10.185026084904859      32.105168592809434
  1074   4      36.213459816309104      3.6613909642439482      22.061671466582936
  1075   4      17.708576134721316      42.190542500762525      19.533470452421902
  1076   4      20.785092397632194      44.482408282371992      19.304170349917779
  1077   4      5.3819636605320094      39.450982917911006    -0.50398516618101452
  1078   4      28.518552213467085      24.085325686163088      47.663619300376851
  1079   4      47.519103197645663      36.009984561969148      15.481385026130464
  1080   4      18.265275404523766     0.33965469781211427      45.029017800677856
  1081   4      14.416002189380526      23.671329274688166      42.529584372515394
  1082   4      32.890558430032819       39.39286788869947      34.709807848076771
  1083   4      5.6561838069805397      7.7873632056609026       24.79254880586079
  1084   4      26.206296599620089      39.432248013861404     0.21477665475215107
  1085   4      43.187654763624501      25.991290636496441      33.148476801080925
  1086   4      28.762370456720721      17.928509359558731      26.674650980642284
  1087   4      35.986198419309233       42.77357575608913      38.150749994303801
  1088   4      22.792790611987481      39.195949522702875      11.172014704107383
  1089   4      29.015682481846355      33.258177283525676      13.621432417692565
  1090   4      44.015491540840635      16.763469205888722      10.031850645487205
  1091   4      35.106412219301625      30.822924586263053      29.337459028434427
  1092   4      47.029055846638698      12.849594188014567      15.773741802515318
  1093   4      22.815383008618987      41.606520828852446      18.021682472254437
  1094   4      29.445973162963721      40.889627572733396      5.3550783099208115
  1095   4      15.379888636042589       30.27808880780659      41.032986484367584
  1096   4      25.670422316424471      24.323703401455976      10.870866504974954
  1097   4      28.974562158406851      21.195125256251476      45.085825801570465
  1098   4      39.351383160310668      13.856251359514562      45.960793375734887
  1099   4       35.95297463348556       6.785807612290359      24.153737989388855
  1100   4      28.043021934814636      25.997062145462174      8.5182157239318048
  1101   4      9.1789095266671072      11.566882558048045      7.4729482080641851
  1102   4      45.318466582936153      27.576886894891594       15.97343553940186
  1103   4      28.427332475391363      34.139794898777453      39.128533683892705
  1104   4      43.909081881422843      29.481831339097155      12.974447023994582
  1105   4       32.53646992386723      27.341856273197809      33.649896489508933
  1106   4      47.368244607408457      15.957451271428607      47.448287031371429
  1107   4      5.1086188378253183      31.534279202267509      13.559249644486346
  1108   4      32.014882873063122       37.36603050164512      29.596616768719837
  1109   4      1.8727708229265023      20.672467672089304      14.493396454730696
  1110   4      23.171004884156932      37.158544469335197      24.820683176041456
  1111   4      5.8722572892869573      26.550605909612994      11.711209069948065
  1112   4      48.145624987788644      46.152383977442504      18.641647922087184
  1113   4      10.166463232226331      43.801181548220391        19.6031348050922
  1114   4      35.723822317319161    -0.39149711639438795      10.055218352955979
  1115   4      17.907162699178212      13.148681511272493      27.421947577720342
  1116   4      4.0768051819891724      12.208722953874515      35.336197261871398
  1117   4      1.4388316274752813      30.800733965912915      4.2159284508521884
  1118   4      13.050599689413238        1.45485037807016      1.7014278120809048
  1119   4      38.243608899871816       24.10769728616031      27.957522996644879
  1120   4      33.249066647080511      5.1276700443105723      5.3686125216456055
  1121   4      13.611459857304574      35.405176395916413      1.3940177907241116
  1122   4      21.913581526275077      43.910397563035914      23.003202773820512
  1123   4      15.889311671152067     0.78854576763520401      22.499119784200239
  1124   4      36.921707139105806      37.348155655889158      42.018574042076381
  1125   4      21.224941371352962      35.041573950518988      39.220437982789441
  1126   4       7.357444940950427      43.957100672545408      13.815944597243993
  1127   4      35.606543272559776      47.258689334150134      19.737206009051455
  1128   4      36.935752069452569      27.938143734191737      22.493684266592119
  1129   4      4.2213185620156759      36.867853415685794       19.60613039276042
  1130   4      17.397500640691451      41.705468539418803     0.87921993859079284
  1131   4      40.613626895340424      38.318704694467705      33.805540457190027
  1132   4      38.769440294894359      23.095431127159046      17.095477406334144
  1133   4      27.213253448239488      46.214851718681594      43.154758334012897
  1134   4      26.072794878059987      40.276347325105377      36.231925081082117
  1135   4       47.83102565231151      18.171620640834512      38.572953348297141
  1136   4      1.5913153670942424      14.229504656823959      23.994375010077853
  1137   4      8.6079090674488228      13.100701204791021      22.076125913826285
  1138   4      46.485596343061196          5.417207926483      25.897202128674017
  1139   4      39.341796017008548      34.655733138277895      26.172517465143176
  1140   4      21.289281967935331      35.710174326281354      1.9462529643247277
  1141   4    -0.97961773736334257      3.4022031339865588       7.223248408220412
  1142   4      22.920275559080082      30.037148442236365      7.3431014858727135
  1143   4      2.1106138378062567      45.467849198916682      38.046800857766456
  1144   4       37.64031802380471       36.31107275927058      16.911874301258205
  1145   3      33.127837195307883      7.4053775721189226      35.366441328472995
  1146   3      41.320249966383706      11.996214929610247      24.951617810696774
  1147   3      36.150065319575575      11.718919234434596       8.335012304687746
  1148   3      34.304423706084926      3.5829009663480691      28.702902102792535
  1149   3      25.059318955351035      25.757806471140594     0.32711148275039043
  1150   3      26.011537217565063      24.634146321031427      40.325790967730846
  1151   3      45.376499095378598      8.0267316789738015      36.619633078884846
  1152   3      8.3425844645721376      10.754752703419307      37.068776748930304
  1153   3      3.9020738661641858      30.143412463685049      13.031065099724392
  1154   3      12.497213270932965      35.849869009085062    0.056492465256873313
  1155   3      48.767682868109105      17.994135896443922      33.115547962682534
  1156   3      12.357394169676121       36.48551688113541      10.509732956788014
  1157   3      44.130526351745345      26.313851281043068       37.63636916289903
  1158   3      2.1440669311457787      15.077932167663864      36.536905899764101
  1159   3      39.473943938536841      41.288446636126558      30.722624153087068
  1160   3     0.87174452355574572      19.605688233758507       35.30949912299937
  1161   3      11.665834385778671      42.239422223047782      6.5250138557128858
  1162   3      5.5855421311015458      27.602522699299598      13.145404155883833
  1163   3      30.730476794765803      4.3943957572651398      44.897539286049003
  1164   3      14.577064851455617      4.9044054851789474      22.957192575204932
  1165   3      44.563215813624538      18.491296192037726      41.214321382339449
  1166   3      10.931748744818886      10.923394161104557      6.9164441264202345
  1167   3      46.971979413191917      26.665521753735614         9.6331104182348
  1168   3      15.650102849575413      2.6062150525265761      21.979086799376294
  1169   3      48.459660931507457       42.88609060101831      20.618138777633906
  1170   3      6.5201495999100656      38.794036946346075       1.112618671389066
  1171   3      27.256660934939976      4.8584878189004908      35.297382530964917
  1172   3      22.064851411048398      47.079892956779332      28.040860774302153
  1173   3      42.794830723618297      7.6977355885522964      27.117038641439962
  1174   3       23.36432766340705      18.246047741804794      4.4704991665450375
  1175   3      40.261434509327998      13.684319505794805      21.320902016867947
  1176   3      2.7158979305477016      25.529505063695908      36.275714411565481
  1177   3       37.44809341808655       22.25401172978297       28.08570475518998
  1178   3    -0.77882073070434799      2.4246840215865064      32.932076444525961
  1179   3     0.12259375704539585      20.887108734022881      15.405470621041909
  1180   3      30.353762317539243      38.018631044837136      8.5134880070184487
  1181   3       43.53738547398774      26.730337060813874      34.795072622267917
  1182   3      43.075765702559004      19.496145965376243      43.121668038548336
  1183   3       35.03207935980388      15.834099509579042      35.048086856086208
  1184   3      20.370874204616449      1.6324425911344873      14.141469623099329
  1185   3      6.0404432042561949      49.656419871355894      12.032699509696833
  1186   3      21.909169709577998      2.2597883649222958       16.70792423128767
  1187   3      44.754219810261191       28.44599695314492      11.628900754177177
  1188   3      18.578813397614251      34.603227623309266       9.890348710610569
  1189   3      18.272497621806785      29.128552822932583      45.866536344026756
  1190   3      13.873591242925773      12.204431784917293      15.604590232941197
  1191   3       21.38000064822991      34.662281213117353      15.804784333859308
  1192   3     0.96408354567227583      13.684116663871196      19.156784761283919
  1193   3      18.625144819903717      35.145949307247626      30.341639301076555
  1194   3      46.566362526836492       25.50517758463738      13.083407371156834
  1195   3      24.737659304132588      23.141903698063217      1.7853837314051519
  1196   3      2.7803531538509807      28.717256546864729      27.891629301835202
  1197   3      2.7192534459894646      17.299319942350795      32.625913483067798
  1198   3      38.599067505134343      5.9853815816573732      27.660307403275812
  1199   3      28.823851919418498      4.5508048771144942      46.897161487404567
  1200   3      7.5796627563851651      13.457857295845297      37.052026667943991
  1201   3      35.139083327350129      48.294972309755934      16.272092586877093
  1202   3      22.772634063698312      3.2924417576892506     0.52153197699034137
  1203   3      26.561353044998743      34.569670298452934       18.81579663103787
  1204   3      11.106722728690158      19.473901420794387      24.793621698270073
  1205   3      9.9905096344298663      18.175616066418144      17.792409675586271
  1206   3      37.079573839887047       13.73207891495754      37.688182400718361
  1207   3      13.580355617214721      17.219937926312806      47.943962179071427
  1208   3      48.433443709641644      8.4091141723098541      21.333148358618278
  1209   3      8.7759824905894899      16.274020015283313       37.17093156148588
  1210   3      4.0912650815862914      25.925434855877022      11.543571895612084
  1211   3      12.694684247491008      22.349328215310244      38.740558217706635
  1212   3      18.985601936328269      35.719873825767252      16.726871537792562
  1213   3      19.172390516026937      29.005735919960177      40.050777238548115
  1214   3      42.257898763971525      2.9979126386825579      29.999337739164488
  1215   3      2.2026467949571122      48.688312236462558      12.531474860198825
  1216   3      6.6208846546485409      26.873218766400122      18.668772259303093
  1217   3       28.84309468012507      9.2622114397194615      34.028757073669645
  1218   3      43.032449670460863      25.077453832425583      30.975694450837061
  1219   3      6.4557824578638332      27.047640784548491      15.862049285073001
  1220   3      22.957370352966855      3.6781035999320366      20.187745520521226
  1221   3      10.592088802634581      44.173866563119773      41.181360412726519
  1222   3      9.9583640597531673      8.5108306474196684      32.024983702234685
  1223   3      3.3412301006725489      19.225444824856993      34.394298500293715
  1224   3      1.5526984421572814      3.9674849684159796      43.252528647152438
  1225   3      30.062226657286899      4.0090598906272339       34.72985335810089
  1226   3      46.308494117998549      26.573459581638051      17.509219974891021
  1227   3      20.647577766326307      37.626935496976266      6.5359862978057972
  1228   3      46.350070502480449      35.278635448376761      16.722805385510686
  1229   3      40.636714809444634      18.203313236408373      29.045332584934894
  1230   3       28.05459746796906       25.43547585235131      38.425926750568038
  1231   3      46.926797759360014      14.955478178516023      42.980551830549494
  1232   3      33.103388062182248      15.191217944433019      3.0944266138011791
  1233   3      33.211317750943216      23.488402915086876      38.650557770367293
  1234   3      36.658788932212879      19.656729359682824      26.399387044463339
  1235   3      15.834409593735851      23.486461315734655      28.937415076777736
  1236   3    0.068272930229749701      26.708563144183671      35.707303403756576
  1237   3      26.061664721755395      3.5365727516240568      8.9847099526689931
  1238   3      10.285508976999155      37.839211255462573       9.060425829830157
  1239   3      44.725365536912982      5.1360572568737082      14.607326971772473
  1240   3      18.516388838859267      37.108795122098847      8.4283865432280347
  1241   3      19.151544317571364      43.438378071446763      19.556105016195211
  1242   3      33.025788274172115      27.989281229494122      35.386116871164958
  1243   3       9.692373270001104      23.326607976490234      30.896729126423768
  1244   3      1.9758065382261056      16.910396039460913      10.061897789946151
  1245   3      35.133868754493236      45.723041407032021       45.08190767288238
  1246   3      33.407489089433781      39.628464005701119      45.724516278167222
  1247   3      22.048495767350985      43.280769386605826       18.64554584780894
  1248   3      49.072633973265226      15.674240190161633      24.269791678995023
  1249   3      12.340138685621664      45.388592321158193      47.050013341242781
  1250   3    -0.32139053076035029       32.33274069447846      38.823251278375686
  1251   3      30.222684884250477      24.664218058368398      47.394376520781002
  1252   3       47.78779068945159      24.224524830180485      17.110396619498776
  1253   3      27.703120566899937      22.958146302912088      41.437508773124073
  1254   3      37.122545080788591      30.804462888034358      8.6562933205258421
  1255   3      4.2746471139383697      45.170136503923366      6.0232201254086215
  1256   3      29.978769521320224      48.533152616655535      23.460340994825717
  1257   3      25.142763150481947       27.32465624938277      26.978977600857796
  1258   3      8.5930276774163641      10.990999868227112      5.6093335201972012
  1259   3      35.196513284091331      40.068322816620736      48.239406536728744
  1260   3      25.418507805717088      48.370235754049119      19.021717584180241
  1261   3      12.509996845469347      27.410168190618904     0.25865266515750457
  1262   3      34.344543972260382      42.033088524234515      38.317684374080429
  1263   3       30.10457431615815      9.7115491294056202       4.750962893413738
  1264   3      24.461329083610547      43.131070600609718      17.407302980085309
  1265   3      23.971919106041902      26.390358227726043      40.404819448210205
  1266   3       29.72725648054913      26.061730877021137      9.4966325111306258
  1267   3      8.4633011237340234        36.3977073521649      33.714065153320661
  1268   3      31.321513946076088      4.8273039402297613         5.3971730529616
  1269   3      4.0582863550762207      30.074988309427948      36.294375880411131
  1270   3      42.436430275586751      31.193425024187889      18.254524654074398
  1271   3       49.55160625678748      15.303590059905824      32.355811268572211
  1272   3      8.2653684369320128      9.9730793323888971      8.3008514370368616
  1273   3      42.350212990312308      45.039563145208263      13.136673587952323
  1274   3      40.498639509540276      5.3783144653460546      29.609328526203836
  1275   3       47.53639616797291      15.847012187798766      45.561595903661477
  1276   3      16.675661323065405      1.0516820743151019      44.564181075237194
  1277   3      31.765791597153118      45.946164118645683      3.3102947906880669
  1278   3      13.372691616245902      12.435764196660459      18.452948415745908
  1279   3      30.403180232800491      18.070268417723948      11.081186556425662
  1280   3      28.645027701727532      22.466765221226396      46.624771133362486
  1281   3      31.047964108694352      9.2557297834170953       35.70971046183395
  1282   3      3.5085184090877273      45.818412004042308      45.081217119669027
  1283   3      1.9127903996931044      11.683717388310793      40.911566820239806
  1284   3      23.722826911702384      44.447142667210095      6.0694477408019241
  1285   3      31.008859009112161      7.5684194606392268      19.124214818568081
  1286   3      16.391998485182317      29.467071938230635      39.564983744951107
  1287   3      44.440387181206333      28.548798513621566      14.520821473844808
  1288   3      41.115742245960895      38.777246164311883      30.095628350445388
  1289   3      18.407030051246423      46.008896966730163      32.009587400503463
  1290   3      1.9956672043179728      19.509628271460407       13.08848133903027
  1291   3      26.427602478820578      32.330434907893412      30.809967781384078
  1292   3       5.645207178472166      31.378353615335232       47.68184546390259
  1293   3     0.27460682864814245      25.333632382604023      13.173604502688974
  1294   3      7.6425012547798241      39.062841331365831      41.490640204530941
  1295   3      11.572746718450633      43.552064711368125      35.930669711688637
  1296   3      17.754985008076588      15.171482728905564      6.1578195602886474
  1297   3      37.706230945408805      6.1444364428844347      24.904658875745568
  1298   3      22.893670809870887      5.8032176071680563      40.855441682841722
  1299   3      27.363765382200047      12.760479864129774      46.950587761704718
  1300   3      47.776814075454517      39.731341519180241      4.6581457443845231
  1301   3      24.414836581935187       5.113702475852441      1.1827303189532483
  1302   3      14.350260771791625      37.153998454590386      12.439563754306011
  1303   3      28.026606825142881      30.643466935360458      9.5144287826485066
  1304   3      20.127801646706605      29.420693564052971      27.869817043269229
  1305   3      11.788742989882577       43.99541970370769      38.778542945765999
  1306   3      5.5499872873831864      21.596996932372246      47.006564378160377
  1307   3      46.724557879194499      6.0933233290407189      24.168243835886702
  1308   3     0.59260493397423164       11.09220349460012      7.5598527422667159
  1309   3      35.735576956994997      2.8508623890425904      18.284107801427396
  1310   3      40.533409611790923      48.621317282503014      21.378487696089792
  1311   3      35.095706219419924      38.212787922095814       14.61451844211947
  1312   3      44.661375717343127      47.738731861702234      47.825400291401756
  1313   3      10.075057374610685      45.094592002319281      1.5529525943057199
  1314   3      7.4548664389778656      35.334276092610999      26.761375642212219
  1315   3      30.353193888774403        28.8626543914066      9.5381925554654163
  1316   3       1.958706190584006      13.755715228750883      7.7367732988193039
  1317   3      28.418652997342477      5.9489445610035254      44.583159204210951
  1318   3      7.9906020730302911       8.609354479728017      18.001577657870449
  1319   3      35.264114844669557      46.332541720529512      18.076688263411743
  1320   3      7.2004061494098588      11.788944836851538      44.764329996220916
  1321   3      10.677353288904849      15.288702336600517      35.335680308776908
  1322   3      14.205513868417963      38.236760247589217      9.8741408868706415
  1323   3      26.242662278921159       31.74354900381541      46.834947443569519
  1324   3        32.5947774832037       13.80307037806338      48.830772017834818
  1325   3       30.33560546040091      39.488381361440084      6.0809731800954392
  1326   3      12.942515452284249      19.949625999794801      19.080633837858201
  1327   3      17.957839699650595      40.161212365863982       41.44437358558514
  1328   3      21.362672915431947      30.762093722679296      7.0000966214803544
  1329   3      13.532813786634456      23.911423978055932      31.054114643184626
  1330   3      38.484402971456866      3.6725859580587259      25.660068081536306
  1331   3      12.963240039289428      48.395162345519516      2.0765134023074188
  1332   3      16.272722802183083      39.196460433113302      12.904527555702408
  1333   3      29.697101279169551      41.649203537985365      23.580812370021185
  1334   3      42.312214614237398      28.309350729408031      12.785964375043323
  1335   3       2.654799359209997      31.702958117556317      47.748337523432134
  1336   3      44.110611552016707      38.304215470971712      5.2294326809432192
  1337   3      43.089651394019846      36.447912526343629      38.419210458529285
  1338   3      42.678619356417492      28.502953117962107      36.519022416906871
  1339   3      31.463476917407281      46.527693812959939      32.622767499107511
  1340   3      7.1762383771744584      24.521425790704509      18.745662653359854
  1341   3      3.1193613249403112      19.863316834428307      37.074633011394994
  1342   3      11.415460327665286      44.635489620905147      27.323107434914771
  1343   3      19.858394190995725      1.4874986868594069      41.238484302840718
  1344   3      34.083259720366755      7.1539366135268851      23.548514346988753
  1345   3      20.434892043245505      33.914104900247374      18.445307592164855
  1346   3      40.719183820940444      16.424256210920905      20.296875583872943
  1347   3      19.806534298843111      44.708535626028571      33.912748345738592
  1348   3      47.394136259587526      35.067585077559109      46.630186455967724
  1349   3      14.639835200317606      7.0469145987575272      17.073669265664254
  1350   3      2.9317747682629682      3.9286574518708024      39.534855434675585
  1351   3      30.723527504880764      14.797413547279289      1.7711837388934326
  1352   3      45.275200302040183      40.051980266037297      3.1793400550709614
  1353   3      12.544480758702347      45.929619259284379      1.1344170319597338
  1354   3      47.543035322604524      38.975969912274138      1.7446495234464623
  1355   3       33.93307878739035      25.666740443510889      36.818289987496968
  1356   3      24.673784680132908      39.004549040850712      11.490298060223557
  1357   3      15.948842851386173      35.672048983697984      29.506479311125581
  1358   3      12.928716642706492      42.019983713253822      27.024000498913001
  1359   3      45.963411883982054       24.10256897407049      8.5252420126075581
  1360   3      38.411237930342011      47.386072687516481      27.445055950441226
  1361   3      20.064192314808519      34.330095342232532      40.300352105091449
  1362   3      11.128148591627809      21.304065220160552      40.952253256869092
  1363   3      4.3898332252735397      13.921452485873614       35.82810047963671
  1364   3      25.513669922134866      23.713995675492043        42.8547234698568
  1365   3      35.366551870887776      29.871901949036605      30.855243948823389
  1366   3      46.149554861119356      26.965329086189637      35.610584784622333
  1367   3      44.127590938738834      24.006835534676178      40.823138343615241
  1368   3       8.793410751645423      30.426345400216057      44.075520626243247
  1369   3      47.691174276041558      24.378307773079921      10.844687913869706
  1370   3      13.507133565589333      44.857449458355084      4.0141240108540686
  1371   3      7.7985231537902671      14.312119470790481      23.054225261266708
  1372   3      29.746042758037024       26.36269042602926      26.440623235303246
  1373   3      23.757491189998181      28.348058619263078       28.89396769657451
  1374   3      36.570703695950478      47.796355542809977      21.439381001499779
  1375   3      39.594308322792074      10.456877100282966    -0.56659838615711233
  1376   3      32.090603462537182      25.473014710845796      45.299933013464212
  1377   3      7.9926762055638294      18.285238187128574       12.11597085484282
  1378   3      11.250813403053909      32.221015860761426      19.272421265923889
  1379   3      43.356361364807789      49.286141863203063      40.705200452386173
  1380   3      33.411237430099845      17.834633634115189      2.9135572283148696
  1381   3      12.246368652048305       44.96744811219677       6.588554900139048
  1382   3      13.020177250088025      23.256728229858854      41.463762419287754
  1383   3       32.78796074725836      42.532290010411131      7.3480121018750717
  1384   3      41.857472280392855      38.051488119958996      35.066747522288622
  1385   3      5.9555431318625134      15.689718409691618      37.221417148763194
  1386   3       15.16112999409023      8.0090187584703418      47.784437825310377
  1387   3      21.424115094756321      44.108989852132801      21.148034858526017
  1388   3      17.001616409269257     -1.4673572247592159      29.943305125708065
  1389   3      47.586523955446204      18.487164583553266      36.760751351561268
  1390   3      37.535093355686698      38.118973065244937      16.161620656529845
  1391   3      34.801674764199575      20.237756198376285      20.699269770308732
  1392   3      16.236786638303261      36.382524592802724        10.4933048867748
  1393   3      19.149560857624074      31.487881246325493      9.0232527778224281
  1394   3      46.480360965893958      32.888998403338157      40.668254752894249
  1395   3      14.342713972791334      5.4505831240007998      48.571174865681932
  1396   3      40.222510826770538      8.1078287502561164      28.420494188577582
  1397   3      32.501072895252648      28.786460037168652      14.989520448567255
  1398   3      2.2611267584612285        17.7936025420614      40.400448166747672
  1399   3      11.413661575746993      46.604356444479961      3.4888258678222597
  1400   3      21.322220718155613      7.3959276887333285      42.613918671462855
  1401   3      32.594050118131229      16.391053912651785     0.59117098060425566
  1402   3      46.478664129688632      21.403815860102004      16.366124374207864
  1403   3      43.403420163704958      35.540069674674115      17.070112650571069
  1404   3      29.462994195952483      6.6742635043871719      35.059560390491491
  1405   3      43.877154598229232     0.42225974033334052      38.006942819770629
  1406   3      16.197066709057317      20.037845001864135     0.14365480410038634
  1407   3      45.528097417166713      28.823542653905864      37.552767036027582
  1408   3      16.737281903867501      7.5377969336278587      15.256810590585337
  1409   3      4.6433602558951046       32.74212666585467      12.220969448710687
  1410   3      16.516738357709034      12.628890779149582      28.377222470409954
  1411   3      1.2066118579471787      44.162741694830565      45.418783589657423
  1412   3      29.331939925535949      19.844446440810273      43.660205581852757
  1413   3      30.833692979121256      23.094539465933316      33.950858462879708
  1414   3      34.631347103486249       47.76071121141856      46.705226774821291
  1415   3       32.92871715669942      21.225511924766465       32.17948168601319
  1416   3       29.71566287987876      13.967819671257725      47.914145156645311
  1417   3      17.219985837383586      1.8462477803312531      35.514840554104183
  1418   3      39.687965659391104      13.840805320535994      25.856221080309311
  1419   3      35.005008564918505       2.330405784190114      15.691302189504231
  1420   3      13.218476833409191      40.449298075909937      7.9829580284766859
  1421   3      8.2075635111549285      11.327681746232788      34.253683275940233
  1422   3      45.700103676468267      7.6660428028098284      22.138381620809565
  1423   3      12.085086567281641      16.272600384475403      45.806773556926863
  1424   3      17.220479574990282      24.060707191676908      25.269977250258453
  1425   3      25.650875071110733      26.753863513397977      38.139587668832093
  1426   3      13.693468452299186      43.478955400234391        34.0650276743226
  1427   3      19.855198638779552      46.184694945008303      29.514673674575029
  1428   3      42.541534294923075      22.352587654788685      7.4802397507202212
  1429   3      18.574534292916592      41.261755004444716      10.783768401214774
  1430   3      36.897761324028082      3.0569864514537737      13.837623012344642
  1431   3      10.664123660393019      44.130753173092558      4.3610753582283319
  1432   3      22.867627378384185      41.031026080488935      4.0735635099179373
  1433   3      8.6914349544168257      43.120089391191343      14.583344605425546
  1434   3       36.73472229636333      46.589720555331617      14.923207761023439
  1435   3      21.499888824584112      29.300339778206617      30.492696030036022
  1436   3      34.623674206447021      45.030463600191879      47.609767850994437
  1437   3      37.689070360941557      5.6878238497382005      18.134801958706063
  1438   3      38.948358436594432       15.05924049135537      23.555038483543271
  1439   3     0.98669836948100187      10.889618542437677      19.744964362663378
  1440   3      12.472640029896866      3.4704102982208003      29.433376422015456
  1441   3      43.009685296249813      5.0997074720752993      28.397342076823843
  1442   3      27.501568931036612      4.3214745463760069      6.5237408546534192
  1443   3      38.212976900474096      15.371578098300073      20.849750063555842
  1444   3      33.746745203817426      26.450784350869451       47.45922697592998
  1445   3      12.140375169769133      46.561780380975243      41.781362592297597
  1446   3      38.477302059086263       48.53614281724095       13.70441128899909
  1447   3      39.354792948100936      35.881586045812242      17.044281572813162
  1448   3      1.4280194279500014      13.843884611794559      22.141408410944067
  1449   3      17.671319323188243      38.914295412267911      10.476711053554736
  1450   3      19.316561960744249      28.846146913669696     0.92970972203222868
  1451   3      25.526158637032591      2.5698088804395045     0.35481426738397115
  1452   3      26.505997294620457      39.038966105579213      1.8918879917435487
  1453   3       19.31578117302395      36.867415066654459      11.540894388342471
  1454   3      48.144700391282235       29.79124558325428      38.201578806589751
  1455   3      30.551989577908323      20.022793551609766      33.880499724462915
  1456   3      34.080095479759713        26.0367656424039      34.090395114018868
  1457   3      11.406834161325916      35.136572439306924       42.23075868239404
  1458   3      34.713405170650546      18.721684801403622      42.928844074170961
  1459   3      2.2357371787962412      43.856968228681588      20.845111637255691
  1460   3      9.9970646003204706      38.750198230917611      43.280393695958296
  1461   3      28.737302652654897       33.51277733703165      40.761462315285442
  1462   3      17.975240165091389      21.592501121695381      47.663594189487291
  1463   3       33.98260813251882       46.04808501036343      1.4241618858959433
  1464   3      14.594125461473178      9.8815303183995464      17.424150623924049
  1465   3      6.0398026950876122       30.06424966346836      14.792969934921166
  1466   3      46.084482033210406      33.658170557240133      43.286728714332895
  1467   3      18.032843790739818      20.920930743206949      44.862145124101033
  1468   3      22.067674533226569      5.8189118871137611      44.744588228475479
  1469   3       31.38438505241097      25.908825328196816       34.33026973053547
  1470   3    -0.31369124407510013      1.6552305357462915      12.054928795626376
  1471   3      43.137957100306416         7.5313895640716      11.908450597769237
  1472   3      31.279286057829726      8.0648973741475807      33.292300282346552
  1473   3      10.824443781749096       21.79379498730238      5.2657736199616707
  1474   3      29.856260817452124      3.9628577187208545      7.6414855350440201
  1475   3      13.746964411980358       10.19922032554566      7.2000172240862916
  1476   3      19.022063194397749      32.340369338684987      24.197746535284686
  1477   3      26.397917333788609      23.421659423453235      48.335819790887292
  1478   3      20.706105599251238      45.023612699380273      27.079536471813434
  1479   3      36.361069844034894      12.551775783229635     0.25330498330426604
  1480   3      10.422229829087257      46.405787330892089       39.43031965580824
  1481   3      37.756949613652381      29.132336680276889      21.405940636306411
  1482   3      33.039946741003959      7.0111055322010136      20.753276515167144
  1483   3      24.201242551990788      6.6833951272726146      43.313377072330894
  1484   3      30.919255792062327      16.857297021379498      3.4682203863002994
  1485   3      30.353136662972375      44.953661850370608      5.3373829389384051
  1486   3      13.584720386273085      29.506430283916327      7.3548625569314598
  1487   3      6.2237117736963388      3.2149521234072096      26.275059134963506
  1488   3      44.273742528717989      46.863318702275016      44.952578847394719
  1489   3      10.560732166555503      47.493473970918025      36.850053848089736
  1490   3      9.7874220926163922      28.126951884520579      31.795692405196821
  1491   3      27.057268387567369      25.019075222952413      9.7611984130447436
  1492   3      35.216617087876195      1.1155011274370965      9.2100843016775329
  1493   3      2.1901741155570478      30.565668628709457      38.433607918050271
  1494   3      33.721901904838248      3.7090237414708072      6.6548752327717837
  1495   3      43.628961009134734      21.763629061463547      44.032619514036455
  1496   3      27.544727202576748       32.97696885894463      12.471478264930049
  1497   3      32.785761867780131       36.86920652053287      7.7731513549371716
  1498   3      11.610969126832053      6.1856616507712596       38.90891308542956
  1499   3      21.726943287010979      19.888640265623192      26.212448422099758
  1500   3      10.033990281503472      39.926267316586745      21.753466119272357
  1501   3      48.196141099752168      13.795906906313562      16.930222053542618
  1502   3      24.258820721986705      16.216647159384603      6.5311318771677396
  1503   3       22.08792152923715      43.810065489376292       24.94980242679258
  1504   3       9.988875814594282      13.297014432373516      6.5396935905828215
  1505   3       25.64438626452533       9.531134330553396       45.47225213744678
  1506   3      9.0904518643469423      36.467152842643088      41.700894268000212
  1507   3      35.848277733340105      5.2750860744116386      22.868411734330749
  1508   3      22.550647854969771      22.510145698739091       34.80599387566587
  1509   3      45.049543925416664      38.607900276293151       48.99687107882086
  1510   3      18.620013785711539      3.9817865324220496      36.202117577391547
  1511   3      47.379948319658169      37.177848418689734      48.480508776129234
  1512   3      45.004164526366424       15.45577045581247      40.895165385263745
  1513   3     0.90137910810090238      15.817632630512909      42.078540867130364
  1514   3      3.7189007870722124      25.954921919914359      8.7318403693664717
  1515   3      40.382121092789802      18.455032157607928      3.9060309338493262
  1516   3      28.806490384901608      26.138905628535774      35.734175830109862
  1517   3      38.409512106551524      12.652974326574357      46.979052041939013
  1518   3      35.260470133071401      26.269686571444499      1.2792699447555329
  1519   3      44.102461446631409      33.861488644602147      41.390142083530172
  1520   3      19.162408437528832      7.1575483991559636      13.806766208776251
  1521   3      39.926033089809728      31.993278115744356      19.711641642962572
  1522   3      8.0809141506610107      8.8960576692130342      34.369233007519668
  1523   3      28.538953700567944      46.485902007630457      41.723300749560508
  1524   3      41.886553151019015      10.476073714674568      19.731499247961938
  1525   3      12.236427018257524      37.380742824823841      43.786502467374028
  1526   3      24.039441207320184      2.0822904522913008       18.36348935866771
  1527   3      41.181943818559972      33.889798082161533      17.912445623716366
  1528   3      13.790467348339758      34.054093496468298      27.438320962203996
  1529   3      37.245099928352069      20.137315691270182      45.472647480266325
  1530   3      21.721547037514725      32.845216142298497      9.7606224599042495
  1531   3      29.538177100169467      11.828088177199978      6.5897607010361066
  1532   3      38.169366528911503      38.455274488936801      43.048599822431548
  1533   3      12.745559692191547      40.524964087771458      21.319540076748915
  1534   3      27.651667500517394      6.5357630831030118       33.00972644738814
  1535   3      5.4343946198372421      16.428530278752067      32.504985839270795
  1536   3      23.226204643606696      5.3550472984298212      47.406582317449946
  1537   3      36.612893636255272      4.3566029098561616      20.349461992766134
  1538   3      7.5401559136070073      22.515622468179021      32.645487321973732
  1539   3      28.468773878237858      10.273244348940388      36.649241363856909
  1540   3      16.507681750907146      29.549966281644899      42.311357966002404
  1541   3      21.245197600382223      35.589645933049944      13.324672332032245
  1542   3      31.038429782034513      8.5139525223380819      21.543141011444437
  1543   3      32.944038837368929      44.222555962319483      5.0366836796328291
  1544   3      27.777112584176596      25.752891275238682    -0.22933842582235225
  1545   3      15.432708018678735      36.398105013405086      35.762529554345441
  1546   3      27.308178808352661      20.412438799979103      42.026924427625254
  1547   3      48.249859005799365      16.224526358678684      37.994876840533998
  1548   3      6.2331702227236079      38.082242749203651      26.674330086187926
  1549   3      13.072215165299351      3.5836917741464798      1.4765621490392293
  1550   3      23.639077595590749      31.418562704854889      8.5507251071652171
  1551   3      14.198242969628822      9.0419747134930688      27.658047059458951
  1552   3      20.709429161375827      23.575825560885225      17.451791316705922
  1553   3      44.109882317221533      2.7766892106794794       32.14107987589118
  1554   3       41.55573305930664      37.277327680254011      32.453788216626016
  1555   3      36.454131061103929      20.507661571783984      42.887474421304887
  1556   3      21.736732191506789      38.217543320564424      12.480574417998634
  1557   3      19.425639115661767      2.5035055406852669      38.594701575030186
  1558   3      15.943720866265778      21.691222745531888      26.544858406482973
  1559   3      26.329936000098115      15.230797282113462      33.670593333555672
  1560   3      32.600456631595499      39.817389037282815       7.652280352544448
  1561   3       22.82403949274671      3.3564647992733776      3.1183552645125792
  1562   3      38.954329881076106      1.8322768520699542      11.851175690535797
  1563   3      38.102282875141029     0.61940658125187564      23.157495912506761
  1564   3      2.4165128216351075      28.273325422774437       11.64600313912841
  1565   3      2.8844534721891883      28.110935510351723      37.843558927743189
  1566   3      7.5897043669961599      48.982973930227899      23.229077938178754
  1567   3      16.176928152984377      44.423632962262985      32.626901578010603
  1568   3      21.921354101721114     0.91073716209308087      1.7929444724162429
  1569   3      17.230445372803171      13.054714771807657      25.626782979431223
  1570   3      43.058325915111581      8.9526229290634749      22.933509984550557
  1571   3      9.4496183245865328      42.817237417317322      39.303631584894873
  1572   3      8.9912190156809224      17.484663984748565      24.210559226011753
  1573   3      17.155352302433474      34.079636637987022      27.261860752474831
  1574   3      3.4678099347535145      28.005663341298348      14.609533660119153
  1575   3        45.9954101776543      31.897016014975026      37.905272481912377
  1576   3      8.8398701439089393      14.010068986181125      39.136776480971825
  1577   3      43.106820832462496      8.1248058524033464      19.861055122505451
  1578   3      34.996697314627752      14.738719715120519      0.9632909133109262
  1579   3      37.816258717899153     0.94111855292376601      25.932210258861904
  1580   3      48.886302825998683       2.228463246585827      24.304596925336849
  1581   3      10.938016704573021      39.398900597899598      6.7302063486358303
  1582   3      16.012916470047049      37.359220710060491        14.9776803315803
  1583   3      19.434931724296227      10.868555298044445      20.387110717125157
  1584   3      44.006446588609045       24.51028195042684      43.684932116594481
  1585   3      1.0048695029420069      18.383552143841367      38.241193511269138
  1586   3      11.158505580900513       39.00676813780602      11.490102351428781
  1587   3      2.1045144047468538       9.742429488340786      2.5343208603348506
  1588   3      19.183315217228081    -0.15164632403882827      43.415654582345191
  1589   3      3.5847138947508963      17.226885624090233      37.856614326911426
  1590   3      46.961841726133599      27.338708412058637      15.162552473910889
  1591   3      42.374032778521645      11.837077631574711      22.202754879408999
  1592   3      40.634322185237579      4.7082835597050847      26.924830934168465
  1593   3      32.350421353405999      16.860963718482516      14.488103365961903
  1594   3      3.2798836136073053      35.425919644376975      9.6226177969271554
  1595   3      44.341731866211219      38.153053386163428      36.401175730268612
  1596   3      20.586759961675725      15.784638921912199      19.001684540556763
  1597   3      31.270551394032779      24.391764374287714      36.577990948894254
  1598   3      47.853010075220894       18.27274319492701      23.921298301162459
  1599   3      43.504099802937247      21.341832822559063      41.255997688124424
  1600   3     0.83914606136026626      27.873666314266064         13.821857629834
  1601   3      45.067497934370728      34.389623908245262      39.038531293953838
  1602   3      9.5522413588540473      44.964296834032979      37.247488496788428
  1603   3       49.09410432737711      16.762285505092454      35.571331394954306
  1604   3      5.7943305760526114      11.403685894670605      35.592230031566352
  1605   3      46.680652310619813      3.6386010972797815      25.348515074195561
  1606   3      24.631653016036754      48.476078520343329      28.725011655515395
  1607   3      10.970345381275237      9.9743658913294286      4.3870503281711608
  1608   3      21.604067635029441      3.5453760496435209      39.917758999294627
  1609   3      23.383349199642478         44.865321573844      27.252672791016227
  1610   3      43.533460473466981      33.641758170703241      18.975999270891734
  1611   3       27.45115826216141      22.899471202243021      38.572898842963561
  1612   3      26.067561255213587      6.7784740686673315      45.489422770554853
  1613   3      33.630448011978217      25.107622010659881      3.4536710743381835
  1614   3      34.460430927214503      5.6404046493081532      18.654120201840694
  1615   3      34.426732826998226      23.100547345371453      30.660193527927127
  1616   3      28.834237461771458      23.424360223019097      35.837449487720498
  1617   3      5.1379708048683899      27.826280043195613      10.291779336578783
  1618   3      7.4339143480143166      41.849288199833573      41.053697514698058
  1619   3      30.046264298856265      33.373249228287108       38.27624977255374
  1620   3      4.8565302238631354      38.787363045853937      41.074986518516333
  1621   3      36.918760062019985      9.4435219403257733      43.449154511319399
  1622   3      26.015883205560847      4.7578369826128775      47.608288630153837
  1623   3      40.784115660069467      8.0225571285099448      18.171449423411111
  1624   3      15.890189146881829      40.726765002950486      10.245791621147296
  1625   3      47.842139048621434      38.489055030674351      29.242731315403397
  1626   3      34.976729814943006       27.59548495955584       3.907296089872224
  1627   3      32.734780675805737      36.620647066282494      14.607038889507066
  1628   3      27.458884682546586      9.9112489915277919      47.523763237099345
  1629   3      43.236464481567509      27.485048281145755      31.974795390647344
  1630   3      37.174335392643826      16.710082431451916      24.942562845147428
  1631   3      25.540031355107512      32.043057361575684      10.581621153738173
  1632   3      19.524426143106492      29.777033617971373      25.065794655788672
  1633   3      5.0194909550237057      37.894230289541156      18.234524424346809
  1634   3      1.5525317616394361      15.346271049104471       44.94000509480356
  1635   3      41.695138361463684      39.712738084062885      32.716513775320209
  1636   3       41.50937781002655      9.4193249372494012      25.038640367955662
  1637   3       35.60730059088521      0.1117573704689981      18.975520730821273
  1638   3      38.085492491896424      23.602957710956698      26.189612588119502
  1639   3      47.228381571851877      44.440827456797429      18.677030255277561
  1640   3      34.143969288431258      42.282522112965168      46.743202554500456
  1641   3      19.205483145117761      39.049309805591697      13.143459566830332
  1642   3      15.285872184597562      11.367704358466039       25.86560456817843
  1643   3       46.08602813735726      17.477478795862684      39.138797843193949
  1644   3      14.648454158104828      47.995747873785845       14.97103764164242
  1645   3      14.799678470547338      10.643334196264123      31.182404187003996
  1646   3      23.357578831254337      7.8545917879643987      45.747484674383728
  1647   3      28.055163302073602      6.9984443795000972      47.112498593143364
  1648   3      16.984036582370319       25.50833071897484      27.322184779580141
  1649   3      35.942167592809639      28.050888389208009      34.356052413618073
  1650   3      26.114937094729122      45.536038255311631       17.79935105189136
  1651   3      21.739609406240731      40.231970133682971      18.618795237961535
  1652   3      44.549831136935133      5.6200499526368315      26.111781429186909
  1653   3      12.308994514864922       46.99192040748185       44.77454456130851
  1654   3      29.832254587956363      33.518584438656404       2.782133407530385
  1655   3      21.738644537194233      9.5475073140245321      11.904507102402926
  1656   3      42.526647822444623      16.177562405916373      11.101406423738526
  1657   3      13.276452430785179      40.816006654202354      10.901900793124868
  1658   3      24.406768782081436   -0.079068111465831578     0.94884666789028438
  1659   3      32.991590968224813      40.297910618484565      36.318751641721988
  1660   3      24.657938470498639      9.6880285780740945      31.491151009781248
  1661   3      19.887618877006794      31.785736185834725      21.637897221349743
  1662   3      19.303226449802946      13.310367983169471      18.646267720341072
  1663   3      36.061970665486463      4.6716035665278675      16.433924599984966
  1664   3      28.893061429165954      9.4071580551548912      18.389044859512754
  1665   3      27.454996657381123      27.178265769924593      28.333857213455182
  1666   3      1.5420448569966019      31.307726669632107      30.653427978793765
  1667   3      26.475659534098948      24.646452106508448      36.421542001564589
  1668   3      18.710962631580248      36.718623266649729      14.279157917635192
  1669   3      39.575186822682717      36.763399934494643      34.490490959761914
  1670   3      24.718854303233872      20.562894746490763      3.1527782126646002
  1671   3      20.224092095241502      2.5488069186584816      3.4245521251666924
  1672   3      11.132009817478011      5.9529030091279882      29.279064374545253
  1673   3      47.389761276927665      28.056637285185712      12.078402439675344
  1674   3      7.8995128957736211      39.845166414657399      25.072092363337532
  1675   3      35.277739103052376      41.138881952906779      8.1734741824980901
  1676   3      13.340880737485341      39.483399382201668      13.241129469692412
  1677   3      18.018079565133696      31.497272916581455      26.453777346802809
  1678   3      10.008217345358076      33.519342426225833      26.711293007615716
  1679   3      1.0539509234534654       37.52913692832842      7.2534820639797424
  1680   3      4.0218302443220431      16.596342815373717       35.14039675859069
  1681   3      18.999726600218448      29.070775276442021      42.921888971761597
  1682   3      40.201361510708004      46.924745716555996      12.979574192973928
  1683   3      23.435424872552804      4.8800010533524079      38.198162837503872
  1684   3      11.431741030028219      37.709539480924505      41.182531555484303
  1685   3      1.1311003649276312       45.59607779915806      19.113304948309626
  1686   3      23.917065163432913      35.434201918166423      14.792181092197405
  1687   3      41.360952309429784      20.446523586577104       5.728223296172489
  1688   3      18.485195178964304      37.272281080342303      32.132989712140883
  1689   3      29.963302166571189      18.076184796008096      13.994900084464737
  1690   3      33.811162489809405      28.565685543644435      32.719779230217966
  1691   3      37.888222148050723       3.308362711287157      22.886082348266854
  1692   3   -0.039314553889127454      17.464569578902729      43.636400391478283
  1693   3      26.660551608592769      2.2695680950331041      16.630206591164775
  1694   3      45.808316666776093      19.784396770172869      44.169935506679948
  1695   3      10.023694729580905      22.693031344901307      38.819362355242831
  1696   3      4.0761828072300501      17.964563567361257      11.809766421561784
  1697   3      18.215959949677135      27.797899282495326      26.275034495877417
  1698   3      32.375352004070919      1.7468551457948676       38.87707886247464
  1699   3      10.798726332947549      42.163316053183252      20.110057459727237
  1700   3      37.229162237991915      35.440988526983283      15.217093418436413
  1701   3      48.227572713505346      17.940762536258024      40.574217168195268
  1702   3      10.551366844792229      31.316582886777443       16.60661626636491
  1703   3      2.1150043382287689      10.643256902588597      5.2042842432628182
  1704   3      47.110998872528469      42.672085842004869      43.249923538968048
  1705   3      13.314350553450803       21.17222542821245      25.055174651192132
  1706   3      30.572991851837322      42.411813911129407      5.4235194689626169
  1707   3      29.977249599466429      25.703494555305411      28.824674299723501
  1708   3      47.645101600915623      23.161422942695218      14.525743909858839
  1709   3      19.122916516548088      39.790874078883384      8.1516817678367879
  1710   3      27.416382586363444      22.008207198841916      44.296482122997283
  1711   3      27.846113349807052      27.765444803653093      9.0189872382279788
  1712   3      31.876297605618703       19.28853052631483      4.7798098838568643
  1713   3      40.149325625264439      7.2936283288090547      25.896852122857652
  1714   3      46.503429268979623      37.516103266557913      24.327671960379007
  1715   3      18.647882316135703      24.613386305002393      8.4189014970625404
  1716   3      7.6960075316639616      17.811811994258186      19.297107437182106
  1717   1      4.2691010373470979      2.8651866201199843      42.179921406779194
  1718   1      8.0700491462409651      27.220102384710817      11.328683693002928
  1719   1       9.031446418993756      6.1217994792232764      19.788586674643703
  1720   1      29.080738201412096      23.038009265596788      1.0378796835868203
  1721   1      31.857191643546393      6.3563028662593695      16.347894566161226
  1722   1      42.715200200178288      2.4516505617163533       26.98240389303287
  1723   1       27.71466736832749      18.763842320815723      24.699585460358215
  1724   1      16.072676560359039      40.313545385232324      19.462526130926015
  1725   1      14.151996999169295      45.475876017516903      30.300925661114196
  1726   1      2.6431360365544605      5.5207035764618517      45.831740487396431
  1727   1      11.673513680063136      3.5152720474953822      36.893779296633738
  1728   1      30.410680422858036      39.979107547611008      38.224229590302322
  1729   1      25.550401520535388      47.484470169821897      41.713795334374836
  1730   1      22.747618965666177      13.765482762893921      18.205606576414301
  1731   1      42.800115307033032      48.294540331301405      18.834910075273498
  1732   1       23.84578819996706      1.8579636790477165      31.047148062635223
  1733   1       17.36977538128297      42.709933432701284      34.683090360141385
  1734   1      42.271585003960155      27.187986950005698      43.546467558204569
  1735   1      25.995730928494606      51.134060531956912      27.052775316263372
  1736   1      25.098843979548743      22.607315211876791       9.184789054800893
  1737   1      28.362246035573595      41.598627631755029      7.3436316152364416
  1738   1      16.784971148478899      21.441865919428789       3.182982070572645
  1739   1      34.039339853670143      38.107645167775139      30.226581253203996
  1740   1      27.000160555166762      45.464947909778672      35.735482054387219
  1741   1      38.270980240471751      11.585117706737174      10.885749220084064
  1742   1      9.6824988420112561      29.663143075416862      14.298853434988031
  1743   1      16.197708604218029      27.524156788203403      33.527797823857739
  1744   1       2.200299913140757      19.887283015418355      10.124172261965622
  1745   1      39.771776668132958      14.772727967033017      39.378875442393067
  1746   1      15.637893788196866      25.343585301956416      18.114650987093093
  1747   1      29.953428846592779      20.280491391627812      40.517588579943528
  1748   1      26.674044325669456      12.733066179180806        26.0107646363093
  1749   1      43.733954540420868       7.898845337382137      9.1192565636035301
  1750   1       7.881595658209787      39.043568388845017      17.913723461891166
  1751   1       19.56223859575482      26.509580182953748      41.764332218748805
  1752   1      1.3167848517314624       25.78304701537801      10.310762552131207
  1753   1      2.6048749227473151      5.5280397259916887      36.845660653905739
  1754   1      24.418947482412729      40.087055812813063      17.083622973328684
  1755   1      31.466950624976239      15.247774436404407      17.060489308828661
  1756   1      18.523159394032433      40.490106664072776      38.230926250741319
  1757   1      17.109335348171914      11.819527571630887      33.352614244840339
  1758   1       3.806067395062021      23.093267885949963      49.129687668147284
  1759   1      6.2361568835021348      40.408298153653377      38.682171757939592
  1760   1      38.571359594915222      4.0447938620817334      36.348942166919976
  1761   1      39.467013301394083      6.2664216623780504      20.596148547849037
  1762   1      9.5201319013401875      38.370463628480216      31.712867139220275
  1763   1       38.94722900854844      7.3070941363448654      15.989154686306476
  1764   1       8.384033912952404      13.966548435031401       42.63274745048426
  1765   1      18.800448872725198       22.80186444872616      19.818261613284182
  1766   1      48.614739736999283      17.195354903513032      16.714677366124619
  1767   1      27.012910791266357      1.5078665523426815      29.999623653903715
  1768   1      43.691704444166632      27.999736135093208      46.626151941661213
  1769   1       46.42995605485136      48.715005768821833      41.572718894430274
  1770   1      22.172302077595692      42.847190966931656      29.277457251764549
  1771   1      20.730547778508758      31.277306902518053      41.470493051297233
  1772   1      43.814502087948547      15.623859421578857      38.161373264626583
  1773   1     -5.4754846167204159      36.407061104049539      24.704147428427948
  1774   1      12.750880165686446      38.266640275788184      46.706509748136604
  1775   1      11.644231889665106      22.387577773343562      28.940342761978709
  1776   1      45.550619796926661      40.491629695038782      24.573198340064639
  1777   1      12.818185066791878      44.074721297316678      44.231356974595158
  1778   1      12.684212612930368      15.040749370771744      14.846119974428337
  1779   1      21.349637370675165       1.002801575604803       19.66285884280019
  1780   1      10.324807721057502      11.168715482230235      44.667472121326576
  1781   1      45.692843678390886      8.9650168984609202      1.9108635641087166
  1782   1     -1.0862845380070574      45.735816418776778      44.031931543615229
  1783   1      44.557599174746237      35.391807546249687      45.310823905952603
  1784   1      4.5554739862939995      41.469854149690406      32.400557061306195
  1785   1      22.449269278788282      28.365893587767236       26.02696608821142
  1786   1      24.448437347172447      34.239641358747441      8.8332257041896476
  1787   1      34.092749416939888      39.916150233868144      10.582094775364357
  1788   1      37.581104873666376      39.345622129925658      1.5207316103110049
  1789   1     0.19792055585196705      4.7707505379010868      40.666086447304359
  1790   1      42.640982515479671      40.201372299048906      1.5913401262371141
  1791   1       13.22250573991178      19.898141978377144       49.61778157674042
  1792   1      33.910017436490847      8.3351294861337184      17.908088590102825
  1793   1      17.173989113263051      29.492710027626707      3.0676828089189123
  1794   1      33.605629484477667      21.543597521662878      42.041695033271637
  1795   1      46.412556826200415      29.609079554139385      16.817515545335173
  1796   1      37.138562457667554      9.4601116874276059      1.0292764066868847
  1797   1       37.35192501411592      30.341349907985922      28.695662646742655
  1798   1      19.930776910545383       4.800625512069769      33.353392995348351
  1799   1      7.2214453866580408      45.865816179898736       15.11405241903976
  1800   1       14.76593366179392      40.151427370597744      15.511694484957022
  1801   1       40.17272810667739      35.178373037475779      5.8285150426649421
  1802   1      12.867432134933175      30.382616597963043       13.13537496913402
  1803   1      28.568856957467837      46.527200919519515      19.945688236428275
  1804   1      11.261288712659805      6.5972618836763761      35.798086801019345
  1805   1      10.161188201732953      34.505064407101905      39.504732305474008
  1806   1      50.587428781810381      2.3007531012704754      45.674508007260563
  1807   1      17.963384443839089      38.640803509324989      16.642927948686701
  1808   1      42.069441421102326       44.33828245257591      28.485284462717399
  1809   1      30.588673498470641      12.335820445610764      36.600510794215701
  1810   1      16.402038290682995      27.680659523292054      10.397582784914238
  1811   1      19.576882366579149      32.816064898760949      12.001768482242818
  1812   1      40.266517725668365      4.0770109430483314     -2.0976616694556607
  1813   1      30.324361538506349      12.454549136774903      27.148338426209261
  1814   1      24.300106661526321      38.084550342977685    -0.61421762740412178
  1815   1      33.094458157894501      35.491499006703833      28.386131292439138
  1816   1      22.863761451571968      37.449389335014445      22.365689782327426
  1817   1      41.267707891443713      5.5989468786936127      43.921896731080565
  1818   1      35.144953808240579      31.235964611649297      33.583587987063979
  1819   1      1.7975533524503136       7.732717415226074       15.12724434932727
  1820   1      1.1716823682088573      18.895332900865078      30.292611445344811
  1821   1      35.267956099573624      7.4132743736179032      41.452902898469247
  1822   1      35.527319166253001      5.7459473365742317      5.1393821696377966
  1823   1       48.72280558247521       4.613349899783751      47.177469987188253
  1824   1      22.321871547726015      22.679935516334119      27.364910802458784
  1825   1      21.158254753063162      9.1882906963611894      14.951685154711958
  1826   1      6.0141713369532415      1.2455873228994456      7.2860636784998531
  1827   1    -0.79502178292298364        23.1662863290465      26.610668217912302
  1828   1      48.577179788949998      36.556329698239971      22.104355753341324
  1829   1      14.187672474683048      46.996014286226334      8.2779027492560733
  1830   1      31.944972102447441      15.882794237965518      46.592855236435625
  1831   1       50.89241986308074      38.798419484591271      33.829690095223228
  1832   1      25.371614414818964      37.360799436887334      19.900850865433863
  1833   1      12.840728080831603     -1.6035690287217792      17.276304287653321
  1834   1      24.106666421681009      43.284525536103601      22.593050001716037
  1835   1      4.0694886074769956      37.619406399968582      7.6941548751352871
  1836   1      41.499174773837943      37.766186112606242      15.702422914291823
  1837   1      41.619090136846815      47.016715276531784      4.4921149301212289
  1838   1      45.040071594697729      27.072269055145377      40.487036980644064
  1839   1      41.257304346117465      34.545941346866172      14.973884091287047
  1840   1      13.733405276837617      46.193661262460175      33.685135994890793
  1841   1      41.691421376987932      10.375860185791463      16.467571283120066
  1842   1      4.6177294202363557      8.9448138318568002      4.3899843003834444
  1843   1      2.9555373826159839      8.9096267203898858      12.210527490768809
  1844   1      38.131975322410277      25.931732479350288      21.437932649824635
  1845   1      15.481284727591449      44.582066545982343      45.987678630126027
  1846   1      9.2074086911417439      28.412556030099598      7.7672909240979271
  1847   1      6.1535409632556926      19.600820585676736      17.307253694613909
  1848   1      38.456908470129051      15.648670450651807      47.022681382176366
  1849   1     0.93591887651562888      16.412173870864535      47.941976688866291
  1850   1      3.3850879624034125      36.911795962754283      26.608788783195404
  1851   1      45.750644478161135       5.919259415710493     0.79437091678595284
  1852   1      5.0909082040706055      35.934233044348147       39.79306115270785
  1853   1      2.7501512844645926      43.454631664818542      17.683853901704531
  1854   1       42.02983594621319      37.513845695261892      8.3085606880168612
  1855   1      43.969989143708702      46.892127374627108       27.91066354187825
  1856   1      39.941248466121401      2.4469828107835618      14.719892290764857
  1857   1      34.522566309592499      14.645045119875919       15.44469338531712
  1858   1       16.94329374755042      27.810970305607341      48.113222863985321
  1859   1      41.801464415598169      46.195618978271341      25.561932622476967
  1860   1      4.1955006947951539      11.631074759099652       1.233796361953607
  1861   1      5.8151382431063707      6.7878781773696595      32.120071601317115
  1862   1      28.626129530178456      38.749250212813763      24.725409509954812
  1863   1      6.7518109635179302      38.174423757658516      35.806992017233689
  1864   1      32.192600814997149      26.194416519760075      31.525365642592831
  1865   1      43.256092171966813      19.059015830911264      38.761715129895776
  1866   1      21.787322528588209      41.985081323584282        15.9293921052017
  1867   1      9.8679518408135891      29.412466454046193      23.405468515280933
  1868   1      23.826571648400005      39.870596732483421      37.151833942942567
  1869   1      33.225640595090894      30.424768798794837      21.041062975565392
  1870   1      38.526923567826429      1.3415317555428155      47.508527426937221
  1871   1      30.933644499692324      27.998170489818868       20.06693509132278
  1872   1      44.895208492328095      27.889385112025789      29.713114986868881
  1873   1      20.486866777708318      8.8739343803971682      2.8584849490754887
  1874   1      50.538057579374822      41.880610924225969       14.63009748066478
  1875   1      40.579227815475555     0.49169862749825727      6.8732507434858849
  1876   1       42.62469016435336      15.632285964145709      14.082662983487641
  1877   1      25.209916769426421      8.3478839181487796      24.862871406918156
  1878   1       27.07519178766541      11.195936721812222      4.9144547576099473
  1879   1      21.032961899479186      24.437567188432354      21.835883186503114
  1880   1      23.922980160178163      46.102122578236973       15.82118797557726
  1881   1      39.804017006379141      3.5099929831295977       8.464902332021655
  1882   1      21.199026730797897       26.69021869715553      28.787037247562779
  1883   1      17.107585494389841      21.140826693128037      13.440323502704663
  1884   1      14.991372323110262      8.3656691749369863      24.740728717419923
  1885   1       2.627259691247807      28.781475597067622      8.6394785565980232
  1886   1      20.928806512494877      0.8595327577974522      5.4672336315679182
  1887   1      32.388144888991256      43.517000870907999      20.676144175489465
  1888   1     0.66539158375878205      40.549729151641031      7.4944814722253863
  1889   1     0.38107961771241217      29.247775267169153      41.138950265938064
  1890   1      27.337987065278817        37.4043036131457      17.321599803581666
  1891   1      5.9763211827604685      16.653998757441602      29.272043898601524
  1892   1       41.03853064161521      29.331892823451977      34.125610710851369
  1893   1      7.0184403940590627      40.494018415587654      3.6366976269457933
  1894   1      39.156061253790227      46.415940542836204      22.828897946548921
  1895   1      23.136559866535649      28.128928789528896      5.9307763890136149
  1896   1      26.233868575574036      26.028898042184931      18.375837652150516
  1897   1      38.009974363247871      8.6956783381887401      18.956074208034345
  1898   1       47.50434858984331      46.791863946245201      20.752832975913975
  1899   1      47.669254656634962      8.9279492361246877      24.259541667369202
  1900   1      23.742811363763195      11.520286064279384      26.878349402394353
  1901   1      4.7430146993686879      21.957584201548883      35.499849585961741
  1902   1       36.84883102467677      2.9708482624258306      49.831987362974751
  1903   1        14.4905666169523      1.8174999506447602      7.0735275471654626
  1904   1      28.261132615264994      12.341028978838153      34.008488985065185
  1905   1      35.199581116338052       44.93852431580337      38.604410188192027
  1906   1      22.682002234013208      40.472234484067805      45.033114412384442
  1907   1       39.50270773591415       15.32865512150337      3.6197222886943878
  1908   1      33.855672229764906      21.705236269591488      10.406737177795728
  1909   1      33.872892627279654       27.64037022768516      17.518905876782991
  1910   1      1.6621733258482545      40.465397359488946      27.695863743891422
  1911   1      43.688527272613193      21.685561799553451      15.034538324132091
  1912   1       10.96226096739734      13.022794364532778      16.347496153148786
  1913   1      44.164136467419077      21.984674755560857      18.337391133668358
  1914   1      33.122101267079827      40.615827228507172      24.909640013637418
  1915   1      28.026112313631788      5.8917660886004475      9.1352715078679605
  1916   1      19.336144998055509      11.199392429953862      42.048499778013472
  1917   1      17.969171632095904      47.588784949116281      40.856026452310523
  1918   1      38.170797675053187      17.324467068825182      6.0367126096322679
  1919   1       19.01646685386865      21.124333312879678      24.749137631484938
  1920   1      42.021278329225808      19.001770517295814       20.93259605651517
  1921   1      4.8909145614389731      22.827674366468333      3.3543229656834082
  1922   1      27.514176080203146       3.423200359838781      32.770644046219715
  1923   1      44.183997140373968      32.140575320296279      3.8467802843336067
  1924   1      33.871953418179046      28.861118810208907     0.95143822058314909
  1925   1       7.254258280747063      49.712345611198003       35.24818166713699
  1926   1      46.515361582821313      41.376826380788863     0.41746922104090567
  1927   1      8.9921132790552942      44.219945560948815      21.620769513577272
  1928   1      31.449208387641136      11.145212425271644       33.41400331844423
  1929   1      16.380210422036821      36.255269441137067      18.083501452441634
  1930   1      3.8647329640603432      37.787563231510653      49.030785759531796
  1931   1      29.567939273630387      29.272905392805715       26.58583422528368
  1932   1     0.28881768659800267      44.303749513925126      23.325310189528167
  1933   1      44.697403047691765      42.135977491428008      37.087816236330895
  1934   1      38.162789900159915      15.705581969889662       35.57065224986377
  1935   1      45.953397169163161      47.026699101982715      17.681949620029105
  1936   1      27.098202156391988      12.499603283969074      29.762127418312243
  1937   1       2.566322843068892      34.840525971720915      6.5983990427605992
  1938   1      10.266585218198305      41.484666810370527      24.440868583370534
  1939   1      9.8112057833033255      34.917261656491775      10.296637718742952
  1940   1      14.424355899596549      6.4848105737704369      38.149989137834019
  1941   1      26.240092158093486    -0.29442728213002123        47.5049576793771
  1942   1      29.295959285973595      9.7703947868739878      15.568769938893015
  1943   1      20.666896466997411      8.2835061986685741      6.4345843259634439
  1944   1      36.350193151966494      23.962084295676355      4.4210896797406365
  1945   1      19.811373776536989      24.631395805120054      34.744595485249519
  1946   1      26.632751761953518       28.81935975709737      20.129839601514742
  1947   1      1.8383858427846422      33.728879874941107      11.905704466611231
  1948   1      23.328145644712443      2.6956976697214112      13.933778466021643
  1949   1       11.69633779729131      6.1137375147694089      3.1629406299715512
  1950   1      43.298325934298724      45.051580867656376      6.8971528621980553
  1951   1      30.760759582709731      31.063701470393426      36.354015555078242
  1952   1      14.563529649874848      25.926992077972688      12.794427796776157
  1953   1      38.169617349995221      39.303633267301656      46.148461460566054
  1954   1      33.901068507872004      6.7237585538390601      29.644030406985205
  1955   1      43.416197419271363      49.492721768331727      22.946511396481583
  1956   1      50.890918103386234      49.875889016755458      33.462387492201628
  1957   1      52.931205930010947      31.852795039259426      20.258112703445232
  1958   1       17.40467641823744      5.8128381740569361      25.969540478365435
  1959   1      33.696122538080864      9.7361709652379229      21.957622452463017
  1960   1      4.8144887330588189      25.968043740981106      33.491432126299657
  1961   1      43.079728854730149      31.328169534763695      32.290137662603541
  1962   1     -1.4948009857045905      21.319055754460738      4.3281642306204207
  1963   1      8.6445516623330416      4.5157973173174337      36.127516885526241
  1964   1       8.343950327289205        42.5186364259173      18.346674813968498
  1965   1      31.862522862731407      2.0300354385258137       24.60617556559043
  1966   1      16.674744737331483      49.315802405705838      13.096676900335755
  1967   1      42.634375321190952      10.709176318257549       38.89309863041828
  1968   1      15.544439709277148      17.361773947114855       43.78770224044203
  1969   1      8.7089353329061421      25.391461369645395      39.209483875658108
  1970   1      22.227937539153451      15.954243195014639      46.663242521211025
  1971   1      5.2594750819559595      3.6900029148672915      35.892394415441792
  1972   1       23.69703375060551      16.300853867144468      39.986850509653216
  1973   1       13.37156296584123      30.890660998345929      35.215316788623632
  1974   1      23.438269684434133      3.7386009196383263      43.022150042996337
  1975   1      22.226034690269802      17.563369467730094      24.311652006693421
  1976   1      42.941131178691954      2.1924420111661882      8.4479381819268244
  1977   1      13.767186461127904      4.4527162924751718        40.8219706331653
  1978   1      35.457984408045618      36.037347544892263      9.0851415559868087
  1979   1       32.75102639304675      6.5882243084431735      7.2715989999803909
  1980   1      20.045479757294657      49.285673769195235      10.022315964469085
  1981   1      16.965087750493428      26.964987339031438      44.078883062432027
  1982   1      47.069255406692385       24.13220377225301      34.997422917679991
  1983   1      30.008248694933211      21.809514367389738      31.491135605595339
  1984   1      46.678774831085406      16.044437457374862      22.353837558874069
  1985   1      48.928738747354387      19.777515441914069       6.893043892613588
  1986   1      23.716803586268043      27.137030724801878      22.790705206634232
  1987   1      27.102662453101811      17.696980295345131      43.407309855439692
  1988   1      38.925977932700555      28.377082147435914      7.8036364122360471
  1989   1      10.527093474465554        32.6938359124714      13.629926441605969
  1990   1      13.065811071306182       15.57913739272065      29.161328289214961
  1991   1      16.769860908658867      10.833604587057007      15.670402037431639
  1992   1      30.512927159832145      41.635505373508146      43.413576617080473
  1993   1      31.296993531436559      16.704448483613834      20.890597744665829
  1994   1      42.881197620703979      5.3410734032276252      2.0246293811961356
  1995   1      26.309747086444162      46.041980187774371      28.219805541993619
  1996   1      11.841765532171891      23.322146331802408      22.850392459665866
  1997   1      26.366607345162514      28.418696722494204      31.125499742604099
  1998   1      47.591474283351573      13.776921433861991      35.215933352428145
  1999   1      14.067911650101955      35.585116869055391      8.3718972091169341
  2000   1      39.378898951291674      6.7081026126904124      38.279674157188133
  2001   1      2.4318879508186408      25.672801886268129      27.939475736678158
  2002   1      13.209791220537825      37.184727283247696      15.492005095366222
  2003   1      44.549743869094655      43.198398822442662      11.780871454270395
  2004   1      11.722036381674256     -1.3976608932995427      14.118480179682468
  2005   1      31.233168155153983      40.518417006294293      19.952667093320823
  2006   1      14.224236162577096      19.818856669700892      46.503145354337711
  2007   1      3.0831335978512455      16.183102529240418      23.525503507411575
  2008   1      6.4085007786182278      27.488487131778999      21.660219078597709
  2009   1      17.496639724075251      30.115266627796586      22.711597219325181
  2010   1      3.6393316843621935        30.8088753000245       5.008677668782461
  2011   1      44.608478932173654      11.373761687214477      4.7454099882476486
  2012   1      46.113194489173964      31.451709252373032      30.857399812276068
  2013   1       45.44530562871482      7.9150281594864476      14.069623403851093
  2014   1      11.984231414137653      2.7683929984296536      26.544387862925447
  2015   1      23.092869286818647      22.510345642678399      15.833088564703841
  2016   1       35.87719044841058      41.397746457439425      14.111471835485546
  2017   1      35.562702349180753      25.841390827379996      40.284775623096202
  2018   1      40.040224653689251      40.085536304836658      27.631336952528905
  2019   1      1.1402945812187228      3.5115234064757401      8.0391369325673256
  2020   1      50.059474832752144      47.372384056574191      28.919913699178888
  2021   1      19.715288351859922      16.848242603805751    -0.40362951408493702
  2022   1      21.438661924385862       8.164357092458248      47.949626265218527
  2023   1      4.1753002520936668      41.087714466427187      49.470396116944819
  2024   1      4.8480086707014438       28.95112399248487      25.520265651799587
  2025   1      40.595457893800763      33.338044206149391      3.1161045589850676
  2026   1      24.001406840189485      40.584718006378402      31.256863778845275
  2027   1      7.4018458089417072      10.112078263158416      31.648576779609812
  2028   1      39.634819191851491      25.401138146149506      17.619369385979837
  2029   1     0.73195240098252878      20.769525299894806      24.574903941943443
  2030   1      16.619300915062421      30.686342423049066      34.594735937518614
  2031   1      20.596555480918298      46.462375524688959      36.572891451190195
  2032   1     0.46270994207094684      22.819437941401617       29.69394896393106
  2033   1      47.916652345413617      30.719217936589391      35.450704530507764
  2034   1      48.054353694164853      9.8381594451199046      41.719664217843594
  2035   1       8.993054599436979      42.049466439666837      36.266523186457604
  2036   1      39.283785683514246      36.972493228416987      26.093183402704241
  2037   1      23.879424870461925       15.32626240625803      43.005396562889246
  2038   1      19.386885432287173      27.565965988743834      8.9923713068017772
  2039   1      5.7825659044929241      29.574151730627197      43.605696586180883
  2040   1      44.911241650439095      38.287234741618377      26.933298727359027
  2041   1      48.526715614343054      17.983582994322592      12.054078076208489
  2042   1      7.6334411237355519      42.180165306426282      27.234554737284988
  2043   1      38.421121953592866      27.889768263706568      24.402749866112298
  2044   1      19.235402261962207      11.258874659596401      26.931133049128114
  2045   1      38.958106638138077      12.349572824586017      1.4731513386339854
  2046   1      29.175397859581654      -3.654762209490408      38.868110729233386
  2047   1      13.792002815540675      12.575153906705793       9.143286763149101
  2048   1      12.565698645211167      4.4453658621331575      6.2341582633109347
  2049   1      36.570235177512785       4.832213895184311      43.129518169728833
  2050   1      9.5988858589849002      7.8396082121677528      15.527722899398182
  2051   1      21.306636538709569      9.5636633115069571      22.720859202076557
  2052   1      3.8107803587990108      22.130484389894352      26.436910455159591
  2053   1      20.636285582686838       21.97984332196857      13.363007231828774
  2054   1      4.9186688966404111      5.0195719558783507      19.822277213413894
  2055   1       37.40773897405397      21.809930682515379      23.776287152004137
  2056   1      44.637730968399389      28.280099441619942      8.7647001981700718
  2057   1       32.77377234493607      28.708301424760872      11.383701709226045
  2058   1      40.210154022743197      20.854594187047944      44.435330677169482
  2059   1       9.431313170026705      11.688831391903793      24.014391761476244
  2060   1      25.718868372973489      34.482027939794712      3.9420200613082068
  2061   1      13.724719247489265      23.973081219956708      35.984551804415105
  2062   1      24.830107025742887      9.2160041413312541      10.711587337904714
  2063   1    -0.11512125394658294      19.501408157045692      2.0564780750900384
  2064   1      26.139318330878016      15.956568138002616      30.572886507923702
  2065   1      40.467794177196126      3.3857583653172063      1.0429644002698968
  2066   1       20.72538227004522      18.483645545238648      10.870061043482725
  2067   1      3.3084319042984678      6.0079632517642052      41.956274508937639
  2068   1      19.571486548451581      44.380896214516554      23.523717191286593
  2069   1      10.145338675013448       41.72685881692437      10.789998008605913
  2070   1      9.5845071298944475      48.971791816662147      26.231359423674327
  2071   1      16.629793984394531      4.1363635064776245      19.162947711051743
  2072   1      41.525134045354932      51.510092464050963      40.136543976661478
  2073   1      41.139224873311342      9.7527337123285012      12.564737136247578
  2074   1      9.9346835131592979       51.89107347666333       11.85046898275302
  2075   1      18.882060527957243      45.967942359411076      5.7745852423754851
  2076   1       8.800955475912712      20.251865583910771      14.171100665582813
  2077   1      36.619598067136216      17.701734110180276      19.557931524943893
  2078   1      22.476191452782363      10.027604657446117       43.28690337386994
  2079   1      31.068916766359472      10.556982544562384      9.0833567345799562
  2080   1      14.487278551899102      14.612862897682621      46.951792433732074
  2081   1      15.234606242453308      36.643442494685871      26.576301020895389
  2082   1      3.0981712127939183       42.55191374895864      23.298551456748484
  2083   1      46.468748606571282      34.698471680513954      1.0503370293759546
  2084   1      25.316019682054364      5.8157153285475562      26.944629094561563
  2085   1      28.129973288432456      28.552320888664173      37.394553136195924
  2086   1      43.348400290882367      25.311329879654103      7.5059513510205642
  2087   1      18.506813427261765      14.791809553023679      32.964133888575802
  2088   1      33.964920507678244      10.456032822420848      35.936392830354507
  2089   1      2.9598350016965878      13.956456537566247       10.61432872505611
  2090   1       1.712244702681724      4.6806257494593089      13.794148653757507
  2091   1      40.392998989565889      7.5441394496235317       10.39022631887765
  2092   1      15.346198994837367      34.679268625862989      3.4516312352416634
  2093   1      5.4633626926204837      2.6741309133756457      17.504212435812683
  2094   1      19.809966487594952      37.676836273021479       1.888738720890428
  2095   1      11.554770304520039      2.2285259536388651      8.5942383599513281
  2096   1      18.624839606236883       16.87998919959578      3.4752103251579904
  2097   1       20.82309542988126      5.9775145753354693      36.457849232346931
  2098   1      33.243237194384335      37.278310882682661      35.665204472780871
  2099   1      41.985537537195825       15.68600472348866      23.104974331477216
  2100   1      11.474313737256665      5.8024325850079883    -0.26894497448968574
  2101   1      42.611877322315962      39.488058873816222      24.679189213318313
  2102   1      42.651153727541555      18.448176373891783      1.7696634434902467
  2103   1      33.976509045547388      13.174363481577624      9.5375378745001989
  2104   1      8.0867214705102697      6.5978216782176773      11.146957025650345
  2105   1      33.869914227287488      12.055924511408064      17.399358231849646
  2106   1      45.027461760994633      15.613313606458892      47.636621883291014
  2107   1      4.8701727551475669      4.3741845775203512      7.2980602622071382
  2108   1      8.2225021020046611      9.0354397011994845      43.255499581900708
  2109   1    0.051381077363868793      8.3881736167038561      9.1480217071180441
  2110   1      21.785267335631975      46.877853936133022      33.358546781682648
  2111   1      40.359027846697067      20.890573768070816      8.8998131236435167
  2112   1      22.844424182693089      25.546300867652558      33.677812931508349
  2113   1      9.6450802983784225      39.479150918308108      1.6711119619232382
  2114   1      5.8953122559507776      25.783544124489371      48.539098307510443
  2115   1      40.781960727521934      44.069353361841067      19.285167964947217
  2116   1      14.575016499383334       47.45501124751322      47.020688144444975
  2117   1      27.725945685985682      35.395340178002996      31.042760173221051
  2118   1      28.847225948488251       25.55457983926302      14.859706923100454
  2119   1      38.313277972306352       23.91531149994001      30.549350544907792
  2120   1      35.500005247186863      35.671830371585763      12.671880077552483
  2121   1       49.09314646501781      25.528222690289411      20.131358054667196
  2122   1      11.361234937910766      27.054722108067732      3.1334235551744283
  2123   1      48.680555761335945      41.030632390164321       23.18569695155546
  2124   1      24.862969876155105       41.54635914844296      34.671646914424741
  2125   1      1.2360785692166263       33.20854640354333      20.874830884807114
  2126   1      5.9906342625023461       17.83793547819425      14.286993785986406
  2127   1       45.20225783426141      8.2573645256710133      43.575522180131031
  2128   1      44.268747862048087      47.846139906534894      2.1553930361310263
  2129   1      31.942993920215155      24.260308089638823      15.780919391092974
  2130   1      6.4054389586939964      18.524503305728032     0.28103186456527385
  2131   1      36.653529568691987      25.388165170976038      36.042042719463176
  2132   1      8.6020948494556446      45.425885913995771      26.526096953006988
  2133   1      3.3644841797506673      44.020342463155977       36.39141945977503
  2134   1      43.166731050417532       46.70659494745945      21.604847129458133
  2135   1       2.791181522839973      43.981827222649102      8.3793201849787895
  2136   1       1.697095208445409      12.379309059264918       34.63015582152606
  2137   1      10.843708267081592      43.906438839421938      17.229015916314115
  2138   1      22.317550821899754      39.578482346781755      28.696786764888156
  2139   1      46.564576347848941      44.056058804609705       35.13937611647443
  2140   1      26.763332108650754      29.915669819110256      12.304783636132454
  2141   1      33.472892673760683      39.011867725174014      39.052144769562751
  2142   1      24.584477561874873      43.530412630527174      14.299833170933219
  2143   1      4.1334939413616718      31.107777369459846      29.241713300139402
  2144   1      22.266723356658602      10.811971985144076      5.1804063559868867
  2145   1      6.7887778848654738      29.791726834908641      49.792738282456284
  2146   1      27.787504436636642      41.145797821845633      48.637116938251125
  2147   1      44.686329748404859      38.529483098344379      32.219030624606056
  2148   1      20.062123228339889      28.234965344989234       33.05517401192877
  2149   1       34.60965826576993      22.352195622017486      2.1857778322828127
  2150   1      41.552243742462011      27.630454056746242      4.6351566221254181
  2151   1      21.468072886996183      27.725031869798084      2.6776025360535187
  2152   1      19.865776774049923      3.0312426294192782     0.20792709601427412
  2153   1      20.826014054553145      14.643629389861397        39.4040130535153
  2154   1      1.9825649686175384      21.101419882356993      4.1997342912085154
  2155   1      36.195227882461978      28.923996886427439      47.585532974388286
  2156   1      34.501807665923302      28.800784040400703      28.124916728093108
  2157   1      45.558326766939317      6.4295191308197488      4.1251453193445249
  2158   1      17.928614395625388      10.088075186967345      30.704492893573573
  2159   1        16.1786571021009      2.7026750521603571      38.067607996602966
  2160   1      18.124491463278172      44.019860122497526      38.807134745570529
  2161   1      29.621101972228946       24.59987057066564      17.904550198675196
  2162   1      25.653809124288287      39.363540281444706      28.420662926465987
  2163   1      12.769479510039947      47.755371987532122      27.541458037872371
  2164   1      40.722414809988635      30.654358286189797       45.41233970346493
  2165   1      14.403488400144893       42.62763664695435      6.0416286107547474
  2166   1      6.9241722540009425      33.832736154654619      34.030121661332664
  2167   1      42.143981953932347      25.195634991376142      46.312012959842846
  2168   1      45.418679004755347      2.5356917849952043      39.930702706598993
  2169   1      15.349673125664085      24.794150264287005      21.702143581876172
  2170   1      16.061216011572924      33.334239036277147      24.440903202934184
  2171   1     -2.7391782115855272      20.635195297743543      25.128054308770928
  2172   1      40.699826459189396       13.89291481711807      11.945607058893952
  2173   1       45.44480599432729      5.3702568770021974      11.704994828688168
  2174   1      21.349643193866214      20.664380199190926      41.243403313560876
  2175   1      13.914667621849498       39.31964094031855      5.1568120225349334
  2176   1      37.184041827442591      43.290543439510174      7.8780230393066919
  2177   1      24.950773184454729      31.822312421725119      21.235527429151244
  2178   1      40.697665705118801        12.2452806688422      44.846494003142254
  2179   1      19.144201041149412      19.995613852092141      1.2287306266336646
  2180   1      8.2671267826682264      3.9051344151314153      6.3285244767250166
  2181   1     0.59920917875019619      31.351969278624853      6.2217069794970916
  2182   1      15.668936323846303      26.939796554340468      24.982517517831308
  2183   1      39.924953568612771      23.221628219059927      35.299930122694548
  2184   1      12.827473104232359      50.343661977504901      13.789986582016159
  2185   1      39.712446643135124      13.047258957961615       28.89434594607394
  2186   1      5.2598539928002115      22.937220689567209      30.606310620678155
  2187   1      41.367442947516047      23.245322847598882       42.16932553637286
  2188   1      44.393722061815261      9.0692027626610301      17.414622310916709
  2189   1      46.589878680693097      28.429903905075907      23.491996492540657
  2190   1      44.667637879437677       32.76708715694005      16.234874257457854
  2191   1      20.097895286007049      39.831003052372857      32.562993929633798
  2192   1      3.5967410959786048      8.5526455503501175      48.927019069940826
  2193   1      18.877825185233824      23.205983419470872      1.3675275697282065
  2194   1      43.509342394637194      38.571619327094091      12.661631997705365
  2195   1       12.22109927823608      34.955772185791915      24.751530487874444
  2196   1      9.6510548011576542      18.822808349926987      39.854677534022187
  2197   1      31.757988978426976      15.949854221695599      24.156423913001476
  2198   1      14.046704659651468      8.9565211213401597      4.4867518036451184
  2199   1      20.577668927355326      20.692560970727527      46.839192203955356
  2200   1      10.409721954603265      39.931540580195048      14.096096023308782
  2201   1      5.5571888780113472      14.198742835278702      15.398187936539481
  2202   1      22.819499203535241      32.198723550817952       14.83468242913689
  2203   1      5.8397073888832107      20.445854406025674      11.857025248532155
  2204   1      20.946476916742295      13.750750357654274      42.664946566773864
  2205   1      8.6423188263840718      3.6922821181849286      47.849418676126412
  2206   1      21.409008175153314      23.016382468305185      8.6430143446644596
  2207   1      43.200785799423144      23.473220698677668       10.23734627336202
  2208   1       42.60037522860771      50.969039816278062        43.4422444231204
  2209   1      29.829477039775384      16.937615509992671      28.561987491929404
  2210   1      1.0138211107998172       46.73501777748816      39.580811364825735
  2211   1      43.489529897626028      15.076897513673709       8.552284993321539
  2212   1      45.670377961298087      11.844803415490595      13.982441069556106
  2213   1      51.514266284915543       39.38796703267078      37.051445522526521
  2214   1      3.7130630808084653       23.11089147629853      9.7019944684453545
  2215   1      35.078708169795952      38.758946689206041      42.663709725915055
  2216   1      19.606621323498626      46.438971716620209      20.366661024255034
  2217   1      45.322703204583959      45.580430361022351      9.4481521484855264
  2218   1      18.004083934211511      16.660672023693216      20.572347751627703
  2219   1       28.12993995864413      28.932707117413923     0.89209300214702958
  2220   1      1.6533389260966331      33.116115906426153      3.8501249361650225
  2221   1      6.1534991418737643      5.8097251857617529      23.614372176787292
  2222   1      46.889846452034874     0.04145289053206646        38.3598711063918
  2223   1      43.836855386478746      23.526812570595716      33.580703496179041
  2224   1     0.41849765235970882      47.390832315262664      10.788428264106505
  2225   1       9.534644528392958      20.765742524226589      11.052759253749709
  2226   1      45.735534539052985      12.800594243428394      1.9310081276226221
  2227   1       4.170511164930252      41.770789428992494      41.083487411070813
  2228   1      3.0133118445247296       18.99303370798879      26.620485288776958
  2229   1      11.380522208873639      26.828145241572223      12.987518540589594
  2230   1      5.7560465802922929      19.920323037446163      28.001287719692449
  2231   1       38.19914282477734      42.977410848096063      32.799337594575526
  2232   1      29.003458447610459       28.96421426744633      22.467609238184554
  2233   1      14.470836927838633      34.173996126587006      11.503065122486367
  2234   1      43.163535733770338       13.75125015574625      30.817953580155567
  2235   1      19.748034997836708      20.807389858496897      6.6816188421725542
  2236   1      5.3625669519006358      27.256052802916479      28.209653485892414
  2237   1      37.361165912873219      5.8907880839053108      34.038495067922909
  2238   1      10.501259504576204      13.523017779278454      12.855764169119709
  2239   1      7.5470610029372169      44.658401882125041       3.089228143617663
  2240   1      25.744881041914223      27.336062121150764      35.088361301759704
  2241   1      10.185460308160566      21.644168736527117      17.867449952338522
  2242   1      6.1049635553040895      28.491871823870188      37.909097821948819
  2243   1       14.71847615966411      15.022644923984654      5.0718932635092049
  2244   1      36.005298152485771      47.443263799169976      25.001816710667697
  2245   1   0.0077380819387132651      21.811001876689044      18.503952810692216
  2246   1      36.275094021642609      8.6076048744098816      25.667256356008071
  2247   1      12.782763314347479      17.607301821031502      35.972881085456798
  2248   1      29.008326756516286      15.208245809556569      31.952238203967816
  2249   1      33.195814575792042      3.2772337891417624      9.8154809760245136
  2250   1      33.148454526184032      23.497817829653222      47.372104002101629
  2251   1      30.086659973544549      20.677696129732066      9.2006647867566738
  2252   1     -1.4696615365403627      11.694665307596088      27.488317135709952
  2253   1       20.55702566705175      37.965732432222666      46.207919828929889
  2254   1      34.247818397296335      21.444680372321606      5.6292356756143196
  2255   1      48.678794148222984      22.684951757991954      8.6159609663977772
  2256   1      38.145634937463988      44.311097033437903      37.744819304574577
  2257   1        10.1377089343111        16.9437166705743      13.661373623100232
  2258   1      21.780341181742749      38.245387282712876      34.676453347091574
  2259   1      44.731855162127466       5.877207231556886      34.470302644804057
  2260   1      12.742554006124854      27.042314623749803      18.446568804408969
  2261   1      39.671879836063432      12.181583458422201      37.297102653118642
  2262   1      36.335705592537657      1.0347169207980489       44.78641489370915
  2263   1      36.568909637662031       27.08746131211155      31.572502755947827
  2264   1      20.436061328971206      41.988528394594958      40.407476064272061
  2265   1       44.28329363554262      5.6172969659701568      45.464261986001141
  2266   1      30.757895544205809      18.762062471365958      25.773483823086949
  2267   1      8.1314741970567894      39.820353886151374      7.6156620215421871
  2268   1       17.85697494842637      31.031568185259275        48.3233416293426
  2269   1      6.0492175440143638      14.529693396491814      26.269039205167179
  2270   1      33.064195458168236      3.0415655146553502      46.374933409566474
  2271   1      19.358901398565674      11.374403367337823      6.8748383458513969
  2272   1      22.806632683324857      25.318847056195985      18.874312380717999
  2273   1      32.294834066548724      25.390356288319083      11.300116212364141
  2274   1      39.412275899297335       11.85314207894201      19.043438117286772
  2275   1       34.48598489230357      42.329941881328168      27.645359684302356
  2276   1      20.698139100982161       8.070929848411792      18.617094866579276
  2277   1      29.470404602577744      48.544138703414056      26.230542229767494
  2278   1      7.8852698257368035      41.627091870616049      32.312119745975423
  2279   1      29.883698327205586      31.786100725249796       11.70269193736714
  2280   1      16.919433595298376      11.492482494161136      9.9067437332114583
  2281   1      30.736746105796648      43.759821316816996      29.276629221659189
  2282   1      3.2303886580732755      46.635710140125305      21.514120995520987
  2283   1      8.6493253308467857     0.52209482358410086      10.103348929023667
  2284   1      32.044332782344021      10.790963298973134      42.733741897847821
  2285   1      27.574815603824586      35.466526313797722      21.739446646934091
  2286   1      15.487928594670331      4.8023982417903204      7.6893529681600166
  2287   1      37.317797094454271      8.3794556727474578      29.477034983721136
  2288   1      45.811507447249262      17.363993289600554      8.5282444281867882
  2289   1      42.320560933597093      13.957612029641696      4.9949300465180713
  2290   1      32.471107337573663      41.304310344856397      33.377869253980421
  2291   1      28.588356556222141       10.76404150500681        44.7657228788946
  2292   1      3.4032929764628479      7.3427632061281836      25.180787260564433
  2293   1      48.948501338071509      44.685390950841935      27.321856079553321
  2294   1      9.1722993456141246      26.267527942293803      16.900548349715073
  2295   1      8.9458271108958609      6.9976194178534445      8.1968399403193857
  2296   1      6.2230042840621929      30.090204405667976      7.1938003419634047
  2297   1      30.826140235298691      20.002657638143727      46.408418774783797
  2298   1      1.4149134222038935      31.644599542254809        27.5840623333678
  2299   1      11.907543486628734      43.800305616437477       31.77544994397687
  2300   1      18.924603021952311      10.069895554029474      12.734373005958135
  2301   1      3.1263672922412553        18.2333222530226      43.147489928985081
  2302   1      22.599090905418606      43.649982760770605      33.196434099360374
  2303   1      4.5024396304744556      16.295782580158974     -1.1771447999964846
  2304   1      30.229052879878555      48.541422079036977      4.2409813795242144
  2305   1       50.39084052155863      39.868658962231414      30.782611450604346
  2306   1      15.224983043675877      28.356907938196454      36.596326369015308
  2307   1      33.598862237830602      30.993535879492129      46.022833066804658
  2308   1      28.880178503293635      24.089354867334219       7.215888307764887
  2309   1      20.756901133076138       11.08211438246717      33.393281999846472
  2310   1      20.077872510126941      3.8100170192066853      18.734632058387554
  2311   1      43.070149877043164      25.485366057374303      21.263565713688177
  2312   1      38.762045582499056      31.561899465277122      22.695581078067104
  2313   1      17.191410635996927      24.095390965562785      32.162339073541325
  2314   1      39.468420921919289      49.779319737404343      42.462577707886588
  2315   1      15.965771016571164      24.281579959221823      9.8831320517487402
  2316   1      15.620817022570691      38.661545694188426      31.485065774479349
  2317   1      39.436056502125346      20.344127829013036       26.37323476418403
  2318   1      46.125793266839672      43.432930336672101      7.0983705276735813
  2319   1      5.5689477873742987      36.662971286014709      32.757163883768008
  2320   1      24.027560667375155      12.181822551764832      9.3331780938328475
  2321   1      17.005225212701319      26.964103833716994      14.983027481010124
  2322   1      30.797845108841539      34.829233826727446      0.2319739802562743
  2323   1      29.778011191363948      44.309568499480299      12.551488037239816
  2324   1      11.955281017666774      5.5769742279009078      13.317501866046957
  2325   1      7.7351315993836405      32.497046445237594      5.5000648100299596
  2326   1       11.90918111388206      42.917523428564763       48.88406631498006
  2327   1      32.611082574816564       43.28545706503855      2.0446539081776636
  2328   1      39.989926775237386      27.428498792377354     0.20066250857193546
  2329   1      47.912068520812042      17.363168770244108      26.765700355224194
  2330   1      31.509364975112156      6.2371409274218514      47.148027248871841
  2331   1      26.003176935307966      1.2192144508078497      3.2614365916228971
  2332   1      32.146174111428373      1.1549484634923113      35.236842364940706
  2333   1      39.989309190673303      33.787269527379181      34.605382370373697
  2334   1     0.42932856702078215      12.430522081655175      24.825928072119957
  2335   1      34.561486831771468      6.4175427239514624      49.246058043385219
  2336   1      3.3054874640418519      4.7536967650931183      32.760082616098927
  2337   1      44.157689534645968      11.277141900202425      24.787323011104228
  2338   1      8.8502671979420935      31.954926452813311       37.45479828437923
  2339   1      10.697392475525822      0.8372786008144727      16.406263597007893
  2340   1      27.407287994974272      1.0740536665247944      23.712673890190729
  2341   1      48.334829189762026      8.2591975159921702      36.440437686934551
  2342   1      6.1599645193037578      40.693887450284862      43.575387406258997
  2343   1      11.042679949112873      37.534996873854119        34.7393660526132
  2344   1      6.1476911931021858      18.930713260770379      45.543058828686867
  2345   1      46.348179727807818     0.77640807467542816      26.431160923419032
  2346   1      6.8856146722167058      25.542385970870825      3.1301183392712506
  2347   1      13.079609102006977      12.086761305185668      4.9721961239736645
  2348   1      34.662016949109372      31.863575416009787        27.0757089319582
  2349   1      12.315750102216287      15.070737088147894      1.3354676303342745
  2350   1      10.229433342395424      11.345126872373003      39.869022508264884
  2351   1      43.202652549547572      35.345590286976901      35.559041183273614
  2352   1      40.656497274935575      5.3429397467037907      23.899771313030502
  2353   1      9.6909600304369938      12.273633771756167      9.6681313279833905
  2354   1      45.167939601010467      22.869634459123244       5.985073005756151
  2355   1      4.9282915142224439      38.885526202999287      20.942492138479597
  2356   1      22.906734026842965      33.149113048817057      38.972019864678209
  2357   1      30.634693185320838      22.412215079164586      44.072254914551387
  2358   1      40.395949728128194       22.45469203396933      47.381819786123586
  2359   1      31.562099244709827      5.4099197660309715      27.906868393238188
  2360   1      34.017676816635081      11.924536124340793      40.503243706215471
  2361   1      3.0151989329034397      47.324165221446009      36.841092623211289
  2362   1      46.220855246160845      22.637179168779166      42.401140882657899
  2363   1      21.367973137737064      37.996484971140852      15.431876527421265
  2364   1      26.150083659252939       4.752866730930899      14.918903888165875
  2365   1      7.8351028418201878      36.490100051776295      7.5321669411705647
  2366   1      2.9655403011806234      38.467628437238147      43.458040413271618
  2367   1      7.1829251988899427       10.06189915720849      11.113968862479219
  2368   1      38.325574381920646       32.51143188976959      14.677211896894894
  2369   1      7.5248440027517445      23.578679736895428      28.166622273291825
  2370   1      19.207810147416716      3.7733450953612335      6.2463069706794512
  2371   1      26.334227631506508      29.989612252421985      28.108408727088257
  2372   1      6.5352076344794927      36.297101763447934      16.144554072704832
  2373   1      44.601053704278677      2.5058302446796805      35.728626292999749
  2374   1      8.0940998863556164      29.173749520043415      41.010014315382769
  2375   1      19.452135361087933     0.20211628881413393      28.946617560629186
  2376   1      39.057810319981321       31.16219537699676       48.19504335585691
  2377   1      18.941672364209513      7.8208737229534497      33.912241300771811
  2378   1      23.027799890485582      30.701286601119925      11.708099624088149
  2379   1      35.325341174304718      36.987032422572042      51.300623787308012
  2380   1      0.0196689758184658       7.055889460817844       12.23128569120659
  2381   1      3.9700894165455938      2.2998117181643729      4.8003423671966869
  2382   1      32.429527289453965      41.920990166009723      40.369265284446911
  2383   1      16.696321460053849      10.687594549929141      47.264623411603267
  2384   1      26.115081926920737      18.326406220806106      1.1782152071970735
  2385   1      31.799852413162739      46.993104924399255      29.595087235575022
  2386   1      28.366569802311503      0.4921989119967683      1.2697573545736347
  2387   1      38.800602657710606      44.333563829198404      13.531721161304793
  2388   1      8.2315479730221437      35.258682418569634      36.618272447801687
  2389   1      29.601990720348521      36.308670673593646      39.282042036792511
  2390   1      8.0317725738628205       8.211682242771472      24.345469341500564
  2391   1      5.7714258000432439      8.1363648163131117       9.115570554031148
  2392   1      5.1175561937368643      32.784398807310467       1.738349447822632
  2393   1      46.156684628556725      2.7871717654485626       22.60409857712445
  2394   1       47.02516299711283      20.289761372939491      38.980532859567873
  2395   1      9.2878074627614531       34.96089520096934      31.133052196569864
  2396   1      38.658701623523157      40.855927374928108       15.89259043699548
  2397   1      27.372332016326315      22.860581275797525      16.229479941477443
  2398   1      24.002452935981218      24.511737580748708      46.446069833095315
  2399   1      23.886384761473384      28.537054172052841      18.897385360979907
  2400   1      45.116322308128034      33.552516292853035      8.2486957859035641
  2401   1      27.151592158423806      43.184190092817879      15.872363942092939
  2402   1       21.73332006659286      14.505468447851529      5.4130054148203541
  2403   1      26.710426714405983      37.395052785070661      9.9240914860760103
  2404   1      28.415411450315432      18.475492996242139      31.407351193581025
  2405   1      41.758389602842051      25.296342354528846      13.124460343417635
  2406   1      35.532269606010473       43.82420505095336      3.0836212512661558
  2407   1     0.55351252505312998      20.150470263790549      42.523818654851048
  2408   1      51.408744320459924      23.772283107544077      42.841535498589089
  2409   1      24.452951740668322      4.7461959959047695      11.410817100860562
  2410   1      31.316116089883742      45.331002349170099      41.571696545026938
  2411   1      44.927064915590257      12.602928347532849      33.096832421429035
  2412   1      39.958222332752491      27.383285117613795      36.746497647159458
  2413   1     -1.2871320391968424      39.158613704205017      34.444219049987161
  2414   1      13.678857536690293     0.39991768309435083       41.16162571466657
  2415   1      29.031278576088717      11.353881017545504      2.2439536535246898
  2416   1      42.576174744994191      41.945955670195033      21.562359736365543
  2417   1      30.853903939166781      36.588837695750399      5.5744095674779874
  2418   1      9.0635283961959399      33.880556245000818      17.536492886593152
  2419   1      46.081727446231575      32.392719263056378      46.193445016753778
  2420   1      1.0149180192368936      47.157992588937326       46.37463399461361
  2421   1      22.900898239379309      19.148595734253185      13.361445755847866
  2422   1      23.896560767060382      25.609526748257974       9.654450180551585
  2423   1      31.710905949340916      47.120223928822391      38.978028023523187
  2424   1     -2.9201278065337704      15.091534434791624      15.313467300620212
  2425   1      38.314878071884166      41.719548645917222      19.270375875256903
  2426   1      5.2767730288587087      15.372401734288029      43.249511914969823
  2427   1      44.561627486847129      21.141980436465975      46.831720084057075
  2428   1      30.168236909334656      31.111288329698798      7.4439517313318726
  2429   1      21.091539712608569      43.145352507214888       36.23990073999952
  2430   1      23.318104969927244      43.120366605582703      43.481008637354819
  2431   1      18.043768698800488      14.208266625274835      47.895277233204837
  2432   1      45.390147276283543      24.819329007120015      46.339164384297597
  2433   1      37.931287233908456      40.637613716036235      10.097817824802428
  2434   1      46.113282642534742      24.582761295318658       19.97088837905704
  2435   1      26.101024295458139      22.218265916800608      34.285644344709276
  2436   1       22.44936991113326      46.318431635310382      23.112993762051318
  2437   1      6.8545209872942259      33.369927890464055      14.315524308594982
  2438   1      4.6952271640579823      16.616249597834596      18.412373835620379
  2439   1      12.574580293682397      29.246607148618207      16.247850011602807
  2440   1      28.585234111371324      26.233222091237764      41.489544525120991
  2441   1      45.620736165103544      25.819990417400884      32.614710776367204
  2442   1      4.8788031282735398      40.543304503140675      25.731610471908969
  2443   1      31.018339064609343      7.6044722843267891      44.312957781838136
  2444   1      43.519954728489132      36.062054914818191      48.322553136403513
  2445   1      44.133586672701107      44.718366946132932       -1.46345834523733
  2446   1      22.998069496063064      2.4477713520028694      28.101015848220907
  2447   1      45.649413439333372      27.379448286612504      44.076076844181451
  2448   1      35.808103762672054      0.8482398317498796      12.319187812680404
  2449   1      46.330956214478348      14.670482716697254      25.685237015707632
  2450   1      39.584460191417442      46.507514833711397      15.941341061482447
  2451   1      29.943253017642299      36.398521589546959      28.466608514211778
  2452   1      30.074127621137048      21.466142222871547      17.260070095346691
  2453   1      17.140771380197965      3.1268147137603002       3.534787855858061
  2454   1      29.474043248042271      27.518802477818692      6.6351457781330918
  2455   1      15.708643702237424       21.38190606399462      31.186468522114904
  2456   1      18.841286648872959      5.0661924133250995      29.229004051725049
  2457   1      39.298654716107706      17.718644065941213      22.570815541709557
  2458   1      5.2209323183893179      44.083620774723322      19.871805604476243
  2459   1       33.89088886098132      13.862253974748956      37.025394581556512
  2460   1      28.731794478049391      40.168349200211004       40.94578153669994
  2461   1      31.914835098552242      31.298473994724606      39.486903264663624
  2462   1      43.441816096751843      40.167137960020071      9.7100219663871439
  2463   1      29.087993523326464      43.063316415267288      20.462096420342618
  2464   1      3.5859637527328556      11.081201855269157      7.8574346796653547
  2465   1      4.8072814429036868      50.771944598737491      29.075802163581862
  2466   1      20.343843996973337       30.87285091285468      3.1955993340773521
  2467   1       42.92420839491443      30.940816325836217      11.252908424153636
  2468   1      11.202442207119175      8.9825927935043026      29.438178029068091
  2469   1      17.096005005601452      46.049899632910567      34.886924539489186
  2470   1      34.966181545994282      2.6190551092402745      36.838100804117424
  2471   1      23.080720846833469      9.1765621402346813      34.285784317836601
  2472   1      21.658476424118199      37.222292584052717      31.350866115477313
  2473   1      20.013637253141983      25.165391442332144       25.36040810351097
  2474   1      14.570882119380768      40.438675388154124      35.172879395180288
  2475   1       5.820593919977787       9.481005676021228      14.970426013185326
  2476   1      42.383694140613663      2.4281959456986146      20.369837296992458
  2477   1      37.315570509398491      40.916710598215381      37.508753700285034
  2478   1      27.497978711713682      14.447063420153901      36.946032784664034
  2479   1      23.751109464008834      18.873909786308737      10.113258232046263
  2480   1      13.150726694353205      37.629523279025236      37.420161443538639
  2481   1       44.68250463941429      34.195761469211135      32.077265905722427
  2482   1      16.624531425123415      34.251739719587107      38.090726953292886
  2483   1      40.959253261600743      37.553909222623339      49.280996105378598
  2484   1      42.217532097575322      12.912145977995729      35.316138255759626
  2485   1      16.586604898208758      5.2141477621899739      34.168243134480456
  2486   1      36.862810018299847       10.97850232725713      38.896554653239669
  2487   1      9.0445452419327648      34.296871347865739      44.084655427518278
  2488   1      46.318464002152361      9.5197471391874178      7.2235440963251021
  2489   1      23.396388829815439       7.082498114263803      3.9286179744570986
  2490   1       38.66026797196848      38.442568433736398      31.947034515943223
  2491   1      32.620049600227091      14.927913121497646       40.75478232967864
  2492   1      2.5705596100787851      2.1379662486766069      36.776149731922679
  2493   1    -0.78296298012832211      31.115914010035407      3.1249907686281837
  2494   1      39.332955732054018      11.777469721816573      41.020145781558092
  2495   1      31.642015781311169      4.5310197685909559      19.337720555891917
  2496   1      3.7758753336809527      13.008470561811803      24.050696017940577
  2497   1      47.399102131797562      35.673402298473299      26.643079620814135
  2498   1      36.726661822982429       13.89381329156179      25.927477863637186
  2499   1    -0.13713752844733976      30.211209484260877      21.573561413668525
  2500   1      43.408707271034331      40.605599496238689      30.139287120789845
  2501   1      24.904140919277758      21.431643981430753      40.700671736643855
  2502   1      12.849687692410896      43.924116935106063      9.4520260993342138
  2503   1      46.440507177954224      34.591577435384167      23.566109960940278
  2504   1    -0.46225565832554721      39.736537301376501      37.679737161235138
  2505   1   -0.027522207679017863      43.243564880796924      10.434406245167658
  2506   1      8.8282669850818376      39.058118993777576      28.132176274005719
  2507   1      17.793090866838963      4.7828445536147202       22.43482546739763
  2508   1      26.069969284330568      26.045418211007302      6.9332249286786407
  2509   1      30.429203706893166      44.744462796358235       17.93529979250653
  2510   1      21.018037411141226      29.955958221871235      47.365829765317947
  2511   1       2.677744923268107      1.4036514549493595     0.39034082354615512
  2512   1      15.078100267121503      9.3340437903689253      34.190874639792469
  2513   1      16.420438963458242      32.334323567447406      40.808951516393918
  2514   1      32.491173638397136      27.024222165230505      8.4091162743812724
  2515   1      3.3481211338549324        16.3475580647832      7.5133222676615112
  2516   1       7.528000088782866      27.627744279030157      45.621374397898926
  2517   1      41.144705081506821      25.975286029778616      24.040745779775158
  2518   1         24.538036638346      20.228952002459607      26.434873637862719
  2519   1      23.877384812823077      30.851496491083459      44.830562231905169
  2520   1      25.283101000297549      4.6284373521310576      4.2911467896130544
  2521   1       10.73586250752388      3.5658718472155435      45.245317397986582
  2522   1      20.661042465791734      12.573469790892343      15.975330141840535
  2523   1      47.927253242428748      13.655421252598956      47.353123278012653
  2524   1      39.622293300495656      44.480134680246962       42.15891407547911
  2525   1      29.161725658641593      45.263325931019125      2.0350730726148698
  2526   1      17.870292130812075     0.46954025813961048      47.330459444528778
  2527   1      3.0328603329240424      28.735685652172322      20.665595004152522
  2528   1      22.518564922546489      46.216377788170497      18.993373483170341
  2529   1       27.37678407351839      7.5401041513512572      12.991482117619119
  2530   1      28.698835698908841      31.247910872384811      14.849498703516602
  2531   1      3.6287823709456624      46.501225072504596    -0.58564277486207994
  2532   1      19.095509511012409      7.8889990405150785      21.335729197705621
  2533   1      32.655167822201491      31.131020073597444      29.740320865856543
  2534   1      6.0158266178080702      22.481956091715652      7.3408670599359658
  2535   1      6.9336358402258087      11.109600477475654       3.176745947332575
  2536   1      45.259134689352152      12.660231141951689       17.25061338292037
  2537   1      1.0982482861712832      30.828945880631789      13.799113383558923
  2538   1       8.601827268685879   -0.013624432665546204      39.177414909823689
  2539   1      1.2616150093934668      8.6489825155422917      39.410187465570864
  2540   1      43.269999874574943      31.042856831309553      28.904566703097856
  2541   1      37.390790053695291      32.188287421603057      45.454669719965821
  2542   1      16.718188280406352      47.253485136791973      23.143317540549535
  2543   1      24.825827964103322      11.389726158036609      47.888790305882942
  2544   1      13.901407303126353      19.316399274146892      27.303936674848508
  2545   1      48.375721521001005      37.448913115481155      16.920854057321037
  2546   1      24.734140647215721      16.509011802793438      12.251163379966416
  2547   1      25.116243845956781      20.539668752210183      22.081603939795635
  2548   1      7.1690864224389275      12.916039737900954      7.5196048014412566
  2549   1      30.844935367916566       5.365193083532878      37.613836321754036
  2550   1       4.111303926930634      9.6049408742593805      40.956739421899336
  2551   1      20.378131119909423       34.91367462960303      44.859780374999815
  2552   1      20.891724016081714      12.164912633119746      10.691513975830581
  2553   1      43.904958113594894      11.680761022111131     -1.1594271166061683
  2554   1      7.7407572140975223      45.148520814013082      40.491096930832171
  2555   1      37.107572799123005      14.310983213339261      9.6559156763911655
  2556   1      39.051557722072559      25.968682999189195      2.9852433475592854
  2557   1      10.290582126263912      22.495974960222295      25.630745364878596
  2558   1      47.045354668866295      13.442297692652161      30.245133380577521
  2559   1      5.9443008983457997      18.212820576845321      25.002286541756053
  2560   1      9.7240061216412794      18.526959256695076       35.46922722129198
  2561   1       35.52002491725338      28.225908931345273      37.448501955683923
  2562   1      10.500983082660481      5.8595011194443298      26.199464700550735
  2563   1       43.52911423917574      31.686911253839465      43.755358498634244
  2564   1      42.994213039370223      13.365230492387793      41.613813300267083
  2565   1      8.0414089633527794     0.60073551236426148      30.617763062030999
  2566   1      42.124324803105466      16.970300354641058      41.151466720449974
  2567   1      15.344345231696327      15.972165931816095      9.2113821933008477
  2568   1        13.9740853949932      9.5637439161880646      10.331464995573368
  2569   1      8.7718587786368118        34.0459112495952      24.081276417052862
  2570   1      40.424489278913626      44.174942326407006      5.3352494326855417
  2571   1      23.247955313693208      4.3114752660250293       24.63602076606298
  2572   1       3.160530363481477      46.734137538401285      42.276288839240159
  2573   1      23.881313440442746      23.552141953824865      12.311352984585101
  2574   1      12.602264511477152      34.877706489665805      18.362808907253299
  2575   1      14.225709621386759      35.111386268718014      43.701516034006765
  2576   1      5.6507146574644667      5.1850650574240413      4.4938932661888034
  2577   1      30.088381441030872      47.281594702062968      35.368210622221397
  2578   1      41.642833350181874      39.215706487981926      37.923151558234338
  2579   1      40.018003953463406      39.828829251101446      21.237048134019908
  2580   1      19.551392075206547      40.860101429733689      49.994678436395873
  2581   1      15.639816042010558      42.844707996461402      28.071128880344229
  2582   1      16.782001861866089      29.433201189627635      28.342979141098038
  2583   1      7.5014765449762644      5.6450897243892131      16.786454971864881
  2584   1      5.4526097705391843      41.838839574087004      8.7683515762163395
  2585   1      17.917279563021602      24.140003979428716      45.828500722186121
  2586   1      3.9087691469248398      42.098211328729441      5.8802144016362572
  2587   1      35.425984319383247       41.54299303439867      23.135627744521425
  2588   1      35.240838153165534      39.931242430864707      16.945244040852696
  2589   1      19.206572539472127      40.416704404274334      20.171039374076585
  2590   1      10.707921506499131      30.835195692803364      5.8805129022218203
  2591   1      36.742293475654115      31.475687158382286      20.028708527459539
  2592   1      44.782119560013363    -0.77238855294216313      35.364218974082199
  2593   1      25.900958069899445      15.602382913272496      47.056024921346904
  2594   1       6.881567269210608      3.4752707944325603      10.459581550499548
  2595   1      9.3220581070244339       38.36332995929854      39.221054194202175
  2596   1      11.060904951142231      38.138273410706248      19.400871192987765
  2597   1      3.7676940787641922      43.433600045106367      46.943712727401035
  2598   1      21.866637191986936      20.943779369862195      23.302692846100811
  2599   1      6.6567328094096982    -0.17414576753132202     0.30124060815634046
  2600   1        28.7385702113096       4.685364409597935      17.331645662870294
  2601   1      33.157154180489989      16.595265431485345      11.276926368254621
  2602   1      21.884508899581853      28.527905660682372       39.76685825651434
  2603   1      9.8959240701694373      44.962374683669751      8.8120489617411604
  2604   1       37.48883967513305       17.56477744616711      43.703732555045825
  2605   1      27.560162720245174      6.5955284444215314       37.81710958178703
  2606   1      45.669556848823674      37.395022710294491      14.694460576173723
  2607   1      47.873872786809962      46.317442257654477      7.3604404564181207
  2608   1      45.098141228625067      37.283140766361747       9.715875568318058
  2609   1       45.50744639683753      10.976564028722281      37.189499265086091
  2610   1      34.296996056728553      32.163564374098463      43.102089236286602
  2611   1      1.8217319220229653      32.325634110635256      40.843363754677291
  2612   1       44.10815768624294      15.742475638893699       43.70662181818885
  2613   1      18.636365931086434      45.653794406412992      9.8005737517314753
  2614   1      3.7406497017023179      32.383646487258183      15.183875757869675
  2615   1      8.6837938566782515      11.451690013458792       47.51273350058036
  2616   1      5.5390067410439441   -0.044414386191881698      26.792770101273714
  2617   1      46.386836478758305      22.068777837483594      12.076650784065846
  2618   1      42.038349043353683      5.1035315149945131      6.5762042369172908
  2619   1      21.445549707120453      42.360298401163881      6.6666939834105943
  2620   1      9.6951367774878108       9.813889693667365      1.5078284580728649
  2621   1      28.303244264954444      28.020438971956363      17.220705645478379
  2622   1       28.96457949915764      3.1315903390888047      25.714016777415605
  2623   1      23.874795810665258      34.435731465814044      29.336706604694573
  2624   1      42.338457806510903      13.966349270301347      27.145546571723312
  2625   1      44.547371317822936      1.9003328600970648     0.39568715641906649
  2626   1      33.293039935739564       44.61506222922754       31.16815022248155
  2627   1      33.628064596928461      33.013010156352365     0.56551346888052589
  2628   1      36.388529580745278       21.31071320033924      8.7399700998151797
  2629   1      17.413977151480942      5.7961305537005323      48.490239344038692
  2630   1      34.881736444857694      5.2360434718550728      25.783248928737148
  2631   1      5.6372859309705401      5.0255740513412039      38.830997105590775
  2632   1      25.289562844710563      26.571596674620885      43.200890743099293
  2633   1      7.4240856029905666      23.818813198958708      15.961848183437096
  2634   1      10.313191964937793      48.581943679652952      43.023716047508749
  2635   1      31.446437103637901      31.168878565792411       23.74781895070517
  2636   1      10.808514578545763      23.482251023539099      13.805117888865997
  2637   1      41.649138493711007      33.139973087708157      47.267998909225433
  2638   1      26.183847099789457      27.966112799533434      47.234430063482705
  2639   1      1.9249643783349522      10.512795474472757      22.305645910990847
  2640   1      20.273625286679103      34.195875275223109      37.250514045939703
  2641   1      19.688532018177327      18.596432675777937      22.601970508805479
  2642   1      18.653889543894515       49.16971932458187      32.121035718150551
  2643   1      41.350334280326102      37.073824098593647      18.966004741619468
  2644   1       32.35530443370979      31.971090453653801       3.562659122885008
  2645   1      24.203497138204067       47.73830273968926      25.948793326200885
  2646   1      24.784951195500859       47.50362614204623      6.6355927688388201
  2647   1      -1.301012148432489      41.148389666526661      27.541496029081518
  2648   1      1.8511599197775555      21.613788409505034      33.231415398684518
  2649   1      17.434951503129383      15.410843746218076       37.70773887043439
  2650   1      30.180680940143304      1.6338610232117994      46.366880442512787
  2651   1      38.432033578661269      22.481650884501541      19.333417178793194
  2652   1      33.977763030295648      9.0120470477579886       14.39847276822508
  2653   1      28.706739891948601       11.82193440085309      10.993706577111583
  2654   1      37.747953161977726      46.968694135488136      45.184282555369094
  2655   1      27.786148740323242      42.176385565547378      3.6897706967442021
  2656   1       8.051960070762064      11.824639367302224      15.125060872508211
  2657   1      17.416447202598015      26.716960722694068      38.809814271645514
  2658   1     0.37413785741583172      45.588292343266943      36.335847413749654
  2659   1      37.081469118806858      38.242786936216632      39.873856472025636
  2660   1      25.768913930316327      26.122070255415569       12.24564617733675
  2661   1      40.452834492515173      39.937629586794642       41.99830522742657
  2662   1      38.512575202898923      26.462844489725004      27.360810943414233
  2663   1       15.39174331463478      1.8514918693965565      28.692910816073784
  2664   1      13.679679669737943      5.3643231389524431      27.540834435205372
  2665   1      3.8537929975739638      13.220584711699937      5.3087561734386783
  2666   1      26.854464319934728      48.895636753142277      34.615552873110921
  2667   1       43.18695575055699      14.909259031509748      1.9443317168326153
  2668   1      22.803795209415146      24.037168647371672      41.942822660318527
  2669   1      45.509785845879456      18.799864543533293      15.242913415113149
  2670   1      41.312805300848574      16.006833520085671      17.285583350045751
  2671   1      8.4863244896694052      31.762273357408414      8.5380938736999639
  2672   1      18.241237565409442        49.9919628146612      23.247513766625062
  2673   1      9.8364243517008596      24.271961115289855      36.124263283981371
  2674   1      5.4986056265084073      21.455733096784076      43.602512750872783
  2675   1      10.172628442619947      27.765484451029099      43.430187502404529
  2676   1      25.631056342522371      18.210312755564846      33.052592749212906
  2677   1      32.891623911891926      21.511945286286888      35.458050587021283
  2678   1      19.711718461450129      15.700959693597667      16.161029763221446
  2679   1      47.670380333766964      5.0140386081673531      15.453436456716069
  2680   1      36.655189832689317      46.711231437339436      48.982319399144991
  2681   1      1.5070075302379526       4.590710550836314      19.528399677899934
  2682   1      43.455484870567922      34.597802376272426      5.8121287652493105
  2683   1    -0.14814238224773227      6.3429402957588126      44.034385501750023
  2684   1      21.371620633457564      16.144215605730079      13.164670947580687
  2685   1      36.605981459228289      24.367237365323721      17.025307916765431
  2686   1      26.375176509285346      17.860843041267067      4.3335207687315123
  2687   1      40.922647436463357      29.537082464876764      38.749478459782139
  2688   1      31.513767276255098      8.6916103116190939      24.546786449220861
  2689   1      25.782529282591504      8.9020513076686587      28.252804033465651
  2690   1      36.520633950093327      8.9133108531330283      7.7593933053292377
  2691   1      43.545405533846036       28.12597326027548      17.462771745717887
  2692   1      42.086789350481745      43.504297966013254      15.657027326509239
  2693   1      18.569924030208362      21.801921056817864      9.7259708881513518
  2694   1      46.670581422176241      30.769334179032768      42.812027561372503
  2695   1      15.653935980775904      14.167712400226698      16.942658707258779
  2696   1      31.339801478067663      23.003242310027229      28.778607731193208
  2697   1      6.3584884596716211      47.670699438218598      42.325553682696054
  2698   1      20.478341812480302      48.242382210288369      25.841808311010002
  2699   1      3.9251562963832467      35.930582837844916      12.739525226218101
  2700   1      26.793363408014965      43.031518955373699       24.99338602433075
  2701   1      47.036190480136518      9.6573144895604361      46.649166447475139
  2702   1      45.234144006401401      45.529460077248146      25.042823408553208
  2703   1      27.934093049847899      18.889685738154832      18.487960450911249
  2704   1      33.638672926561753      37.637829181418901      21.304234103359111
  2705   1      38.347884326989771      46.164989221992549      4.0460951643964025
  2706   1      18.306773672181713   -0.042937765508047759       3.496100265570357
  2707   1      34.930529857773465      18.642108495782804      34.208275075232628
  2708   1      19.538218611627023      25.937234592261927      19.078889916405057
  2709   1      22.463166417624535      28.564136971379995      9.1205867844572541
  2710   1      12.797912243656638      8.9285191625508205       39.98849694409374
  2711   1      42.218297332346616       8.268280645510492      42.087938997300277
  2712   1      44.538555641925953      46.703140907607114       39.83198382566993
  2713   1      9.0943075159545614      26.418678005057163      20.522145962998021
  2714   1      24.511396537697831      33.452484168374127       43.17939263656578
  2715   1      17.519343792628607      48.508633611878381       16.22353460949186
  2716   1      27.386467501368937      48.307586119352834      11.360653658452625
  2717   1      42.612871344340277      18.219156610440319      8.9320346517014322
  2718   1       38.09106603909666      7.0396919486618028      45.240914904518235
  2719   1      11.267295432424683      36.253877639946928      6.6734383245331177
  2720   1      28.541812390933924      38.314365820517288      20.340819006704855
  2721   1      36.699585766226384      20.070837160209432      30.984402644699063
  2722   1      12.022681070463641       15.62645977977469      32.229467001110308
  2723   1       26.50625214637715      8.2211197925924626      0.9105119799730097
  2724   1      2.4899667492520741      6.6125083363309436      3.2453366642695403
  2725   1      39.330231838954866      39.956653120298498      34.943554540399667
  2726   1      0.5902285560502909      27.039594587286604      17.443799268367663
  2727   1      19.658139073296592      13.855235870057548      28.840016543112537
  2728   1      32.059382284495129      20.183590631956214      1.2851810371591657
  2729   1       16.80599563115597       7.274333694192725      45.603005318512416
  2730   1      28.670939418694058      15.249229895355784      45.482146731749538
  2731   1      40.617328963709731      21.060079235409695      30.656156000689574
  2732   1      11.584129938212275      6.8093031663895536       22.01453836321858
  2733   1       13.95709740607799      35.564665168924677      40.190580202465675
  2734   1      20.705649055010465      30.974810540892918      34.440966883484052
  2735   1      42.202622118387232      8.1970887119894122      45.518650588769248
  2736   1      6.0363724463601036      43.610430544113484      30.293852792755292
  2737   1       47.91039105971678      10.757647919686939      16.143323197465357
  2738   1      27.663124304886232      1.2771310557734572      7.8821309325309414
  2739   1      24.530930993920556      43.769064091098443       3.364833519517334
  2740   1      17.680782256481461         35.575506099117      43.366739318535593
  2741   1      27.584201888505437      31.454232093062654      3.2795917188856785
  2742   1      40.597630307481438      44.503795025611929      31.462325843360162
  2743   1      35.531713902024762      35.686758750720593      40.985589327592102
  2744   1      1.7062937002895859      23.135245105373141      15.788494190007452
  2745   1      17.333719676037258      37.115927439731195      5.6824627396934559
  2746   1      31.737843823792069       42.93843530762225      37.186600608302705
  2747   1      11.831790520300796      46.889864031754229      10.430897924796469
  2748   1      23.348691385070314      40.000916975270677      41.525147698327345
  2749   1      13.236580249526687      23.851022076403222      4.6541217214136239
  2750   1      38.655335075823416      17.564612143972429      1.4214551161189146
  2751   1      1.9879380013095356      37.469418156031971      40.510213202337695
  2752   1      19.814455454995382      1.9801933036014334       45.10664625452285
  2753   1      41.677929738440881      10.645458660601378      9.1959969584666439
  2754   1      41.500820192539855       41.89915158743576      12.701712227834768
  2755   1      6.3378939581054325      6.6782198467151188        26.8901807243363
  2756   1      5.4352846419286092      47.363870090213204      4.2401023559131179
  2757   1      13.491138237857434      32.776766766120986      6.4207124751250371
  2758   1       1.729128621670402      27.966885598653207      25.170149648286362
  2759   1      20.515890850111347      15.188199146061685      21.951506737517082
  2760   1      34.210312492918227      43.203149659060912      10.231945109887505
  2761   1      2.2512556459922504       16.37834235973569      13.357669716401777
  2762   1      25.399012486239371      11.456822607012024       37.16437466773845
  2763   1      20.239890531572559      37.146454047925992      38.790512077760077
  2764   1      13.611136436950684      31.123588074667328      42.284774445490406
  2765   1      17.048414499653635      12.052574563908287      37.762787200432506
  2766   1      16.371055789631566      13.306306271786864      44.223276354102175
  2767   1      43.714503582491716      37.279987463861538       2.590977284741498
  2768   1      39.236685620721147      29.001296268743058      3.0386967904587867
  2769   1      23.809134961525757      11.658600857864977      12.556802388661941
  2770   1      33.810806840701225      24.466800466000603      6.2935350754342227
  2771   1      46.013980419031952      17.388239865302975      34.483475612092583
  2772   1      4.1076800744289104      28.912158450516532      40.471450507844331
  2773   1      32.335863318399738      24.029249380065085      20.531803021385329
  2774   1       7.179259993265215      16.340826032352524      40.036694493577976
  2775   1      35.724349541248777      29.514552006888028      23.707573313228966
  2776   1      24.170688016087794      1.9258923718562606      39.604350387542233
  2777   1      35.910902580150442       16.23485849792706       3.721049795047112
  2778   1      6.5247211464827082      37.775608776743177      -1.780884792681114
  2779   1      33.979377499336415      49.015380447175843     0.58722801144435366
  2780   1      21.637457948546349      8.3662483833144066      31.372510858857495
  2781   1      41.531306386153986      40.837956453675012      18.500274814978145
  2782   1      44.284132915319688      25.619358517439331      15.552946828339694
  2783   1       41.88115543895568      33.757074151603305      39.474996510476572
  2784   1       30.17960271404494      17.452629953447985      8.0167499888562155
  2785   1      39.540780910435835      35.833281549133403      37.400268550682405
  2786   1      6.8800344526921187      34.174259561775045     -0.8404522543561046
  2787   1      27.671376136687112      19.514171189767211      11.475410604498137
  2788   1      36.164310104926841      9.8487160324773839      4.4067043794138865
  2789   1      7.0552452213201065      38.973851923063528      14.448021873242313
  2790   1      4.1839169429665883      39.978483586130544      46.335192283912441
  2791   1      37.552323622227213       5.273635871011102      30.297432725305921
  2792   1       33.40688218712166      3.8118303148619197      13.877682355390967
  2793   1      32.757632965314649      25.521700831582024      27.576997720135928
  2794   1      31.786706748924789      20.307378941161122      20.866241161180081
  2795   1      44.075097203523256      10.491280473941819      11.299858183092667
  2796   1      5.6277099666961368       12.10580312455388      12.895931734267071
  2797   1      3.2540748044937624      43.897822252931306      26.529292976649852
  2798   1      44.657576643377432      18.533858131666509      11.646428601134193
  2799   1      28.683147866526085    -0.44715230263326516      39.030427226582979
  2800   1      15.451848072705221      26.122636092021217      30.441958200939133
  2801   1      23.595481843180913      41.531357045988237      26.665110467145414
  2802   1      35.416411810864162      1.1296012116390437      6.1998443150732196
  2803   1       9.951173122592385      24.847528052974152      5.0818244645599266
  2804   1      48.377880034426482      35.196253816220391      39.470925911822256
  2805   1      49.140030799304739      19.588270297955493       21.33433954259791
  2806   1      42.170966642810185      30.844019345999648      14.331906452092111
  2807   1      36.172685651873287      37.111478420751276    -0.74722206860278206
  2808   1      19.401837408818732      28.126644891811022      5.1970862001382896
  2809   1      27.454554542274021        2.05702469600168      13.488960858097499
  2810   1      40.936926734460734        22.2249202171717      17.147887607709066
  2811   1      14.205840215149536      12.014269522772294      1.1697070633390225
  2812   1      34.617027536342171      30.178817483031601      13.516774483590195
  2813   1       17.03852814112075       10.77640433241468      23.326466169847489
  2814   1      36.206307549729019      26.722794662966432      7.1142871537283181
  2815   1      24.299655250685674      41.449892202790238      19.876427774660719
  2816   1      31.872585307645615       38.28394348125736      17.423581627929007
  2817   1       29.17903848730451      6.7857381307145337      41.562495409480938
  2818   1      27.687133787179274      40.347899151141924        44.2179242122616
  2819   1      16.611834314321818      40.108999204244377      51.001213015051363
  2820   1      44.960669181369788      44.600132173986232      14.671314606993736
  2821   1      12.712812318376834      26.625003801775915      21.679560427096582
  2822   1      48.499802287906988    -0.99184158419678303      32.711668563186016
  2823   1      13.069417266062141      32.651562327939111      15.702220595819428
  2824   1      24.811791496963497       22.34054601622347      37.368727327144605
  2825   1      13.773732999805727      12.637333493012708      12.590587803759654
  2826   1      3.7423290308622366       2.716041141580043       12.26867980539541
  2827   1      7.3906444631557955      31.560912973019061      25.435561207869043
  2828   1      36.133626137543168      13.120456121360387      20.328300703350127
  2829   1      19.602859166954683      12.024668846826572      3.7452187059187723
  2830   1      0.3708903958774587      26.298900113899524      38.571725939343281
  2831   1      14.832146267818253      13.991669644047741      31.459196999503771
  2832   1      24.640625856369525       18.69794036558633      36.803170572250984
  2833   1      4.5872460314484664      24.821756890647656      17.024862873326743
  2834   1      32.499868209293062      35.298236296043136      51.613711504809217
  2835   1      18.366459962753542      7.8787083465921377      42.163550955994815
  2836   1      26.581617235101394      17.244440043522758      27.393228490791962
  2837   1      21.179802341250042      17.562288510988367      6.5056400651808239
  2838   1      5.0487226700753913      8.8515220371107119      22.861529635736712
  2839   1      6.6626902723675689       15.37190037877577      1.3920656618791794
  2840   1      23.416962534813255      12.952300365957646       40.69287531027927
  2841   1       11.76720349798911      26.503807277050534      25.976340384066109
  2842   1      8.1531116859030508       36.34417915821453       1.879693077956363
  2843   1      12.220425889927807      33.685133050101804      2.4615227805027744
  2844   1      22.736183729472138      6.3474246158891718      21.714536814182715
  2845   1      49.624099841041286      35.615781349181511      1.4897455602554086
  2846   1      40.601737551430446      48.192441813541684      39.938044888395794
  2847   1       12.13140965768398      25.282868097183364      39.435734647691824
  2848   1      1.5887465540517627      19.965987995773364      46.537861494036171
  2849   1      25.608876464613044      12.321182321326361      44.439126177496675
  2850   1      5.4539228181322823      9.8209182104077399      26.040753185026997
  2851   1      48.789508596068572      33.316892900791245      44.607413042659175
  2852   1      27.152627963533412      19.349686387302903      8.1736665994305877
  2853   1      46.467963566763615      4.9617892033093129      8.2690017000716125
  2854   1      22.630283065183715      31.061807222252682      28.298837048408043
  2855   1      43.132796432931485     0.14425072401678266      30.421657989622254
  2856   1        8.56670828762803      45.431653103274733      12.387677037881847
  2857   1      12.098844865767543       41.69032786743589      3.6975475157928397
  2858   1      29.048479676212768      41.302199774539851      26.719419402288494
  2859   1      30.400275977739145      43.886168929490324      32.846379497921994
  2860   1      36.384594089195566      16.331539337372412      32.242068921890763
  2861   1      29.504365363233724      35.201476508073313      18.881037759219502
  2862   1      10.008455795571036      22.592021694205798      7.9762156916083695
  2863   1      31.471102294943812      33.886909461562901      42.827309847439331
  2864   1       34.41437211989966      2.2913093791348267      21.487055813338351
  2865   1      40.177154452264553      21.939582537690459      38.451335962627809
  2866   1      33.573009460832644      3.7500988728195663      3.4697114445882158
  2867   1      14.227728506479812      2.7259484902715987      10.453540767958414
  2868   1      44.938410617668794      23.322128637470801      27.915400931516665
  2869   1      38.123356125022752      27.513831942609873      44.054895713290378
  2870   1      2.4931689268264834      41.092015208691869      11.383174753583646
  2871   1      5.8550833196674654      37.420403844133155      3.7986413390568261
  2872   1      10.005351824769264      17.672172716192023      43.061910154413383
  2873   1      22.584118049916437      33.857434159293128      1.8816363531966867
  2874   1      7.8959147307871866      5.4749667434308726      45.154613868844173
  2875   1      37.067183757638752      46.354766167340351      11.867186053278926
  2876   1      14.074884924407872    -0.14253845860996989      21.392852247178816
  2877   1      11.992461536748673      8.8327309080723513      25.394344379668638
  2878   1      39.110827108592538      29.131646052932322      18.604393518512342
  2879   1      40.534599605410392      4.8491427634201045      17.726688025579858
  2880   1      18.483268775327097       26.41592070453704      2.4378266175714285
  2881   1      33.407917107608434      45.862387189424958      15.130486380819642
  2882   1   -0.030699705423337265      1.6768159257148119      5.5939021510547819
  2883   1      38.187965369111325       27.94131586000676      40.696565077656729
  2884   1      37.955994326287367    -0.14954330249755821      9.5616649713358193
  2885   1      28.536960623301095      33.813779060153109       5.623412224260302
  2886   1      14.618641900564372      12.547038226532926      39.956353297382286
  2887   1      35.166489861218786      22.288026076971551       25.96602621958381
  2888   1      28.318465301737504      9.3042590233931648      26.007990537163039
  2889   1     0.21650253205930925      35.191912877514987      9.1985344161403422
  2890   1       1.613478123464587      17.783704276830182      4.5004861787267201
  2891   1        14.7161570173578      27.234382232233326      2.2923339131850473
  2892   1      33.217493819415722      34.232182413704784       45.86495055231871
  2893   1      30.664257795170009        38.9884518553202      30.558505950933863
  2894   1       43.62862134292665      22.350474877982037       21.89202892511905
  2895   1      21.507110673523446      19.136343356774216      38.333108280538077
  2896   1      26.462858434761905      25.994155780890161      24.618731988498201
  2897   1      14.846005552324547     0.82356623552163855      24.554973122163066
  2898   1      24.918657359320619       36.89652432341007      44.059679921912476
  2899   1      11.805254594128767      15.584117645077029      7.9830293817232807
  2900   1      37.353570397976199      21.242300084516188      36.588881846478074
  2901   1      9.9320434399548692      2.2644392423123292      19.745972678108295
  2902   1      4.0195919482430211      14.641521909104556       39.18967081562775
  2903   1       1.467444900732596      43.392397839791109      39.045417661373897
  2904   1      19.047184621310876      28.360179949595096       36.58637212974854
  2905   1     0.76907327914890722      41.039055904475582      2.1471891955603626
  2906   1      45.415831197597178      14.828219236264149      4.4356572374668568
  2907   1      38.365650474128898      26.624673321152596      12.584953294668328
  2908   1      17.731715329381611      9.4692155374352183      4.7752222828916953
  2909   1      42.804228973627289       43.17369553631611      25.296864987122515
  2910   1      35.699549303696429      6.0079346616099354      13.227266324335529
  2911   1      32.267803780028615     0.93972118084476453       7.849371760843268
  2912   1      16.397822300455854      9.4233290623508132      1.5861823251934783
  2913   1      5.0736771559161378      40.693355500406788      17.145537938071726
  2914   1      24.534110263699329      43.425122388387052      46.446838927383475
  2915   1      11.627710693977603       41.13713249953566      33.973435447527386
  2916   1      43.002489191820715      18.410537827511103      45.866311881043018
  2917   1      25.377938281546374      7.0954451690575047      34.958709685572913
  2918   1       43.68863175437172      16.553074367184475      19.626572778326189
  2919   1       35.09664471612998     -1.4814968342202919      27.966118380632818
  2920   1      33.997552013831807      17.441179559692696      26.407525741876945
  2921   1      3.2017224734602774      11.486333952144715      15.428946714491394
  2922   1      48.390408457628695      25.691874800741939       6.893747275020754
  2923   1       38.79595679154464      47.222416713733615      30.766209436657448
  2924   1      6.4025282042792693      18.426467917551413      34.609016715398376
  2925   1      29.608902840277175      4.4332495534908354      14.176333664990889
  2926   1      49.476234670088928      41.227873392500157      44.874172619780545
  2927   1   -0.034447180738408446      13.304125482788523       14.08363426864241
  2928   1      10.423761624562569      21.463783781183281      2.3307569109859401
  2929   1     0.39545565419498468      25.886796504718294      42.754833230267394
  2930   1      46.957631184057163      20.537040679281326       34.11276176075738
  2931   1      11.295940061028491      8.3762410063806954      18.113695975892526
  2932   1       47.97122919714058      43.951471573850228      13.572028152720975
  2933   1      20.067069778586649       37.73629792100472      42.870643463268514
  2934   1      4.8172936207254331      35.222874899049515        35.9691193662592
  2935   1      1.1391296969780904      41.587438390590854      35.299652881592948
  2936   1      19.979293129354811      3.9097818443986774      26.537999415621783
  2937   1      33.936339782250542      31.931179665712992      37.050204090503996
  2938   1      21.310088073917342      43.796904994744729      3.6043298328992184
  2939   1      22.240670822179048      9.1367329133344057      8.8782689153324963
  2940   1      49.622636172600075      6.3597383906914935      23.292608853182735
  2941   1      21.746420315068349      3.9454945021272079      9.8337653664849167
  2942   1      21.070336287598895      17.004116328018721      41.772113212577779
  2943   1       7.484014634760273      14.352501217603674      33.058615706369736
  2944   1      30.310475402169466      31.597994092506781     0.66034496938022325
  2945   1      34.373999834875782      15.817918370583804      18.648547262902131
  2946   1      4.6041967783132227      46.811160852180251      12.081829889133649
  2947   1      6.3858497750073511      45.241572089288198      23.616832874945821
  2948   1      11.394100123604428      25.661040036100069      29.640218934385558
  2949   1      4.1977421375503416      44.831319221207607      32.991231893649029
  2950   1      29.053687430610683      6.7803721586134831      5.4937756854207942
  2951   1      10.784645452324261      29.737978146318575      50.009969526253379
  2952   1       35.38956257993852      28.435137951701595      42.375462908519303
  2953   1    -0.27022248664060278      15.564001193437592      8.6181250040313113
  2954   1      7.2850984029434329      33.643231154124031      41.350158600635901
  2955   1      11.252986009091726      46.550291995924361       24.58366326400801
  2956   1      27.577745739262387      32.503446063013484      24.190720625716885
  2957   1      16.059478969510113      17.914896951461227      5.3478596487287327
  2958   1       15.43985114030397      32.641233192033603      29.233742231295004
  2959   1       6.032399157056668      9.4805932992591764      46.140536142002013
  2960   1      22.161591274064858      23.217527716076098      31.567488854018041
  2961   1      22.176887825465606      46.370292146690204      8.2094337356429428
  2962   1      30.464166860621752      38.420789112579357       45.01071693246633
  2963   1      33.641916109272643      21.984101946656271      18.315592615854179
  2964   1      20.100484089500682       26.88362202927053       47.31119020756411
  2965   1      5.0155591782864457      31.696662212682803      38.893515487165821
  2966   1      12.709361994285352      3.2093184369952148      32.424653453465098
  2967   1      35.844107828825088      47.105250749536268      42.365588651961517
  2968   1      31.743068453528426       25.92186884480623      1.2336037160712323
  2969   1      10.701872778182592      1.6869272669927546      2.4278001236628874
  2970   1      6.9284138669774862      30.779194014772106      12.187304272612788
  2971   1      47.770661565371697      12.276742007536171      21.267345089487002
  2972   1      43.878970163429997      44.819386699477754      33.356333411345027
  2973   1      40.416724622099963      27.798670060471917      15.053470488495906
  2974   1      3.3251046574269161      26.922320746875993      43.222867659393863
  2975   1      42.715135499123086      7.5565241372163046      38.366641522861777
  2976   1      43.911592762339986      20.841254601863017      3.7230588649115472
  2977   1      48.659391889752492      33.051040038534985     -0.2599771487077176
  2978   1      42.331903049508838      44.444825851845614      2.2604315322876189
  2979   1      42.943795423061843      9.5858349896856119      35.618103976802715
  2980   1      25.056508290078323      46.536582916146152      33.103186000650858
  2981   1      10.608050471736503      38.098833475778036      24.141033612171533
  2982   1      42.845998123210492      8.4779569559551859      3.4677542793976701
  2983   1      23.550571215033877    0.028196382202316635      35.325034618237659
  2984   1      28.500246810993428      20.979114615976524      22.002910518738286
  2985   1      35.985309878434279      25.000518811566344      28.353446263889026
  2986   1      13.596790717296315      4.4329401660644896      20.079426785919484
  2987   1      9.4587984716766957      44.361444968507797      47.127497353743586
  2988   1      45.169634681870768      36.243132415327665      19.560408529721801
  2989   1      30.465564527156818      14.004701071639644      8.7289512464572923
  2990   1      34.205155607571349      29.905425484395497      7.8070330428078911
  2991   1      15.857492558816162      4.0747574770185109       45.93662106937547
  2992   1      2.8655430643606916      47.893811472708336      6.4738204518819575
  2993   1      30.028185908311791       31.30422611472882      20.725902243819267
  2994   1      20.260661060649472      6.9467452820652991      25.094971773491363
  2995   1      49.515585637084357      12.121296359623731      1.2146987204203299
  2996   1      47.388134697618618      16.558939728270339      30.622129275861987
  2997   1      41.817241576192352      11.145450815284565      32.660024605703704
  2998   1      39.831244193153893      7.7210710985169877      31.538307940879818
  2999   1      44.162273073202286      40.949746055239558      40.810953350988463
  3000   1      31.705021210825954      37.539017875137304      23.942815535970826
  3001   1      1.2765490625873022      43.652000970940897      42.435347671258576
  3002   1      34.088301794159676      17.860260101650454      7.7103020211738622
  3003   1      24.988231262910375      41.686545045071021      6.0534233782286524
  3004   1      13.808010845175263      25.796095438726397      43.131880701537227
  3005   1      36.889641400161956      29.088891764556408      15.747956488532273
  3006   1      16.494624535861838      26.573268919592881      7.3173340986789723
  3007   1      6.8904241502808095      20.472668743382858      20.401947235261467
  3008   1      36.974932382333186      32.539161533049608      11.951979123471215
  3009   1      15.087283428438727      4.5897897958116518      30.483081640102313
  3010   1      31.917852429788301      46.597397349671361      48.044318379427601
  3011   1      38.904589935437819      35.028045022421352      12.459714072543493
  3012   1      24.582746772793609      41.025087866961996      49.557335109489294
  3013   1      37.466631354994298       21.36003499373615      48.305430742969897
  3014   1      46.644637446846822      5.3307068803791013       37.39122324035344
  3015   1      33.706905612612722      12.029062472584057      26.189991658966004
  3016   1       35.16072726469416      27.457405340008044      21.100755696455785
  3017   1      38.602722871346849      30.259210890673323      36.412005844116493
  3018   1       30.51607741924224      32.342301456778067        45.9304110599466
  3019   1      40.525275064958571      1.8587914960545953      24.153431318869647
  3020   1      16.278311012530295      11.943893499527421      19.289978944016646
  3021   1      29.801802110162338      27.430919070820863      12.284899647060355
  3022   1      26.772454707483622      40.655199950044256      10.077423970434486
  3023   1      7.2460146596330768      46.605570229958168      37.035818876508465
  3024   1       44.98512501233138      48.014908535596817      6.9175126766777852
  3025   1      9.8184224545562362      10.760927383776087      20.683716866980308
  3026   1      20.461203501995737      28.913842105857562      21.973365139569676
  3027   1      33.455918691684261      17.478671204022483      31.345066094873726
  3028   1      32.782207466145699      14.485619185385906      28.341721001136509
  3029   1      10.967171740382005      13.938322743614139      21.962480962053245
  3030   1      31.627974359489144      5.5277235664866398      23.004661094646718
  3031   1      37.737139186351421      11.049271044262504       32.35588173458963
  3032   1      10.218718475019806    -0.48323185017146064      21.566756497721716
  3033   1      30.316575519279088      5.8880799622233129      31.783870767566263
  3034   1      21.161739780761746      38.143345640851507      25.123388887929064
  3035   1      24.330717153913984      18.837855704036173      18.182163490146841
  3036   1      12.172466993605697      32.716817349928057      46.367496151657548
  3037   1      5.0438496802176962      19.280964121286267       39.65932142686416
  3038   1      43.083937748204789      7.8333834535627425     0.11455945678737706
  3039   1      42.027646473673968       26.07922926162118      39.761692632347604
  3040   1      39.093330107476483      45.912584927200598      33.891670280653159
  3041   1      11.858494212827095      7.9433429883266014      6.7147429027825529
  3042   1      36.281125499275106      44.243808008426008      16.607239039094317
  3043   1      41.246335208433393      17.889541611009474      32.059691437108079
  3044   1       26.18215328098437      42.251564272762231      37.731827715002296
  3045   1      31.596511164555707      12.453662220107692      4.0638988175283792
  3046   1      43.527347419676133      3.3051201427521675      16.720161249780922
  3047   1      22.388759435975707      6.9054222285986393      13.010877945368769
  3048   1      39.673681639377413       43.11072764125435      22.242466457019429
  3049   1      9.6857026792444358      26.159732996074791    -0.21305847700508501
  3050   1      34.354050016789373       20.62300333333566      45.717327388716704
  3051   1      21.532720388114523      6.7792068698878261      28.180217854344836
  3052   1      46.134923859975935      7.7866360116616953      27.305571402149372
  3053   1        27.8855312357651      20.584348139172068      36.653770076178844
  3054   1      11.143005059438183      10.126146913361008      34.500622867745527
  3055   1      16.406358094945197      14.601223771741914      12.158958817282612
  3056   1      12.350678572604679      6.8610708852037572      31.881622357959298
  3057   1       1.137095578957307      44.510524612603923    -0.10741797513860385
  3058   1      20.433435359226714      1.6992729983893151      35.583157325388548
  3059   1      24.060407014481552      21.036273984848663      29.722762318769096
  3060   1      20.347741080048568      4.5117911302397085      42.523106494738478
  3061   1      38.358743109202969      22.392587053242565      11.218973809744679
  3062   1       10.75002546002654      12.418418458342151      36.914183601633468
  3063   1      35.267859049660949      15.881979627158758      21.879919425132289
  3064   1       0.344518085106084     0.22908145758489662      14.886248736549943
  3065   1      37.412324451735778      48.315857642902621      35.920783838846255
  3066   1      8.4241153662113248      32.626378396905722      1.8602091116483295
  3067   1      18.373500970965605      46.334953602649009      13.729244843169944
  3068   1      14.848493647798266      17.584957722729609      12.080052605414274
  3069   1      48.687330424138459      5.8141830907125396      26.507397057357377
  3070   1      15.227479724791873      1.1707236645712429     0.74798942752937381
  3071   1       38.28069314337656      36.033197289066642      3.2703945343420662
  3072   1      41.796423788570891      48.711512011016119      10.817778705188294
  3073   1      44.991668710476141       17.40114879482643       24.89241881119063
  3074   1      28.690262818364921       10.51990451436874      21.404321909031996
  3075   1      8.2937396796605061      37.938617263107098      11.429537195842892
  3076   1      35.992400963334163      16.494507803108011      37.947468971707131
  3077   1      10.128122167550108      8.9811938378418628      10.828358126201026
  3078   1      11.555854719194244      24.897986835168091      32.856774791387728
  3079   1      38.317406815356335      1.5787966751076559      20.211248990656024
  3080   1      13.142778165672441      24.990579298375398      15.349742515779983
  3081   1      25.928015692964472      4.7265394173384729      40.033038699844475
  3082   1      10.923935847426836      41.233803872907401      29.814183401177996
  3083   1      8.5170114926529337       45.88311210863462      18.777123980574192
  3084   1      6.7269392202985312      11.761441404465694      21.767170370482582
  3085   1      35.703533587331727      2.3322703918938892      24.540595841604677
  3086   1      17.609890527702611      42.650947585845671      8.2706582004716509
  3087   1      37.010088678653965      34.538559713156914      25.460347539866031
  3088   1      1.3736201173340741      1.7704456664049013      41.329960332959097
  3089   1       30.47210595300637      9.3962480522679854      48.127094480129351
  3090   1      31.753830473651846      33.959473442711513      35.586997378264627
  3091   1      30.371810079312031      15.446172909703279      12.562183946308584
  3092   1      30.840097807304556      48.576382154283678      41.791208163625825
  3093   1      25.138367311914394      25.690485107671787      29.639330791483516
  3094   1        36.5743656901425      42.258853335033592      40.382391024460233
  3095   1       36.21187456338388      45.798604328125244      32.362738990934616
  3096   1      17.232241321046398      42.165159007509786      21.909450712665972
  3097   1      36.840292815367484       34.28044305435732      17.959731835110052
  3098   1      23.837514552818153      5.5263695832956001      8.1533636434680119
  3099   1      5.4823231399423173      43.194835259957721      15.122438240524087
  3100   1      27.972591008645342       34.42797766210149      15.398478612529615
  3101   1      3.1357524049857433      36.150033937115488      21.640755080481171
  3102   1      37.464800990365738      15.138236132410903      17.855012285668209
  3103   1      38.534846850959624      21.772368930533791      5.9260586053932522
  3104   1      42.611045653189592      31.814782645401301      6.8410629023122711
  3105   1      45.658166476831155      15.416309205487982      11.169450304959502
  3106   1     0.28329701917189909      8.9522929412239165     0.28341943252204438
  3107   1      7.1416862257685905      2.1600648243404112      3.8090985138614468
  3108   1      44.156309661788029      41.302395187582498      14.512378096356109
  3109   1      47.237640939860576     0.57571662068700169      50.938296384109741
  3110   1      34.830688748061938      26.903721481354516      14.468996387954979
  3111   1      23.299325576454557      29.368358156738591      33.307038636045036
  3112   1      9.8829004295187008      12.597227070602745       3.350213945616622
  3113   1      12.434370050992127      24.292896798150029      10.812623429911104
  3114   1      38.710217376091798      11.094039867753178      6.7150863542310812
  3115   1      6.7230156207254668      42.752601706267448       11.76419763497695
  3116   1      7.2465700195031513      48.851841566794164       20.05921177932699
  3117   1      27.534726709450087      39.301943685043533      5.0719068727779621
  3118   1      11.872220859372529      20.156495756404354        43.8073021509786
  3119   1      28.520991078296085      12.373923399439764      16.788159629736057
  3120   1      15.426515314312415        46.3045385682654      1.9355823955864135
  3121   1      3.0637244166544613       18.64821439557123     0.98946176685400256
  3122   1      14.082325391393287     0.47888976264466926      35.569945093338674
  3123   1      32.793200051041154      6.9888228372710239      3.7662009208389091
  3124   1      46.485707893615746      12.788796101509259      40.890022531347896
  3125   1      46.903301942283207      18.231237869094027      47.652009861575941
  3126   1      22.028399714882156      31.371202286228112      24.019003855219641
  3127   1      47.331439570309861      27.173612792918767      3.3192364959045046
  3128   1      14.790397492844006      21.601886883862907      16.931412065371749
  3129   1      4.4013905474457617      49.180708371429368       14.51749226611579
  3130   1      36.999922706462954       13.94993818380579      40.813907820155862
  3131   1      24.916937788247044      27.831502230613587      15.870331328242063
  3132   1      13.321646178572477      10.624979728321929      47.093446500222356
  3133   1      9.1841845089220051      5.3425454411206346      31.796734836285054
  3134   1      8.4284069421424519      7.5955236327492059      29.353680084921521
  3135   1      37.922867922080968      38.939561951024388      13.200966955030745
  3136   1      17.203498562012879      18.724241017885902      10.199549313838251
  3137   1       9.587270839658208      19.092172807280043      6.2345557769260962
  3138   1      4.1000283843958361      20.434342084238349      23.673655071935293
  3139   1      48.968460743530095      46.035887791967987      16.403523424254828
  3140   1       17.44486092087498      3.2623310760316491       41.46760079675748
  3141   1      47.397015568885244      5.5623179122660726      21.029307841249381
  3142   1      7.0056170344387176      43.682780354213044      6.3360478902586888
  3143   1      8.0034660629232626      25.644201308237218       24.95436091898716
  3144   1      32.071827250523469      28.093507522745732      3.6538217352777078
  3145   1      35.595773330297433      43.252571980865973      35.809547911858125
  3146   1      40.413747866676466      14.184791545555582       32.56954225992984
  3147   1       10.06631316025293      2.5545757890429024      23.193136775780101
  3148   1      8.7754479859250321      11.576266568357291       27.32279660809926
  3149   1      2.5199608099304247      19.392666649094068      16.271220766094068
  3150   1      14.197587241182552      31.913600178508098      18.632031618906918
  3151   1      23.110540785554459       37.13091904974096      2.2558157573126261
  3152   1      14.936155064038214      5.8037248306683491      2.7745603130469245
  3153   1      13.176366916451821      29.627549153039382      4.0708315410883564
  3154   1      41.273468724621729      38.820473306096879      4.2245694641030287
  3155   1      27.726133265617996      46.464902000560961       4.750354270646171
  3156   1      13.773826316040365      30.953433891626489       38.92907451972512
  3157   1      7.3491042403271374      23.190062733632228      1.0181843872498879
  3158   1      28.036719431271376      48.012936004955712      44.289876469251475
  3159   1      36.390317342623092      40.311386231292147      26.069994335329827
  3160   1      5.0911226362340321      1.8227152013631476      38.629458384163755
  3161   1      34.494154364187992      40.291218798515068      2.3251233772369302
  3162   1       23.35716720911994      36.270027351345355      37.709388205193719
  3163   1      46.856124186418356      42.675485198428753      3.3470326934705139
  3164   1      8.7743851328674776       31.47867940767992      47.412686174488996
  3165   1      28.053393227935057      6.3853123107658369       24.86420189298434
  3166   1      26.857988081499535      3.5890405466330879      44.818516756186774
  3167   1     0.31972098239702001      13.154609055367075      43.611561693157817
  3168   1      31.187587647807366      2.9744154114905026      30.117163102804628
  3169   1      9.5248324560066777      4.0806187122384294      39.249015689241055
  3170   1      20.430975554714546      23.081926187763962      44.447799827083323
  3171   1      16.688631953305773       34.32127480081374       14.93473345494486
  3172   1      33.538527220362383      19.032281134907095      39.868863645866071
  3173   1      43.158949311770257      29.129897521254609      23.758066051998721
  3174   1      13.126758561452188      18.436893937333807      30.960155160593651
  3175   1      12.313823090833493      31.618404789621174      9.2293696568007704
  3176   1      17.290027816123249      40.628382913523417      25.583241533446177
  3177   1      33.834193102755499      34.142747754653094       6.681253410812503
  3178   1      28.025053312286726      15.902712618778796      17.189861221715184
  3179   1      34.745043513036713      7.4944292546326956       44.56573971084461
  3180   1      27.092721121304635      33.630553491696674     0.91202577567801157
  3181   1      24.657660851300676      11.918869348006888      23.550254496207895
  3182   1      45.367880652586614      8.7819003585380031      39.671622467088199
  3183   1      18.576026638817773      34.295038540825395      20.800095044603609
  3184   1      22.191777398074638      24.509933254492623     0.55282378428262935
  3185   1      40.660973626385399      6.4954850976083982      35.212278284656541
  3186   1       39.73382066556011      18.936937345792806      37.487350784612623
  3187   1      46.067135652817882      4.7780459332513585      28.500386337688447
  3188   1       43.62314428722037      17.189302219782157       29.61713702436894
  3189   1      40.817704765400492      29.329154195760882      21.282638470529129
  3190   1      38.175633032143061      46.857264673714567      19.328233909367434
  3191   1      15.797426107861771      6.9346777135421114      21.019762105332905
  3192   1      19.314800936199585      34.704740711946158      2.1254531906190683
  3193   1       25.25375219473429      46.083711118540201      44.557182506557858
  3194   1      4.2027178031126731      45.435344586436635      39.230310266622787
  3195   1      26.048855515810921      38.391096608256163      34.885264522258964
  3196   1       17.72338757650693      7.0942574527272138      36.816145373191546
  3197   1      17.915181422719321      38.085790989204654       28.93477647746478
  3198   1      23.840237975989023      14.883240522135633      36.440918894408071
  3199   1     0.58885724258721073      25.256935593035355      32.899630349076027
  3200   1      6.2264966350934374      15.631711258764193      12.015620227875921
  3201   1       31.13743602339396      24.136307472805459      24.937784272860952
  3202   1      22.515757667980441      36.293051239209269      40.780338367982075
  3203   1      4.4682957978983211      25.109969595491261      20.457873657856407
  3204   1       18.72014573416461      18.998774125708092      40.319903293958021
  3205   1      1.8897472900231498      9.7869584566760341      43.625818372948544
  3206   1      26.204552019649398      30.805825568599271      17.596699294265004
  3207   1      35.063840752128314      17.969078117596869      15.621409871878951
  3208   1      3.2601555486868738      5.2874369456166654       16.85452541906762
  3209   1      30.277823510310284      23.595475947246364      39.699000077252634
  3210   1      45.970311679203057      10.290687542069287      30.208283854431457
  3211   1      27.188367257459259      14.196358298444588      13.183101020729682
  3212   1      27.602395569540494      18.080325563706317      39.935877750947952
  3213   1      5.7920916295932834      48.285491932249549       32.58296712182176
  3214   1      26.455251110207609      8.0645535114553546      16.918392620952584
  3215   1      40.788367171165447      3.5420025000370767      32.778464294622289
  3216   1    -0.13451345172742352      8.7164126075486994      4.3524379203009875
  3217   1      7.2451051779282221       26.27501517620717      42.542477690840627
  3218   1      7.1282151048658662      7.1872111897296858     0.66887548968112653
  3219   1      34.846658120089096      42.983641462081174      43.662234564720137
  3220   1      3.8533959547433283      19.462792877016856      19.894363504309325
  3221   1      45.192496457718512      21.032872082997351      8.7479949098983365
  3222   1      8.1440587432627485      21.439627858962709      36.613716471131298
  3223   1       50.81187105064128      44.113294484076626      30.052260707450092
  3224   1       23.42588065048783      34.276706156114194      12.001334084047986
  3225   1      0.4163764707374934      23.944634774790444      45.530032163961778
  3226   1      16.178982244852236      35.332129162818937      32.494311219520277
  3227   1    -0.59454201917357186      11.239683685085724      10.769701071989493
  3228   1      40.897646846323731      15.498938004472667      44.485670141352465
  3229   1      13.976808719564492      2.1598509672024457      52.516558669780792
  3230   1      12.162387268993351      40.690711684616588      18.064405576542292
  3231   1      31.161981171346522      34.191137886642338      8.5939586071236498
  3232   1      3.6865593818672164      24.783105783709683      45.836149500338912
  3233   1      40.869888769100378      27.812171321939463      30.214035814635682
  3234   1      1.2530904188956247      12.489557696552746      29.098855553210107
  3235   1      11.862786862654879      45.157712444460792      20.354004483368644
  3236   1      44.401217002148343      24.745291953504339      24.289583668729758
  3237   1      15.027758662977487      42.947327329264461      24.614375237616294
  3238   1       13.50675860106665      11.575066615402648      23.632805453790191
  3239   1      14.024284204721759       30.26082461478704     0.88965499264888959
  3240   1      30.941160909841898      16.509501409580928       37.49942984770756
  3241   1      19.877461457392364      21.704409477750559      33.633643816600404
  3242   1      36.786184746738741      38.344442188174732      7.4691104958255661
  3243   1       31.61427592292106       22.77326773584749       4.103782473227926
  3244   1      46.692153492215638      12.558935978102513      8.3333883052582269
  3245   1      11.330390466260779      35.974495765035584      27.870602089186679
  3246   1      45.102368911747725      10.213808338885546      20.814160729054141
  3247   1     0.15504275601799955      8.3299678793178469      18.236189641644732
  3248   1      17.741531956081445      41.859501388532401      13.671288102927427
  3249   1      42.204315094599231      47.696055362443431      43.050648223212598
  3250   1       36.70175436622371      29.658313305837861      5.5826287909928798
  3251   1      33.509748066541384      14.466979461195979      32.567558995596407
  3252   1      15.828651039806934      22.919183594765258      38.124821973922494
  3253   1      3.6911909442823605      1.6187805743819406      24.777980051404402
  3254   1      4.4809482806513179       33.02117509322764      45.256924846041237
  3255   1     -3.4322307708475464      24.199186253404559      2.9050039563504662
  3256   1      18.651407345523133        15.5018350117907      9.8666363120537142
  3257   1      32.377085293592948      5.5021732210476895       42.36451257776362
  3258   1      39.279378350629415       31.95160357781344      5.4998624861722885
  3259   1      19.565941413435041      7.4401859948953195      10.914017667987704
  3260   1      37.973231642823826      29.816665352031688      32.725528356396012
  3261   1      10.140389285477461      29.811814001310811      34.538115757110873
  3262   1      3.1024700934332796      8.0044088090079963      33.717678648837676
  3263   1      32.435083076189677      36.542264793398203      10.686173718397496
  3264   1      18.538431385771005      8.1164006303037652      27.803678143852601
  3265   1      3.0465361946272203      34.178901633041939      29.992557384509379
  3266   1      47.607478809020549       22.35375764375625      22.454722101852628
  3267   1       43.84272021469674      32.147775532617729      24.788371412271154
  3268   1      15.555322278298926      17.382500488069443      1.5041305990567151
  3269   1      49.069142688511505       11.02531872974938      31.793172488320238
  3270   1      47.004232835375852    -0.28651237399032298      23.470226230280854
  3271   1      2.0223739745066411      2.5247103826943835      17.058708965985701
  3272   1      25.619617492672813      4.7554116494475638      21.779210353450136
  3273   1      20.568950227311806      20.610214141877005      29.070901871879713
  3274   1      36.208603705128354       20.05412471239304      11.932063486450234
  3275   1      7.9819545928227154      37.754357361267992      22.269639186769577
  3276   1       42.82653231821994      13.336116590926858      19.604033801657675
  3277   1      18.781826083378011      42.950010284674121      31.732872714493741
  3278   1      50.438168430787925      38.058836713223158      9.9988892397270863
  3279   1      20.571201941414273      20.621432038661325      16.215797388878119
  3280   1      43.780307694561301      45.034379012113391      36.864891211465078
  3281   1      35.571625318925328     -2.0764185411732812      8.5259551747142677
  3282   1      15.886694029086907      17.051078189616685      30.081746524036248
  3283   1      6.8667238057537698      30.556659480349428       34.45781305820627
  3284   1      24.089698693292753      32.516991725679439      35.595142646781539
  3285   1      14.548146657811486      34.194215085255536      21.084755093058302
  3286   1      22.965876314297105      18.783918191651523      1.3138308337273723
  3287   1       46.87348020270619      38.623135750008608      7.3548512629025202
  3288   1      16.483521352886648      8.7887987775410235      8.0590586098589121
  3289   1      44.643941421736344      38.290453348856367      22.088433055822726
  3290   1      29.392576409305441      19.120372810357843      2.7856062805419644
  3291   1      15.881807235468781      45.205068647114324      15.547186310681335
  3292   1      47.343343911875216     0.96376873599801538      47.880534452577237
  3293   1      41.918770355756266      10.574529217753089      27.927432751250223
  3294   1      46.442536079672784      40.544707057146731      20.201972612299684
  3295   1        18.5372371547124      20.639871729633846      37.416578527782463
  3296   1      1.1964518648571529      7.0692932595755327      31.179280102076323
  3297   1      22.212874078332899      40.524304717479865      9.2883525833813589
  3298   1      24.870278989537983      28.669248087912706      1.5826426683404564
  3299   1      21.319290645761136      25.041433443358784      14.676620275513947
  3300   1       12.65798581429266      11.771842010916385      27.208863500333084
  3301   1      30.721401538651065      12.568388571912418      40.097776664796548
  3302   1      34.228719664581071      9.3144063853980548      32.858228556960242
  3303   1       14.81655455855234      33.773181868960904  -0.0056913788145274416
  3304   1      16.435962533966507      6.9358600621501978      12.241367128887621
  3305   1      46.741130340828818      48.032065653608761      12.892570603241124
  3306   1      20.081617834616775      37.204159955324599      18.951468396593356
  3307   1       22.03070908030935      21.814826922076477      3.2531993767061027
  3308   1      6.7557744559330022      29.010477192926384      31.495937104213006
  3309   1       38.02589645295842      8.4639013160780419      35.718489961237481
  3310   1      12.556067924961104     0.65860472841154682      30.429968827823064
  3311   1      40.914058094660071      25.603489684301024      33.294058859618417
  3312   1      24.615675561189757     0.20730464392187342      15.895026346235943
  3313   1      5.6267834293814269      45.435122755672211      8.8641301845947158
  3314   1      37.696699975914328      1.2573427720247825      16.818466529816742
  3315   1      36.795290445833992      37.124705723940977      36.058421321317262
  3316   1      16.061090687214591       30.98766456060364      6.2861213241144123
  3317   1      7.4556389042185733      14.762255352783511       45.73795434014432
  3318   1      47.083416109996719       43.34142748387498       46.19531584184184
  3319   1      45.118451004563134      42.472136661313058      17.807086820544036
  3320   1      32.691184730164444      34.190494249423722      24.679366047510179
  3321   1      18.580496990022034      23.404074483989476      15.603469948927085
  3322   1      11.467099472190617      10.683472291857337      14.039055940484005
  3323   1      34.927133588842231      39.206672811481702       33.58329305976747
  3324   1      15.734754662414682      18.096452365429204      25.192281686651015
  3325   1      34.995649569164044      33.246547278585979      14.748063442803344
  3326   1      37.524428039247439      32.203901870092608      39.998763782135867
  3327   1      27.655865709023963      16.608856160935769      10.172033177322719
  3328   1      32.043301802228648      38.474015042666863      27.565767928898989
  3329   1      42.962104547776235       20.17403211192315      28.304921936272763
  3330   1      21.341571201770652      41.531426235180355      22.739524278830629
  3331   1      45.276800518001195      12.323367611033333      43.848776988046296
  3332   1      21.032526484191358      47.954070057994059      16.080909733515515
  3333   1      17.881369001260442       46.31467498232864      27.067892103681739
  3334   1      13.218071237651486      8.7510398136850824      1.0834207688081807
  3335   1      25.473622386806358       29.23298141538621      24.596030881118082
  3336   1      23.325096498256215      25.276473220202014      25.626862748920519
  3337   1      35.605016313772147      13.202827742398233      12.471185504441596
  3338   1      22.392692049014272      22.200224034054319      19.762748839691294
  3339   1      8.7725222949578949      20.626878840055063      42.692306904980875
  3340   1      20.990294645764202       12.89964175673895      46.076244985725936
  3341   1      29.444084024320517      3.5279142547974205      42.499227776022728
  3342   1      26.974904237648008      26.404194256750852      2.7570854267365328
  3343   1      6.9761465644740639      11.424007494676792      39.515644054570949
  3344   1      2.9695382536666268      52.636002365352425      27.032040749159481
  3345   1      16.788953567041041      14.230451323273394      2.9693300135777601
  3346   1      3.7186722053172039      25.922197225676811      2.4599297656696306
  3347   1      23.416437588101367       37.04748060782677      27.143290398221481
  3348   1      34.437461752787293      46.872565652590801      4.4002319208001079
  3349   1        21.6733984194397      41.942997216303198      47.643485752436433
  3350   1      31.147625014138132      7.4513755411949507      11.131634070950362
  3351   1      3.8088964448965319      46.909511932503243      18.203713989400644
  3352   1      3.9322749753548756      32.536879620890282      9.2678437065031627
  3353   1      4.1576227069836751      25.717551393370307      24.989783814715548
  3354   1      1.9220239628149023      40.678622006912335      20.727521629998083
  3355   1      32.451960921084002      39.659793977709157      14.204712163010409
  3356   1      29.777007289620165      35.193721435741125      12.356841550725701
  3357   1      17.994765485586356       31.17949698660853      37.954050412768652
  3358   1      33.758856864763125      44.111768145776928      24.818775158079678
  3359   1      5.0350531653872661      19.320500263353903      31.792265683051294
  3360   1      28.912718149308979      38.724037402562402      11.849195263240782
  3361   1      36.789559968838446      43.468564238958777      25.352117526825271
  3362   1      12.685717492473861      42.523670216371343      13.378110515096145
  3363   1      15.299054834100145      7.2249425413386357      41.176089063792638
  3364   1      28.519193025573571      17.366790747199186      34.676144099694518
  3365   1      10.044054911672671      36.889406013492007      46.075717257782429
  3366   1      20.052681988801769      24.138661572139078      5.8555840849244118
  3367   1      16.047493621237987      29.551327145957465      16.720753513528383
  3368   1      13.106724004772703      23.818100205874533      19.512905483878587
  3369   1      42.207721311583278      25.812704612308327      1.7934852920644795
  3370   1      6.1967878479067799      35.576968910283313      20.273438358239137
  3371   1      37.169776439617351      1.5781550462042637      32.555647188403533
  3372   1      28.104614185666879       35.01751810455297      36.589441999655946
  3373   1      31.163396171618203      3.6442624912712236      49.017076594772533
  3374   1      30.507360994325065      13.601447963262935      43.259670470197428
  3375   1      37.230024611321205      10.998728690206415      15.141574676525947
  3376   1      24.057633854706271        1.76988856663019      22.565134133646488
  3377   1      19.977897388879935      42.134234010947473      26.662907343715919
  3378   1      47.493772020508196      3.3034857372872946      44.324251356713333
  3379   1      36.036047247525644      21.782863079827266      39.989693829951584
  3380   1      30.058511798013697      49.035472880378727       32.41322193479462
  3381   1      3.1575334650332119      35.259882627437669      42.776317285271894
  3382   1      47.499981102537404      36.290652516747926      43.733088693934285
  3383   1      31.392132796638876       41.20562450722155      47.627157353887647
  3384   1      44.208456548645032      43.787184299166334      42.317441074331441
  3385   1      29.806287227015019      2.9864845884567393      22.335567905050873
  3386   1      32.657822961122577      13.602310162209047      21.955383554290368
  3387   1       10.79589804342223      28.654618419558744      38.369337340422199
  3388   1      15.950503597999228      21.067961836811843      23.517590911971325
  3389   1      34.382160225954074      11.524995761721415      29.353083651889779
  3390   1      44.202616942475224      30.679749354631859      40.467449522893816
  3391   1      20.088012869688772      34.024623314577376      7.3969339356546664
  3392   1      9.5991857204437796      2.3080311184915296      33.367720772646535
  3393   1      32.710986313292608      42.345817822968741      17.560399030387465
  3394   1      20.275784714955929      42.638862151127533      44.636974270557175
  3395   1      49.263871861199739      34.463618697509709      15.816538678079148
  3396   1      23.081618553107962      35.840012016866581      18.011710592814097
  3397   1      28.233383473853927      9.8765592417849248      40.100791041306067
  3398   1      23.900972497548743      21.572580854750377      5.9799313801166001
  3399   1      41.141296584970789      23.736149159168829      5.0535266404824597
  3400   1      2.4994224300054237      7.5886585506225277      6.5726173085795452
  3401   1       18.06385745855707      26.348550215917157      23.077798735252301
  3402   1      27.089793227872743      29.810940260149639       6.730133873892429
  3403   1      2.4564679472519719      44.228874297927206      12.524808356444844
  3404   1      14.833146824079414      42.172456010183232      31.304091565888456
  3405   1       25.72286770898895      42.642758013304899      29.263194848598189
  3406   1      17.557033095896923      1.0103485577915621       6.410604002376842
  3407   1       9.749517575652396       40.28557112139174      46.041067003092834
  3408   1      22.534816288298803       15.86388925976504      10.049254076520949
  3409   1      28.912398870884189       3.150732567294559       10.49094101744984
  3410   1      24.000205632971461      2.6021210281052336      46.519413982954291
  3411   1      44.358950206517655      7.3942371931697268      30.032230938647135
  3412   1      24.848898922280476      20.659105974875192      43.862629116224419
  3413   1      22.583221141608782      26.083930872971425      37.506477922634126
  3414   1      40.453360045563869      23.541222302892354      28.032323361517282
  3415   1      51.055306806809519      30.549378708256235      2.0403622885501163
  3416   1      22.289541635678599       32.11863522366302      31.713041014495122
  3417   1      41.815714498459307      45.446309179796543      10.267968597432258
  3418   1      18.490605661449983      4.0276691078979532      12.896860599916966
  3419   1      22.507839976018428    -0.42470063340938097      13.221661629914525
  3420   1      35.880074602909446      25.937232240839791      24.048561728175713
  3421   1      20.058485287452704      33.696178434207489      26.986858396527495
  3422   1      36.116213356017028      24.375001763098673       9.938119524279962
  3423   1      1.3763510396340464         45.098373961438      5.1304996645353587
  3424   1      46.429022129048832      24.445611590486148      38.931376885431447
  3425   1       39.70455651130208      16.751029383093652      10.460855193752806
  3426   1      43.902175388975117      20.231942898068585      31.436692294119155
  3427   1      28.146875653800823      9.8307861787696194      8.2888453947094156
  3428   1      16.801862565763642      29.712344663308318      13.315350076555834
  3429   1      31.240460318403148       33.01088880695815      14.692167149189904
  3430   1      4.5831657809396456      4.6211662153804989      49.246741653924005
  3431   1      39.623636704554684      34.101431344874534      44.543490329467225
  3432   1      12.821404808327998       18.68419705399192       41.30008652039934
  3433   1      25.584384317339687      36.271681874818675      24.404406535291884
  3434   1      33.944177446274118      20.491499058780555      29.328255343532682
  3435   1      8.7210782467711976     0.95974713581543436      45.958529331386941
  3436   1      38.524585042341442      34.519398892799309      28.372784787732467
  3437   1      21.547620312060097      18.333034568702999      34.129762963705318
  3438   1      43.126405382935523      23.542325371019352       37.94577788534847
  3439   1      12.833729789902399      27.661538758344879      34.390271022091447
  3440   1      49.945856765057506      34.616688542420427      24.745311170107254
  3441   1      26.990067230400712      2.3113166616322056      19.502146290606053
  3442   1      17.324311131459289      13.993635838273057      40.656515524959602
  3443   1      27.097859074666143      46.246583555255427      14.039501860593582
  3444   1      36.264836415652759      3.6952414089788364      8.1450454199868663
  3445   1      27.196538019983404        12.8607353079947      8.3481182259342521
  3446   1      31.452755515651404      30.313365217008027      43.477337210085075
  3447   1      33.433459936276925      21.985471608828735      23.057040619695989
  3448   1      8.3517054415037801      15.594126418477332      17.180834441319622
  3449   1      31.651882999694994      38.653030342968087       41.87015182519189
  3450   1      17.229133866503354      8.5709273265440533      18.287248451634451
  3451   1      5.8365990099509881      8.4651914760531213       36.37106857158534
  3452   1      35.256345681553626      17.752169314669057       49.19611531231029
  3453   1     0.45872538943662056      9.4639481118721243       28.79714468778193
  3454   1       24.03914699858921      15.867845061636332      3.2246051605647699
  3455   1      23.284107728900572      45.871925768212556     0.46853030373427101
  3456   1      19.405796905629966       28.71040256591132      17.133766668707977
  3457   1      18.184885027369635    -0.22541857716792252      37.707414804151895
  3458   1      10.322183460298699      40.863172970397848      41.402011157693558
  3459   1      26.648563312162629      44.038123817815681      42.071022720645296
  3460   1      33.021597516958998       1.264988785673234      17.850566866547489
  3461   1      27.071848220010068      14.235722858501184      1.1589498907117106
  3462   1      45.054852073102737      43.595135698173074      27.609407921174608
  3463   1      47.118557146401223       23.57009090880161     0.16914693018342375
  3464   1      31.390856454863041      35.151032691560324      21.770768263339676
  3465   1      24.989571325445642      5.8335746274061604      31.575184586617119
  3466   1      3.9719000510210414      44.856991086104124      2.9757923911133726
  3467   1      19.333628516786892      18.093185285289092      26.077339307490917
  3468   1      2.7166037752044256      31.137989419306155      23.191022826953215
  3469   1      47.415344956026701      40.308099007038521      41.347221827870797
  3470   1      5.2252020321227999       17.75659062922589      52.028161131245376
  3471   1      42.450552264599153      35.671533788982693      11.277834646508007
  3472   1      34.071373344173864       13.50987771756691      43.300728511467497
  3473   1      12.046102359898203       21.58381988107914      32.285190607038167
  3474   1      23.685061140197568     -3.3980839854483786      35.872883501636643
  3475   1      21.180873492850392       13.92939632811324      49.317124657951595
  3476   1       42.18738988921131      32.875951038311321      21.508164150965385
  3477   1      24.553750393424444      4.1424618445131962      34.672024688270376
  3478   1      4.3806256931016634      28.837771112273117      17.177608022133889
  3479   1      41.061809243929908      13.977066505872438      47.562023516333596
  3480   1      39.690423644751185      32.243872197571918      26.048257999319013
  3481   1      46.570021545010732      32.792672623332095      18.780248333041502
  3482   1      42.984441493252262      17.821781122879216      5.1169075798587951
  3483   1      30.633619696129543      38.515225188371545      34.468575995120062
  3484   1      48.144598639825524      40.698153271238553      12.524459394396807
  3485   1      36.904405745695875      18.372468517203529      40.637150698199193
  3486   1      9.6744014938426126      21.076052121608331      22.607659808983374
  3487   1      10.922035333499096      34.468676381420764      34.096445442959393
  3488   1       10.61297748324025      17.612883191011289      10.577302062001271
  3489   1      28.850533461647043      46.141510550836408      30.777570504238142
  3490   1      13.496736089452371      46.736141342184276      38.960165983133912
  3491   1      24.840555208155521      15.900478899299827      16.499373355485766
  3492   1      27.843894133335027      19.518591714737951      46.442326117256933
  3493   1      14.107913985141247      25.665889009879574        46.9854970498195
  3494   1      42.096273325176831      33.748578350800258      30.058877959296666
  3495   1       27.67940676239969      48.319672609480321      17.475350539063893
  3496   1      23.790019178314012      43.793570252746314      9.3683713458108855
  3497   1      36.564288518049587       36.09611336821272      44.179492191688482
  3498   1       5.351566832725652      13.770839247620719       30.47279942818659
  3499   1      26.942275563295624      13.578910204922526      41.035997714096148
  3500   1      25.056038421033392      34.719067911627207      32.406407524937322
  3501   1      24.714720899584012      23.802397672622604      22.228536415047092
  3502   1      16.942795614166911      38.233700325979058      22.729647901604633
  3503   1      34.739020088733923      12.820855158578118       46.71767420325245
  3504   1      20.199139552878375      47.162738327112827      1.4225915730316385
  3505   1      14.198074936301971      8.8035462193651526      14.485352775597764
  3506   1      43.488401893446138      36.854264615471877      29.718507583668718
  3507   1      18.999316371898257      39.885222689726596      5.0694999672445329
  3508   1      39.888126501291758      32.957315596610918      9.4525443846579158
  3509   1      39.083465030439484      10.488782860546367      26.543468277069909
  3510   1      29.924730062182547      32.399404164862958      31.862320706625354
  3511   1      2.7295531961264046      28.614400978079878       30.96161516536197
  3512   1      16.081128738253845      39.430446315656745      7.6451019344903397
  3513   1      2.0447279365658941      14.773077312007675      26.480329425660035
  3514   1      46.715916036320678      33.459937475352191      5.6119185149599851
  3515   1      45.964975267643474      3.0340812254050284      5.8519775077229088
  3516   1      26.379487976692978      37.103470764035748      13.289742281442706
  3517   1      17.772150491495363      35.877999120268882      46.608602419095831
  3518   1      0.2705046920404221      13.119588677056147      5.1649781781049544
  3519   1      31.158557907932188      45.508775567594377      22.734240025061272
  3520   1      16.091923854387531      11.991148587107299      6.8812024031374532
  3521   1      35.298140083621647      18.824546619738051      23.860602067164507
  3522   1      36.824746001727249      17.138700370792534      27.914500315432988
  3523   1      19.391723164474286      15.607614374626406     -3.7488287350372897
  3524   1      6.3187907445348674      42.844606321328378      34.930752291365309
  3525   1      9.5742759550763381      18.504592963255849      3.0076081310499396
  3526   1      27.611476395619544      30.730322104078152      34.342918806169422
  3527   1      30.120569201901947      17.181181465358978      42.408916144196333
  3528   1      13.191777864627028      18.447411368754846      16.366081537759669
  3529   1      22.087363249425181      11.337700321528912       30.22197655800738
  3530   1      18.462491291275683      31.392905537901711      15.359259907482194
  3531   1      8.1489814237577125       20.81881194086796      30.019882238722811
  3532   1      26.919032250576056      33.911932082809535      28.246089625061682
  3533   1      6.4946701410105208      24.846429861489927      9.6497478196518642
  3534   1      12.511864794637908      29.133658093835489       28.58277191951705
  3535   1       39.66130196191606      19.120849952258233      47.201079438162594
  3536   1      25.963226704017224      11.009837808008394      15.534521265312517
  3537   1      13.173940454753508      34.321523271537615      36.828864538770567
  3538   1      23.781426535788334       21.59365843987116      48.047195627209845
  3539   1      15.369794795064761      21.528637466834912      42.074804375961911
  3540   1      11.665553652271774      6.5826956655557378      42.138398477503529
  3541   1      13.818612019756713      1.7168893014285327      16.902015111881965
  3542   1      29.407385944239635       7.347515465947942      1.4379077707908428
  3543   1      8.0796931642198064      14.341102650479085      20.117304083131629
  3544   1     0.40077661042909296      3.8719038017853493      2.0226464895781424
  3545   1      3.6233100087175769      32.967579105438908      32.748992661115246
  3546   1      14.224760567123299      47.746283595381968      4.6673516925540115
  3547   1      35.866683151957297      23.123146214121128      13.038113175056392
  3548   1       4.150903845272401      25.179389869098326      40.052349619466909
  3549   1      46.651503765508586      3.0564117344648842      17.852914818931595
  3550   1      31.489344815923843      10.643375002646145      19.354467169784737
  3551   1      8.2734084584006666      2.7430747416738814      42.999612406298752
  3552   1      2.3651319039357741      14.952030431874855      16.835559050903285
  3553   1      36.338577005160175      1.3517903934894238       28.50352722451408
  3554   1      46.621354910400171      8.3933728435213766      33.609378575388291
  3555   1      8.8096125702092358       28.84705723907166      27.729285928666684
  3556   1      6.6905224319246237      24.632817497097296      36.890437652440461
  3557   1      7.8792084228200121      27.411478588201476      34.339727083560625
  3558   1      29.398953948556791      41.474729921359355         17.414392395699
  3559   1      33.884386442881592      10.806084223227588      6.7648526645858382
  3560   1      6.1742276037390598      2.6376520349381125      45.708007233809354
  3561   1      2.0718700852246119      15.910135767633932      29.700635872632098
  3562   1      5.8821097408329619      11.760688586246985      17.604104507971201
  3563   1      23.427694918196007      44.277423619977675      39.875694526207958
  3564   1      40.759942243162968      21.254289906149605      2.6053601242626279
  3565   1      33.892975619769004      47.472846360949035       11.12498392372304
  3566   1      37.907999516066411      41.358111016504587      43.604745900916647
  3567   1     0.19874021941986478      32.886871617842012      33.098502807849684
  3568   1      32.184442959225251      15.187689265876282      5.8096613097247429
  3569   1      8.3113140482099954      17.335114267661588       31.68340697562105
  3570   1      37.500522789739641       37.40085204817769      19.092856369518721
  3571   1      39.868813716137197      34.523374621430804      23.880858874662692
  3572   1      9.7619587383244344      18.321195934819347      27.279179335123121
  3573   1      46.083795801116928      22.821221343731111      30.868799608944958
  3574   1      28.344054083895369      19.937402274052534      27.906641716602397
  3575   1      41.385259405917829       45.79169449229336      46.052011089700571
  3576   1      37.215406783819986      19.415929128910108      3.7836043901598844
  3577   1      35.574305379460952      32.990492668131246      30.114647334477731
  3578   1      25.023024741038469      15.160813810700343      24.200866365068034
  3579   1      42.258139431428155     0.49787950400728942      33.480338921906672
  3580   1      11.304795316011639      27.840359106151862      -2.287874634368011
  3581   1      32.225478803136504      18.387004575710602      17.294507046198873
  3582   1      28.526431074829336      37.326551883549421      42.619365722112875
  3583   1      32.376069569830321      47.638715418732978      25.309297772829684
  3584   1      18.394146086738164      31.317728877584436      19.126960028350769
  3585   1      45.327954941915252      5.9446036431977127      17.735472989405284
  3586   1      26.372919498587731      22.203313019583032      19.586073067763991
  3587   1      20.021106255487283      18.763123956653519      18.876618980443052
  3588   1     -3.3881554248526036      26.637667680854744     0.59079438763918657
  3589   1      32.170323755273749      12.057909989636121      13.659785667441268
  3590   1      42.693730984591191      39.656438070696687      47.192431776856637
  3591   1      48.328402189440304      5.6224511754650894      34.433940603097625
  3592   1      33.912727713851133      30.840337399890323      17.003355702386791
  3593   1      41.513777149520664      34.814332690061448      26.976635102340001
  3594   1      40.361908388644451      23.630016850924434      21.908900675774451
  3595   1      3.6712058344708423      12.648268079516061      20.382550137674524
  3596   1      18.617985520557518      38.246035222434081      34.952985661214846
  3597   1      26.100937666391033      11.025126132325461      18.851221602407083
  3598   1      16.873993836181111       49.19560293400319      20.431235437385656
  3599   1      22.400648217214187       17.69330370750442      20.985957340073565
  3600   1      26.938431266725445      22.729672215363383      11.997503956692839
  3601   1      1.3876324994144875      22.416779040934674      36.375998826510859
  3602   1      23.646591345540379      2.1544305425790662      7.5185386496971498
  3603   1      40.839949846926316      37.829593726556084      44.736865760403155
  3604   1      36.758433073105842      25.645333475420269       47.40279038146523
  3605   1      3.0392784899396199      7.9930686066208736      20.107310871550681
  3606   1      35.980619167421729      13.030952094326468        5.51387576146979
  3607   1      24.008129892187345      1.6009883582896878      10.664434500062375
  3608   1      17.166300697886712      22.684447820815599      6.6520870512727468
  3609   1      49.506247621910028      38.057833430910108       24.77831444292033
  3610   1      7.5192410407098089      31.022799924722101      17.283577113113207
  3611   1      19.192638260579184       31.01608814839863      31.373257330552612
  3612   1      28.691601913073374      24.906188845655159      32.919019904383987
  3613   1      18.480521850641647      43.501480573824665     -0.6034605710691987
  3614   1      14.055786451558927      28.275996847023954      40.845696778345435
  3615   1      15.828633610723557      41.635395253455719      39.593052276289228
  3616   1      6.2832274308346507       18.05931113231664      9.6884472611546162
  3617   1      35.735727779340536      44.902551319166292      20.737434897955314
  3618   1      42.848037380103278      19.236343163536826      17.429341561460291
  3619   1      11.953925791666405      19.770098033917829      13.179362375676106
  3620   1      26.864924719436146      39.060488517111942      38.145725195143108
  3621   1      23.582043007149778      46.077553119748245      30.249878263862826
  3622   1      40.559994112121444      38.611043612803606      11.153538177569143
  3623   1      38.627503869637771      35.746323094077241      41.583798929087443
  3624   1      21.343654666143806      35.570566687669377      4.4239727214955957
  3625   1      7.9373575745588063      20.988012927385675      4.4033922869690478
  3626   1     0.21468586987370372      48.535983515090201      18.575141390330462
  3627   1      14.755121163509395      46.909489697122794      43.588616389018839
  3628   1      33.991137439332746      11.368637054922756      1.5409664850046698
  3629   1      18.737300420173053      35.484603075514698      24.774529441757569
  3630   1      41.568012936021574     -1.0139482055632218      36.199156732547344
  3631   1      37.780741048159953      21.049775698198697      16.434699609897745
  3632   1      42.729916483347822      1.9848407648033051      5.1072411792255812
  3633   1      38.633940023274953      34.207394327365712      47.741748982868629
  3634   1      45.919528107760208      45.806728096307488       4.764184644469589
  3635   1      32.395927944499654      44.327865450336702      45.601872606465463
  3636   1       41.31776469970854      18.552204093648939      12.741957594050575
  3637   1      16.266984262547052      24.547392101378552      41.587143649136372
  3638   1      8.4573793905855901      8.1309829480532496      4.1775549253266169
  3639   1      28.011188958254053      25.224157020483208      45.700846269531063
  3640   1      34.982188071995004      10.127536054695131      10.635075709212417
  3641   1      37.888686142405838      23.158619380746654      45.252373451765429
  3642   1      26.619840110757693      18.558888468509164      15.625932316365889
  3643   1      15.469344136147892      27.905613550882787      20.035928297481369
  3644   1      42.350407430178784      26.187513510957292      27.882204043081497
  3645   1      1.2951621350988267      2.2359987233209737      30.284528024549729
  3646   1      25.839350501445999      8.8206493413770843      42.547868342774464
  3647   1      12.431713195264985      24.329816658880919      49.460939622105407
  3648   1      39.524529899365852      40.834404491843586      7.2429128298714716
  3649   1      15.567648719443477      1.5090241579846788      32.067442899302947
  3650   1      39.274462594565328      20.163593769824388       34.16557389498162
  3651   1       28.05502524632772      24.292137148444237       21.65431770490412
  3652   1      39.899216120124976       18.86942679051387      18.380796300399673
  3653   1      14.891433586902542      15.823900505918191      39.859074796251306
  3654   1      39.884292677263851      10.409243134701697      22.276272891879596
  3655   1      49.470090231906916      39.462564301702599      48.123245374441531
  3656   1      25.386890666423074      46.090530854512593      20.926774939730684
  3657   1      22.041374176926993       13.48492381289333      24.866417380639362
  3658   1       12.13875158351965      41.309398600711745      37.717693923560546
  3659   1      3.8875467082930761      8.9689671192105287      30.254170214986139
  3660   1      28.673358072099084      15.769383320117628      25.777209620862177
  3661   1       26.64150739049299      22.691832563073387      4.2558371703113131
  3662   1      25.320519415158845      29.218323459896865      40.000235443007696
  3663   1     -1.8892414835028524      18.129012441979306      4.5794246213220191
  3664   1      39.057126585162649      43.477294471834789      2.5024438710987083
  3665   1      4.5725004282181478      13.071602182583588      45.538250535639243
  3666   1      8.3226126452181095      15.362378304965967      4.7965116536603452
  3667   1      40.110439861835985      46.708695569097408       1.359770023551051
  3668   1      21.795570855163707      45.074129101993925       46.11550929490393
  3669   1      25.490865279196612      -1.176344136870507      37.704528778145949
  3670   1      47.294075393402956     0.62534975107530211      30.256951169234846
  3671   1      27.149488523236556      31.520729972665407      44.004132257670477
  3672   1      45.474004305001507      43.730139984900518      21.003515116537248
  3673   1      40.528810940569599      19.696717306174936      41.243312202154549
  3674   1      37.297549108870847      33.686883561551845      36.552902760393827
  3675   1      7.8949836658342685      29.079025363437616      4.7878786286555695
  3676   1       4.435155230711846      -2.657877327007383      28.828164155404348
  3677   1       22.70821763961786      41.198636777968488      12.495603232493806
  3678   1       12.50018018911863      36.756132649274392       51.81185895814631
  3679   1     0.99268940874119271      22.318202756412642      12.428364181303333
  3680   1      48.870090869827912      24.437852190282129      2.9005980923874137
  3681   1      23.101316680930562      47.764524632200498      3.3585592988018189
  3682   1      32.132518431594718      27.878221785381303      23.197085387096404
  3683   1      5.8821391596719286      36.720684827398863      42.947720129700976
  3684   1      13.163201574466228      22.367648997401943      7.3612543516070534
  3685   1      45.167524479967071      33.502237129867538       28.63036885556204
  3686   1      12.257144782763072      16.882268600870329      23.746703331521719
  3687   1       46.69895026923011      20.777549047024277      28.736956748866817
  3688   1      14.385394038512205      19.824046569839243      38.028302376731538
  3689   1      36.909258758318288      34.109446532156149      5.7709535703502732
  3690   1      17.622696989608727      43.538975370060797      2.3951433144010141
  3691   1      32.569480637751688      19.522181137274089      12.864355216725214
  3692   1      13.791680463017913      39.821368624012777        24.9813680779036
  3693   1      6.1352202894127963      34.774623280299167      10.450040692092868
  3694   1      31.326211561598676      12.094219334484778      30.242430340610671
  3695   1      2.2342963592324563      46.858264116885017       25.88605529876299
  3696   1      9.2440264116230484      47.749999440348788      33.455412474748449
  3697   1      14.050359508535866      44.126546553196661      41.070628972013431
  3698   1       30.26702127584004      45.253083001125631      26.325751988054893
  3699   1      48.186984744182382      41.634293484382866      17.704949122207257
  3700   1      7.2781370913826278      51.956076485299384      13.846613665623357
  3701   1      14.425316222302889      14.241131666992697       36.94949338358029
  3702   1      23.620630849831635      29.262954444338504      37.129712559173527
  3703   1      23.858904568663029      12.277610194459765      33.015236325621018
  3704   1      21.065155626347156      35.685299693755709    -0.49407764377799818
  3705   1       3.011422551323268      6.0112058251151224      10.769182639196538
  3706   1      45.883400166985389       19.18503418411504      18.531445265009637
  3707   1      17.224408406122354      40.281807670732064    -0.89666622345069114
  3708   1      6.4974043630007481     -2.3607044374917394      45.550688679226376
  3709   1      1.5021281023579673      30.656633265619078      18.600459662141507
  3710   1      35.124232779669882      17.524714613068912      45.778946224800116
  3711   1      19.863959264007544      28.736227893446319      13.934012031950765
  3712   1       37.20419652337268      33.015801543920539      2.7292671731124472
  3713   1      13.624898488673306      10.255405164290181      43.812033807901898
  3714   1      24.488880643732994       39.16913735861246      24.556003677481101
  3715   1      37.184573262561344      35.096435114763025      33.373507532611633
  3716   1      41.298700326030833      2.1109811519513624       36.45689873204703
  3717   1       14.21750494520572      24.220154652786672      26.355533126667389
  3718   1      11.408097893410963      16.012802236977993      38.623959115865034
  3719   1      3.4255234012832623      15.195198773001584      1.6423933598962235
  3720   1      43.129589052827839      15.584599235449375      33.479707356558279
  3721   1      18.084465751523872       17.17652003323731      12.761219548844311
  3722   1      14.254559799987462      29.800110150955749      32.116164832799775
  3723   1      30.781995602543031      27.661328152988087      47.035599392632754
  3724   1      39.910743399064465      23.918736322520754       8.028028121320741
  3725   1      8.5431560520480563      16.183501946261565      7.8575248094416299
  3726   1      11.886038791984348      25.406591071510789      7.4876950255889891
  3727   1      22.718903182399458      37.251765671829951      9.8149785756204686
  3728   1      47.063450323317937        30.1780941705663      9.8288472414712196
  3729   1      22.683651416215788      18.077902093013599      28.294765791792951
  3730   1      37.726700934428656      13.934146407811916      44.212239735658088
  3731   1      15.744030790086343      31.002813598620794      9.5934260592677028
  3732   1      15.359250174136914      29.547769405459796      45.131487175698162
  3733   1      18.632805716663256       5.028600672231561      16.075290552442741
  3734   1      42.433757189375825      29.260726896713386       1.808295432292383
  3735   1      10.005343677766742      11.905705026642377      31.968450031848818
  3736   1      2.1610288207544861      10.908394110150923       47.06996072229434
  3737   1      21.313051516018671      44.435023252826994       12.54666327864083
  3738   1       19.12021945503307      5.4172094903511567      39.549121294919466
  3739   1      24.231122272477485      14.588387726260382      27.428899383155247
  3740   1      47.149399635610095       31.51725290510662      24.580795012145483
  3741   1      44.268369691987864      5.3885795741230682      41.965238600560646
  3742   1      18.204654909917473      41.988441277450057      17.249550175239108
  3743   1      18.675161233021814      22.531943090599476      40.233657976860009
  3744   1      48.705589926303027      37.300759188943161      13.570940050566589
  3745   1      24.005298826354107      34.086612885656983      46.428591736733964
  3746   1      7.6099831948487626      32.648969293051302      28.582749101810442
  3747   1      50.137664183569676      16.623464860465017      19.729990407823855
  3748   1      7.8014251355621651      23.359848386157754      45.306542610005451
  3749   1      37.818750811338475      44.154643794366251      29.665351759630557
  3750   1       43.27862878154928      5.8984835936140874      21.805875874887583
  3751   1      5.4892362626803584      11.862046477936632      42.584315508942495
  3752   1      18.160800785585639       17.99179660541996      34.061276756820114
  3753   1      37.065344449199173      8.0047871007147471        22.5232916158314
  3754   1      28.169500822678227       7.260880385901312      20.603718654419609
  3755   1      12.563282240105901      14.241602498206847      43.107740995156092
  3756   1      6.9896653027798115       21.29454350878957      25.332902503091834
  3757   1      12.911380550320523      20.001676690010068      22.349484460031292
  3758   1       27.02968818274865     -3.8013757730741689      11.067969751491615
  3759   1      12.363248758687938      31.810866252555847      25.746333452755927
  3760   1      10.423666997966922       15.36794302473384       26.17846592847658
  3761   1      26.381127880032519      44.877825998147571      7.7947864440777295
  3762   1      12.509181155697883      5.5137191649522634      9.3470603192796897
  3763   1      31.497478606232814      44.964998724239379      8.1850320974014199
  3764   1      30.552857798172546      32.758922068083294      27.284587249178202
  3765   1      15.689153218119269      4.5525800102622025      14.538956775826435
  3766   1      21.776023971673609      15.136663437640214      33.147418846472583
  3767   1      4.3195167980403335      28.794780063760918      47.083516520875754
  3768   1      16.379106860232177      18.319596245692136      16.641783687723059
  3769   1      5.9188694161035329       17.22105973797694      21.504136955942645
  3770   1      7.1997890596224003      23.899534983471636       21.84551460287291
  3771   1      40.861963753849871      41.111207728083897      45.158960835850273
  3772   1      13.761702296725757      22.825605483719777      13.307587999922493
  3773   1      11.405684030854115      13.475640638612672      47.248371595061087
  3774   1      2.2041268221660455      20.918450085787885       39.76366622956499
  3775   1      39.778928286613848      29.396070432730049      11.713912462947009
  3776   1      31.656656956261042      26.971740813850886      38.971010768656242
  3777   1      22.649459129056918      10.454441074134637      19.926716271350053
  3778   1      33.241598684958475      48.223898396032055       44.15592808649329
  3779   1      47.300229794097994      15.573067222772345      1.1456888331644184
  3780   1      43.549704236054396      47.773796015404805      13.487353736154422
  3781   1      30.426537519968786      40.238021664364638      3.2812838628373502
  3782   1      46.039214566421919      2.3055695765315467      14.591607027050777
  3783   1      15.293785324641384      46.590411085609091      12.342905517139176
  3784   1      28.592528649915582      36.087416029656936       2.821795210673665
  3785   1      38.606348338670671      5.9940960923627253    0.017918610208415127
  3786   1      48.597964751005364      34.091518821473976      30.141699091784762
  3787   1      35.514314012647318      25.499467416216209      43.813935417252786
  3788   1      3.7855347831811064      49.156893480216098      9.9670188604481886
  3789   1      39.625663615526165      3.2314666782160035      5.2837837195230355
  3790   1      4.8923656098144797      33.886499839333418      26.289144494408092
  3791   1      2.2349651073179571      37.664431377947736       18.81593942883158
  3792   1      11.784858789935189      32.769781993756808      29.051714786245142
  3793   1      20.853705278356109      9.3790908562129882      40.183602237089829
  3794   1      10.236343680492094      17.585085788673084      20.884253901539896
  3795   1      14.999345754625528      16.810926013585398      33.335685386475625
  3796   1      48.804484215388811      26.242163538160092     0.53366309108083254
  3797   1   -0.043214697617989802      29.025739184343859      28.954190743873816
  3798   1      29.119762467365213      16.686751429909442      48.469561868312688
  3799   1      1.9673416453254404      47.422237601780495      3.1186721896641036
  3800   1      18.334503160472682       25.29267917529787      11.479648623642911
  3801   1      36.321646186814519      6.1532241621955999      37.226413524624199
  3802   1      8.8193074568715772      49.159402604808484      13.536035740046898
  3803   1      10.411481677972958      32.374913543557987      42.029947497581837
  3804   1      33.370167882580446     0.45614628531700618      32.512607409671759
  3805   1       47.04665574729961      41.188661058876569       30.76305297055206
  3806   1      23.093626554716842      4.9278696818954115      17.389734788295673
  3807   1      3.2670472678508458      11.084468597954215      37.351878169621195
  3808   1      17.463054728820193      43.184629987081209      42.181988228531566
  3809   1       20.11066474358239      17.687814346648697      31.455988960778804
  3810   1      44.957872124369473      29.804285917061655      34.905814699460514
  3811   1      37.239676677208685      39.185326350245596      29.142807348758513
  3812   1      40.022516106076871      16.689121782903701      26.436062919385023
  3813   1       36.26840114049039      12.895861892036331      34.660073305195205
  3814   1      32.182325437865586      16.908386623019538      34.366697693837494
  3815   1     -1.2653114338871694      1.8316630623584413      8.7813276976328716
  3816   1      4.1753205532585378      48.688713396371519      44.747551424079255
  3817   1      45.232886118897092      29.400580492292377      26.335629275653357
  3818   1      26.630608788948493      22.226734850359009      24.330153918586326
  3819   1      26.998410286860409      32.394166175948094       38.47640702453625
  3820   1      2.1699981804190753      39.089983930559086      4.8417454134013882
  3821   1      16.085700293981571      7.6033261045379659      31.774890906363861
  3822   1      24.159076513596329       8.159709189383781      38.622713212123053
  3823   1      2.1189781952280042      28.342107181024417      34.880809438680814
  3824   1      4.5491722530610819       6.439832178744048      13.693339802456325
  3825   1      14.637621853466708      39.635069846030859      28.006100215683912
  3826   1      16.188005036439911      20.356165081620119      19.725083534208494
  3827   1      28.512002166106743      16.006775620543564      22.621814387505854
  3828   1      5.5708469734938211      36.238961424552947      24.257835676288757
  3829   1      28.110588548412029      40.831007907828344      35.367821628404229
  3830   1       33.37015978196083       46.66104437227888      34.943120864429204
  3831   1       3.986039293619926      5.5808573360698395      29.575946879987342
  3832   1      46.728477331431741      34.439474616551877      13.501751105296272
  3833   1      14.557738549453028      17.306420135490463      19.465579302817709
  3834   1      24.173381149776979      31.199410618636378      5.6200147091493049
  3835   1       33.45490495303725      47.464547470511029      20.689144809141169
  3836   1      41.951190639537558      48.736133967118604      46.669014993645852
  3837   1      42.231433135788784      6.9974488325260173      14.797075633589399
  3838   1      13.284831370748471      1.0270168609629686      44.321488858682656
  3839   1      12.044015766685662      21.156432793310913      35.923753236051255
  3840   1      18.304580473300575      46.715219667418779      45.405201237242736
  3841   1      3.9154088755759813      21.812416818874858      14.068250159379968
  3842   1       9.400477862728561      8.4622614415821005      46.301393675276437
  3843   1      39.246687361771734      15.935357823351634      13.787986779306591
  3844   1      36.943720819785646      4.1683223792457778      46.799412557391712
  3845   1      15.290523520188495      36.973167653393055     0.90678443049770374
  3846   1      42.300231503703237       36.18770397162983      41.782036893446275
  3847   1      19.712340294608858      45.181558494804335       17.15049642184557
  3848   1      19.792200447089925      9.1272359095505333      44.852765080875471
  3849   1      6.5708292223949796       2.974808971268958      32.587989064185663
  3850   1      42.346211502942531      11.819939230841873      2.5345355743184133
  3851   1      21.668742428818415      31.254193974736484      19.031061853562193
  3852   1      20.595425941896092      45.976268777063162      41.843189075785681
  3853   1      32.672705489954645      34.371181372402773      38.995528859008587
  3854   1      34.043196635377043      1.9302276693947866      41.352553189222007
  3855   1      46.682503306569693      39.182208051631847      46.440736256784334
  3856   1      11.313995440017848      16.063913011289412      4.9247454985113048
  3857   1      5.8653644662833191      25.768544130919061      6.4982496048826661
  3858   1      31.077409349160476       41.41458428047865      9.5313024493327649
  3859   1      14.382219406353977      38.531906422331829      41.922722681122153
  3860   1      11.269136708670743      15.366675234912453      18.573627278178577
  3861   1      46.990654849596403       34.53576764952409      36.665979400109983
  3862   1      6.1942537549843228      24.425066296034313       12.87909280705432
  3863   1      38.234064840781933      24.814275365980471      42.037826998256349
  3864   1      20.195377881270964      15.869801040908669      35.782807008806834
  3865   1      8.8478709712350483      43.448107408539983      43.423836513136052
  3866   1      12.454233791267104       19.48324192619037      4.4081874874721789
  3867   1      31.991232292091524      9.7539492726078656      27.963323041138569
  3868   1      39.087431529940339      23.676390339615736      14.901343757100877
  3869   1      10.312723050405955        47.3518761755059      48.293231055884839
  3870   1      17.564675896311428      38.873437380948459      44.890431925672303
  3871   1      9.2451960669730173      31.378054960364423      31.819970886163038
  3872   1      45.131710847160754      36.875799453125012       40.73471364279456
  3873   1      45.042201158574485      40.655237784457995      44.018791256714273
  3874   1      17.565433384554726      31.824650370124793      44.344414041789648
  3875   1     0.26748402518635694      13.164085865200333      38.190374629460187
  3876   1      47.438680357570064      25.352588735989507      29.311580324968787
  3877   1      12.396873203077035      1.5501114311471031    -0.57947301975405918
  3878   1      21.208972824923112      22.284087718433721      38.168836192882161
  3879   1      22.031655582123168      33.804395205744832      21.113783707806341
  3880   1      21.260517174150252      3.2001422049632708      22.593667679445552
  3881   1      47.276102001606809      29.258179011896111      47.676946168488023
  3882   1      45.443044099226555      31.300776907488324      13.204468580490932
  3883   1      11.026928084481906      47.687266346496401      7.3198985353114114
  3884   1      12.183541386979742      36.449957008451598      31.659337568587059
  3885   1      15.349170680706541      21.218736786703712      35.320095984333257
  3886   1      7.1397933996226648      41.106818752789877    -0.86141587528752883
  3887   1      28.170480625488658      6.8270976127060017      28.179544569620123
  3888   1       8.812382270024095      7.2641805677206506      38.035682159034437
  3889   1      3.8095458798527426       35.00949629564294      18.116316929469743
  3890   1      26.475822526337232      35.544312333711495      39.574515221148204
  3891   1      13.491429776648074      6.5262561954142431      45.734132628614425
  3892   1      36.895861212713399      2.8712817033184739      39.624528454304155
  3893   1      10.143490867767879      16.742818712122904      48.060110097098509
  3894   1       28.99038111410853      8.8712515211672329      31.070204559671062
  3895   1      45.241781477598579      30.915437054127924       21.77971812959747
  3896   1       28.07517805892704      46.330667595927721      24.181747377784955
  3897   1      8.5236902502103291      14.453735545060043      29.997471759204032
  3898   1       11.22393579319372      5.1544339766886633      17.087767351822414
  3899   1      26.721655811764744      40.632179983946955       22.78101632170554
  3900   1      36.707893335813203      10.167526894776868      46.598920321217648
  3901   1      34.607079068985506      36.539594385918683       17.21374678507107
  3902   1      1.1333997311647552      27.048599946128267      45.861491794779248
  3903   1      47.163567108538018      46.563833186449685      49.162427706488955
  3904   1       35.50504983402594      23.186437527530998      20.839289703777901
  3905   1      14.642002136127779      14.529523777032672      24.911833863015445
  3906   1      41.858407340836145       22.56053217582846      24.719233898212337
  3907   1      41.958620562584549       20.79360432197965      35.893843840761136
  3908   1      23.547872076647785      24.571764220375698      4.3520830171476028
  3909   1      22.650405323953404      34.941574322564563      24.602596690262377
  3910   1      17.846347016384357      15.524503226757306      27.120213469934971
  3911   1      32.311914702938736      8.5257512677200502      38.964712746502975
  3912   1       8.094536178400741      32.230373433569248      20.265885943499068
  3913   1      27.353014981259381      34.273790919949136      45.435894197082249
  3914   1      29.646434131301255      1.6858113427201256      15.995513636511172
  3915   1      7.1868222560864332      51.807229877194324      21.772638746447619
  3916   1      27.773158441681868      33.537147755661032       9.451979277151457
  3917   1      21.079713263240311      48.063772658640197      39.544260423751702
  3918   1      41.947736148846097      42.761567884423926        35.0672520814283
  3919   1      45.449400600762978      30.484931352819459      6.7263479994033197
  3920   1      36.122986120912593      28.368793620329853      10.070666368795981
  3921   1      7.5904272714673553      44.964837408066003       32.85497133584451
  3922   1      20.027964337337178      5.3641683514099894      46.729356688018179
  3923   1      33.871371881833149      33.478225090198393      10.134867641422405
  3924   1      5.7149298261037789      36.135363663368103      28.971949430585745
  3925   1      6.8980014773871945      22.709203710575284      39.500626539055524
  3926   1      20.239261867307306      35.173929007027134       33.68491095173971
  3927   1      34.838636729580351      37.054675536285579      24.431950277789216
  3928   1      33.938144903210073      4.3652261805285431      39.501263377787041
  3929   1      26.364515578167303      40.417333258794429       13.56826314033867
  3930   1          29.09636076668      2.9536183803780589      4.2354308680946628
  3931   1      22.031521653022601      28.306148962386946      43.197045641270606
  3932   1      8.9651060649513994      20.471981917388025      46.634114868023268
  3933   1      29.153986000527876      14.220108765394439      4.4110966084375667
  3934   1      11.308194233110672      34.523480771662278      21.426960190121786
  3935   1      36.857812630790285      40.916966643074794      5.3115320481869492
  3936   1      37.044149741152701      43.498551366361049       46.14278489118302
  3937   1      16.535233803315986      17.545632051602674     -1.6517858233844969
  3938   1      31.594327065425546      35.709475832065046      31.419785687303133
  3939   1      48.337365836184127      36.826465710806033       4.779402917538123
  3940   1      29.892913148112125      22.268454106199343        14.0277435355089
  3941   1      9.0558723347952554      38.166033934540906      4.7617804443850025
  3942   1      49.779963102718334      36.810284238665332      36.017862334373362
  3943   1      2.4686538925893196      30.505894269172678      44.899021236233736
  3944   1      9.3618450441256194      3.5061807412557564      28.356946463709278
  3945   1      44.730905531492745      41.487913468899919      33.792864687016262
  3946   1      41.416798340578531      43.020458324310994      39.085120061098998
  3947   1      28.767797045315977      23.369114796577911      26.913379610213966
  3948   1      11.236929746415443       24.32834279757795      46.187053093415344
  3949   1      33.014823995696403      38.464833209643224   -0.040417636671483806
  3950   1      29.703965566458226      13.230382057009331      23.757253224097987
  3951   1       7.061957278819702      41.148979946869247      22.523660668215232
  3952   1      3.9636100913279253      38.524286081315182      15.141030022607197
  3953   1      21.241208182742774      5.3915019277352876      2.0309439957238062
  3954   1       4.393939053007947       11.92148104532561      33.019849060173414
  3955   1      26.031998665129393      16.459787135357445      19.684030132940876
  3956   1      38.546289726019872      7.3663678996404425      41.852907753867207
  3957   1      34.734350606194425      34.509799885300176      22.035036957429337
  3958   1      30.657230793214548      28.732282075817842      33.260148376443496
  3959   1      10.185782715641798      46.987842716741262      29.067920253451192
  3960   1       29.77174275179684      13.716698955357833      20.528856192492505
  3961   1      3.3243596059623624      1.9448591406311568      20.025537929773101
  3962   1      50.131026996665184      28.417763516452791      4.5001319255193613
  3963   1      15.327447469750037      42.680635767478641     0.38471286042085606
  3964   1      28.646539669749497      2.9490428694099284      37.348703480427432
  3965   1      42.215992179269335      4.5488994909570453      12.739460351161309
  3966   1      28.748778352319743     -4.0034352723843947      44.337043081922083
  3967   1      46.983746035256189      15.320813244521158       19.03433551539305
  3968   1      35.828570125233284      22.235502128955204      33.310622790383796
  3969   1      43.308434738224307       41.48831006776323      5.2733072170635689
  3970   1      29.826005479771172      28.730197990883322      29.780948336548693
  3971   1      5.7096214079397614      40.056812914119369      28.953589430193169
  3972   1      22.092484517933851     -0.1924762220484377      47.745625886003374
  3973   1      42.113205215207387      31.636041685689339      36.549204594296924
  3974   1      30.229546377866541     -1.8997862183486141      10.557516215572447
  3975   1      47.674770760127231        28.1734484117279      32.996268705251872
  3976   1       12.59894934678009      40.355148349837933      44.194373288968713
  3977   1      48.756674710687612      4.9529687124336066      5.6443474461757948
  3978   1      33.821486564709012      4.0917483136002089      31.777754871519992
  3979   1      39.594064520697394      2.4082402739934445      28.739556381783885
  3980   1      9.8466372308060155      29.552545744731855      19.072603273640297
  3981   1      15.880034575912894      43.504090487665387      19.066370708401045
  3982   1      14.716820400350649      43.487070800295044      36.690801857885354
  3983   1      16.214429151233507      37.379278311995627       38.77851396739716
  3984   1      7.7054329722423809      25.433296943524152       31.08225677898729
  3985   1      22.141576013771022      48.795107305164017      42.700805156449533
  3986   1      41.041352312442392      26.668219470870998      10.326772717757052
  3987   1      45.793467244348065      19.656498030087786       21.97257584497455
  3988   1      35.049655679074135    -0.08185250063780615      38.694366270494129
  3989   1      24.036137417222687      37.876041263170528      5.7902331754170575
  3990   1      50.369954729548361      35.584056614149254     -1.7170219019111377
  3991   1      5.4080186104467813      44.436414896103955      43.163554671905985
  3992   1      20.861005100370289      11.511820559855355      37.118319518716156
  3993   1       46.64232822159574       42.95192487676195      40.011188715204504
  3994   1      16.252258738781574      13.643650514877972      22.381417301308474
  3995   1      9.0005855821506238      46.926321571767161      4.9919695117070777
  3996   1       18.49103219262738      22.822159679120311      27.876446174861073
  3997   1      2.9245762906638104      23.716984361595394      6.6036510632379466
  3998   1      27.507423410372901      37.976228285349194      47.584197570691593
  3999   1      10.775351172131801       36.34391455515469      13.167989503771096
  4000   1      10.278737223590451       23.99472849213802      42.025767416556377
  4001   1      12.655408393297076      31.260764191603208      21.511031141142656
  4002   1      14.212469513841917      22.957900382301709      44.751415345266203
  4003   1      29.992706294058447      47.567299237084157      13.725136952364632
  4004   1       15.69100192255536      23.056180126029037      49.163647191055205
