(written by ASE)

4004 atoms
4 atom types

0.0      48.780000000000001  xlo xhi
0.0      48.780000000000001  ylo yhi
0.0      48.780000000000001  zlo zhi

Atoms # atomic

     1   2      131.05711477409218      78.909754277461687      43.598305132722835
     2   2      -6.952669302480313      8.4836228297084002     -4.0890939305494376
     3   2      18.663827200352234      64.459008080257874      20.724768794251606
     4   2      22.465389016744432      62.895543097579619      45.351120978972332
     5   2      58.763986544877461       47.25743083435956      30.734661889559469
     6   2       8.572817048555649      56.315335979309999      6.2097397053128782
     7   2      26.184701396252887      16.147627090007763      80.864115595425019
     8   2      6.4378613747685955       19.18633224926306      58.318524175516622
     9   2      4.0452555835206434      30.972713983068786    -0.79359195621880196
    10   2     -7.6270759014763678       51.11313854988326     -6.9307717446849315
    11   2     -20.109211494345313      74.484105531626625      55.045482192365206
    12   2     -8.9604582668590389      46.326968347589975      62.457291780126361
    13   2       19.88490826771147      44.016156571611688      12.872733468210731
    14   2      24.953009102623902       50.51285770746766     -23.632103947115926
    15   2     -11.603060958957329     -4.6915490519461605       59.78647872264051
    16   2      32.274143809169395      14.191792705805456      17.398972959994872
    17   2      9.3131562025706565     -28.281891031479951     -2.0920316102989207
    18   2     -19.598000616286896      33.893600940145149     -15.100329092802353
    19   2      8.2685529396642448      50.650761014876387      68.595565644082967
    20   2       18.28915518911765      68.676845195542967      65.799982975527485
    21   2     -12.961974610477942      67.503999988643415     -7.5123466773907124
    22   2       54.85628834333167      18.049023477108015      19.329052823460337
    23   2      12.567571275686163     -47.360459138125094      67.761200196215924
    24   2      54.130410349671727      51.736842337414345      28.755024523231707
    25   2      11.362039103399804     -29.087031424013833     -19.137648253104498
    26   2     -37.788126216990946      40.081591844728209       6.176278695238131
    27   2      -9.649360205496448      17.720363212971485      25.619781745397344
    28   2      62.178566298569081      18.681101904731296      47.732363216207013
    29   2      41.999841369088827     -6.1411730922427328     -17.916073077548702
    30   2     -5.9865739370744127      -5.797840464596467      48.615926026282331
    31   2      48.680432879866729      60.069205285959612      32.755891972763777
    32   2     -12.701229285377556      42.625128129805901     -3.9779295433294135
    33   2      52.825630234902746      36.448333809667133     -9.9538867212615809
    34   2      22.052562335173544     -61.395918600707105       62.42652650731732
    35   2      13.383663026885646       40.96651350828985      15.715885450348779
    36   2      -31.67483231109615      13.264796949205603      37.914754447244142
    37   2      41.477249754452494     -43.825605954961503      67.396521631641008
    38   2      6.3707593706035164      26.307874537232564      70.557063708427833
    39   2      13.588969764759518      44.151724469132965     -14.510246340343388
    40   2      64.409889839643057      13.292038138203804       34.47329873124783
    41   2     -11.478082871472166      10.300461773856476    -0.67968793867074706
    42   2     -41.887519817791627      37.594883434464201      68.008833651675445
    43   2     -53.863226281437186      37.183419471488705      26.518839120381472
    44   2     -22.240867332812076      37.920047487816603     -5.0266441641456101
    45   2     -45.753149189240361      19.352089637180029      12.781575772692159
    46   2     -6.5591199210340854     0.26999790116486289     -40.810243559407795
    47   2      52.511131159456916      75.715333299246907     -12.036689015696979
    48   2      9.7480368230464851     -37.725774883799332      15.760401993765704
    49   2      24.124780001857328      13.291034289657878      29.711440066327782
    50   2     -68.019469635066912      57.536416823937081     -33.322451283883154
    51   2      44.755273342180232      23.468738394365509      6.9279531217920489
    52   2       41.05045491119126     -2.4377200393189096       24.15161266762237
    53   2      33.077222259129442     -8.0566802319648989      32.311230552334798
    54   2      28.951502798548805     -4.9713907852639858      33.738925299083149
    55   2     -30.944592874794878      86.215523154861202     -4.4676173467720357
    56   2      8.4561507628566819      74.319940499276058       64.09720601050121
    57   2      72.954253648734607      81.275333264647202      36.729436546251307
    58   2     -24.449031913617656      45.539543442157672      32.362768123863809
    59   2      10.034786239489343     -32.777072146007988      58.493638486762954
    60   2      5.8795870461034649      6.0349742531532291      80.023130094384527
    61   2      6.4367275928517556     -1.9195731552712028      130.69024087057164
    62   2      108.31144798396539      11.709417979960024      73.107927738268472
    63   2      12.356036156975362      20.435569611884617      5.5304477989895275
    64   2      60.177953287712747      36.562371586474221      34.712781627522716
    65   2     -11.737531266240209      18.345018809897653      57.430209204707808
    66   2      54.545770542039129      5.1724976978805772      71.531763233076134
    67   2      39.569509298997815      19.992806071962189      33.940789129699482
    68   2      48.120708500498978      48.038557529528752      41.465850377164259
    69   2      8.5330640001529332     -26.379019874931647     -20.216863105926443
    70   2       17.41471847652619     -20.024010429713478       9.970793464793978
    71   2     -40.046567521003553      33.057073620741143      25.718514971830658
    72   2      32.684549142919941      47.900829983709514     -7.5317480626920199
    73   2      92.593554945079674      109.60140626351007      43.802130255632569
    74   2     -70.433915744612804     -40.512975189182896      41.868088196402191
    75   2     -10.821113016902032      -34.13835328368058      57.225976720616799
    76   2      10.231053398175927      84.759392989517821        56.6475045139453
    77   2      26.115156362666831      50.858806547876938     -40.683659816522045
    78   2      46.520054467442009      56.478448506647318      30.955025819816555
    79   2      -86.44249663534849      11.181008775000963      50.256663520000309
    80   2      24.288058721403605      44.271129867510481      7.8410492635510103
    81   2      40.745014231864069      -20.06970479369501      20.172490819458641
    82   2      22.000561948735314     -4.9888896669910014     -12.001501622520856
    83   2     -3.1743822971985844       58.62080848263524      46.689688402047352
    84   2      58.456574253787252      42.608428401882612      31.092540772573145
    85   2      52.567447262266278     -42.394921857220119      -41.14805437542509
    86   2      29.364280674675964      19.129256479954702     -16.110046199511164
    87   2      64.864735539908381      2.0146110187865633      40.704890025869773
    88   2       27.98136649715472      34.690397172298709      91.736103922153291
    89   2      10.727837085378532      29.700236236749252      57.328928395470477
    90   2      -26.14571941114675      71.890506176479064      32.336643327288982
    91   2     -38.072634259328751       19.62172632307924      50.449733122741158
    92   2      76.419149799544954      2.6708260911105484      45.692960568399684
    93   2       6.871245195731615      30.901382942355237      17.195783635628349
    94   2     -10.727139684834087      13.599896331986118      17.485976677186567
    95   2      149.10226420693346      4.9562153432227909      11.223270132072454
    96   2     -7.5081432450368304       61.71779297872439      5.2256595630456317
    97   2      18.130284201740523      25.623387845124199      26.273594273328836
    98   2      51.310870061565858       7.347739779304959     -27.601163507300527
    99   2      50.676011038939883      22.965453662716374     -37.650646392010024
   100   2      69.519852146689587      46.158241711296036      58.215533515938503
   101   2      44.907368647827688      53.746880619050955      56.350140727949082
   102   2      41.105192168222274      1.2891042104785111      37.725996168329111
   103   2      37.881512287148844      15.694797237988245      33.671010139861131
   104   2     -3.7369828537391991       23.01172431174307      29.100825059068864
   105   2     -26.596983960671693      47.073513881949694      -43.33240648101161
   106   2      105.50222702598157    -0.16103264203340395     -40.296340137024238
   107   2     -92.690170481741788      47.384299428124756      91.524849544630825
   108   2      -15.97259760895556     -1.5117840586738314      59.110885367730909
   109   2      29.261813988196923      56.045227546703458     -51.721861829796424
   110   2      78.225043331796655     -9.8006252149549198     -39.121134886360792
   111   2      52.833291597935371      3.1449865075422618      38.780442704605619
   112   2      43.114771076614431      4.3916571432105496      37.546400168801846
   113   2      7.5395723774781747      11.369857952499066     -18.268150655288917
   114   2     -47.883338585820333      18.140830316372067     -29.023717481771737
   115   2       27.71290477246022      55.411596056509069     -28.984020811713552
   116   2     -4.0820967028262629      39.860244030541182      50.351380475971503
   117   2      57.645240642309901     -9.0375445720121093      22.673834891740725
   118   2      20.341255554487606      131.34456776808503      52.974098824597363
   119   2      20.005574317849611     -46.007578407311769      23.634794790764865
   120   2      26.079529087579626      69.843522938618221      30.003416650294302
   121   2      28.257748450399234      13.877896248530996     -32.709249845616249
   122   2      1.7399815228980722       38.33518051464894      67.266813861920113
   123   2      75.036612925109921      34.004054056588323      12.952444573999928
   124   2      18.398011211352685      76.462593459143207      39.143572574457771
   125   2    -0.40056913778687697     -7.6982960365711364      16.445523153098595
   126   2     -15.939981676477403     -17.884166685602626      106.57717154020308
   127   2      81.772827178955836      16.491874822116934      81.604635725824821
   128   2      40.081734582727371      55.507404309497893      48.679091322318904
   129   2      4.8505099347899314      37.448769801630938      43.225498128808624
   130   2      102.33613583608215      84.377218593775822       16.88034904255327
   131   2      50.733002632521675      8.0765755928691565     -15.367006669575691
   132   2      45.863280829524655      3.1600713175910253       39.41372273336917
   133   2     -9.5894629516637391      86.076268942674091      37.912853136730497
   134   2      47.181391817488382      6.9924897826795771      54.062648631509219
   135   2      71.733931077106803      17.878967452634143     -31.681939980470489
   136   2      37.646772468492522      24.403894930489237      54.930236609340191
   137   2      11.880234780977583         -7.642928881914      49.566163218072887
   138   2      -25.54285754376378      41.549066482938841      26.964585057367792
   139   2      20.111772197760789      8.5540873023831416       8.042935158668989
   140   2      28.309067967044111      31.689130036167789     -34.322240428726474
   141   2      51.779541935869446     -27.564908733064534      3.7784673761528174
   142   2     -1.4893870501971622      22.197499266647078      17.596526422405034
   143   2     -13.940904153555397     -3.9677366833469518      7.1709587274959716
   144   2       17.01313016381792      34.677250283592542      16.054956871657929
   145   2      35.602982664420779      64.547881388978738      37.655147266652115
   146   2      73.868905232831992     -18.929782088697166      23.302354912767651
   147   2      130.11686630914093   -0.022454399797786045     -34.088948355598212
   148   2     -3.7457768448360129      28.620266028907501      45.830903044675033
   149   2      49.215795004554046      71.868578057482395       75.55616614543105
   150   2      1.0187492474131614      99.518711858587793       27.99547129255496
   151   2     -11.070438778202531      30.228234106853694      48.825278798550052
   152   2      30.470842076757737      53.793319234948981      56.378781249405471
   153   2      62.729391634585696      50.574853806915364     0.49697083755618626
   154   2       49.95617687993294     -15.359920850412482      82.796467715274304
   155   2     -35.544190834698355      41.074905891213326      72.731411394323402
   156   2     -70.787801177968419      38.276302268587742      47.632057567093902
   157   2     0.78611626255186295      111.45417618372868      67.284970229444298
   158   2      14.495383521643415      18.349072059909176      15.770831699057629
   159   2     -28.215465685120201     -14.875646769064556     -5.3310903269646301
   160   2      15.143568707042828      74.775853579672102     0.72948792001799223
   161   2      37.686212958913558      -67.17011621153712       33.99007316639613
   162   2      35.944215794420892      29.654663694603737      30.266573212148458
   163   2      2.5823061316869778      23.516656261141417     -14.523902885746701
   164   2     -14.977187392026622      -20.19935160929202      34.719099100668025
   165   2      34.810034724714377       7.837189077650927      13.787807367717901
   166   2      87.770101174357578     -25.714118592920723      19.479043562463538
   167   2      30.703562283597783      116.22264848405874      4.3850973887196547
   168   2      26.402192324706185      50.690035953960148     -32.063058909352478
   169   2      19.687914391627324      30.762399795970516     -11.969176402967955
   170   2      43.642133643780284      73.011631288618162      81.979557720788819
   171   2       61.36682031480759     0.87350091056036261     -11.365528445110419
   172   2        46.3801686494335     -3.8932735380339816      9.9752316378312376
   173   2      23.648089371929832      73.925179848740299      40.988567560582972
   174   2      115.59976411645596     -28.387436137740011      47.937981378915964
   175   2      8.4430023706842778      59.178559252833466      93.412710638330736
   176   2      16.862993028471813     -16.824464417347983      -1.141789323729987
   177   2     -31.994241777144417      40.601499917432463      48.842994365662491
   178   2      26.077947336734919     -3.3447285663210891      52.529640099847462
   179   2      15.219022218961033      26.647096004776653      62.851240865068029
   180   2      65.666075921509361      12.464083837817713     -22.573065066340561
   181   2     -22.268022828555146      23.516319345597658      18.828976370504556
   182   2      28.868357647026055      48.843946188551605      60.525670566772398
   183   2      51.294004544865807     -12.342126279927378     -14.041020905148043
   184   2      29.838832101449704       45.49589358681132      78.329412868904029
   185   2      61.349950926683164      29.754735492557078     -14.722151943920464
   186   2      82.925279558575923     -4.6770700727866963      41.031162916966835
   187   2     -18.956861768289379      47.360208443124506      44.685081470478544
   188   2      75.214038900372685      64.813043380319584      13.050940714136658
   189   2     -1.4844155707581728      52.090909606805887      52.815741134027071
   190   2      7.5568283615911191      49.794882572620288      32.110691443789435
   191   2      56.798903656836828      35.337863911724348      40.930298888901469
   192   2      57.341799611268357      38.649896848748384      75.614300156578622
   193   2      1.0070658304060187      -10.33236381034096      49.159745108117022
   194   2      2.4078618513841157      35.742740295934993     -17.869277860715094
   195   2     -49.836700178289583      31.596638196923834     -1.4495433575108487
   196   2      1.4001782077669309      83.713118280175124      95.746962223295029
   197   2     -1.7837937303160758      18.954896936575473      55.211750297255044
   198   2      89.832193665856366      38.666568632661452     -6.5077833387411692
   199   2     -2.5452402458571748      57.192057449439474      10.431376215337638
   200   2      34.127629579894553      11.056272815704054      20.118992328020003
   201   2      17.498043358465978     -24.122240016875605      11.622777657851952
   202   2      -4.041465345969022     -4.9169464300524979       70.86648942524819
   203   2     -12.357790776620037      31.965188487380839      44.897494342278279
   204   2      -6.486751078954998      47.004178271592195      20.083897725550614
   205   2      70.086240121115765      14.306476130190937     -30.946569506852043
   206   2      76.540436133413081      16.181427082590623      2.4169885732161966
   207   2      7.0801805696937015       83.68581681419515      46.036352667332046
   208   2     -19.426523371798524      30.112653176005452      23.588923443201359
   209   2     -38.634545759886414      97.355241703967877      4.7656970972489807
   210   2      24.295816758181989      28.231489446042062      35.588291275654619
   211   2      30.905002870015078      45.406932883269079      86.433642543207782
   212   2     -1.4836104743367848     -32.772659388788732      -13.35617808247221
   213   2      11.886502314752718      48.467499135615789      63.321025773373819
   214   2      33.500646997790966       65.97709204651504      121.95480778419139
   215   2      44.969834170495901      33.630089210986881      45.201463719829079
   216   2      37.426885060372925      37.036390238700193      55.046861047336449
   217   2       67.65851733456465      6.7341322892034077     -36.749481473419856
   218   2      25.680463898529474      33.930862467176979      24.241674093591726
   219   2      59.827209437156078      23.717473443830009   -0.049771567197610611
   220   2     -8.4357522421639768     -13.295742458303883      29.881166600362405
   221   2      1.5514519795182247     -22.079235002373832      23.821746172409419
   222   2     -33.966406438414339      16.871448333398533      3.1527804587916655
   223   2      7.4282118182270542      49.220798860114364      64.100053345377304
   224   2     -61.625408605558682     -32.850323260009517      14.842446095524675
   225   2       23.86931654088065      7.4623087169999085      51.748477824309283
   226   2      87.012870265597002      14.120576604392722      50.857330945327035
   227   2      34.664025613137568     -31.162932730164293      52.019089013646145
   228   2      5.9601023849343679      7.1780107196296807      12.845918627511514
   229   2      21.542291559013673     -35.045105877107545      40.860453383721612
   230   2      27.323415456708801      78.300233183478227      39.186817862850042
   231   2      60.484134752637559      58.253327747110013     -65.004027273186637
   232   2     -16.932301515864765      7.6918449253598924      19.112671567522526
   233   2     -21.092837834160132     -36.591790965878431      48.559397540965847
   234   2      59.050914360881777     -37.089068089990327     -8.0240516331086784
   235   2      43.424681542579194       80.40961674162304      48.769335624070067
   236   2     -12.838346691479726      18.577169150543234      84.237523727029696
   237   2      71.267811930874302     -19.176033628147017      75.056799851429702
   238   2      7.3252300887742292      69.682004486239165      32.434178340679956
   239   2     -23.203591448723078     -12.753743499073215       16.34886232641103
   240   2      36.260414200021167      92.548519186450577      0.3255050466078846
   241   2       15.06690413036422      21.673537970379645      2.0850730841226541
   242   2      1.8088083604885912      68.721244398494491     -6.6131255496244998
   243   2      23.944171017645825       63.88246559390209      56.039187833140602
   244   2      15.957497582836261      21.614985141907688      42.485457061811502
   245   2      94.911409178719879      37.160257900624508     -29.542993225971607
   246   2      59.272017483305959      76.499567832228664      31.012871125337625
   247   2      7.4456988031669331     -6.7412993136830286      66.469775596504334
   248   2       11.15942356689783       29.38022274714432      48.955564212025251
   249   2      10.444101702992411      -17.30898867782923      78.572207804703964
   250   2      45.741440734659491     -17.060385407866061      35.402357522135866
   251   2      3.6287840003756537       44.54168751343844     -30.248230541949543
   252   2     -21.512262799793682      97.732530809146013     -55.681708249178449
   253   2     -29.023618513612444      42.068549704229149      81.679550070057402
   254   2      17.983274776074349       40.28432115287788      16.534470787877591
   255   2      43.373458279637291      16.807225072439497      4.1411371987072885
   256   2     -12.036802860441094      47.883470431415176     0.89752023519777124
   257   2      14.679833377462057      60.304349477145522      31.355658505284605
   258   2     -32.506601554462947     -31.284040997056913      59.018030548158656
   259   2     -75.017774390276159      79.285145520597567     -29.909211901589487
   260   2      4.0056390680339611       36.92707906882314     -40.935247855628361
   261   2      20.703112492581795       37.14129360396575     -42.859698163388636
   262   2      25.439113488065246      26.156068248687355      23.898131808788914
   263   2     -23.347385087404167      10.605327475023037      8.1100126619522381
   264   2      34.999215243311014      29.867799122523671      53.227971702040371
   265   2     -26.796098804415987      66.780011084349766      106.86676778522391
   266   2       32.82764711482244     -11.963602380232981     -35.961669923312961
   267   2     -27.606208897672971      32.547452223817984      39.968322456432702
   268   2      101.64822971380511      62.838946354505829      30.099596318825476
   269   2      11.216349972884386     -50.988933042047705     0.25760114883739738
   270   2     -41.995109307075595      27.663910341438015      25.683499499129038
   271   2      13.494952580556591      80.656473727271916     -52.993771589581939
   272   2     -36.055677274116107     -1.5137994828648158      57.065092446796996
   273   2      22.576042465048065      27.943430734116006      46.591347761775552
   274   2      27.049917559227211      21.345392931002369     -45.112493731590654
   275   2     -12.792456344874838      44.309672793195922       34.45929232500847
   276   2      110.87531348303462      59.119150991621694     -12.544128185227262
   277   2      79.352886385151947     -13.508623400802827      23.380401022734674
   278   2      64.644769907464294    -0.37414316972671563     -31.764298852573081
   279   2      7.0477849451374874      29.263760210411835     0.16924234692654383
   280   2      8.3643999382401155      81.293095256605937     -38.636647582880158
   281   2      20.007809222510492      7.5984869022481671      48.723980821354594
   282   2       44.18632422808615      54.964618958707938      27.133828909446855
   283   2      34.032468326815057      6.1327764538425775      80.320957344648917
   284   2     -14.455341215253135       47.52775402576836     -51.098651041856307
   285   2       48.70807111293059      5.8590175976536223      56.995669709045352
   286   2      6.2810406569451001       29.10402740242878     -37.105351272747498
   287   2      8.5513889134242724      39.571870404087903      9.9464604956509746
   288   2      4.2169933998248244      -57.48926758829797     -32.382324644077102
   289   2       27.58229654832714     -21.146057624195173      33.402223529259373
   290   2      19.976460911701675      78.290232382178587     -55.184874102300505
   291   2      85.936679353538992      -7.513579620990841      29.336222359259366
   292   2      29.376788431907141     -6.3169487102260469      46.117012187604971
   293   2      32.932441065453858      24.925761668073481      25.551580251910003
   294   2      57.385967689723628      38.400110037816084      38.630365231126163
   295   2      74.680605101058077      82.562743688063406      46.286739801186066
   296   2      41.055893414273321     -59.155760548156572      58.279624705103068
   297   2      40.037510922786417      40.765136896521447     0.31789197159901433
   298   2      52.777149676352494     -8.8556013973481154      51.879498570215098
   299   2      63.812357664985029      8.1789111407693653     -19.994166249434333
   300   2      -31.34460531108483      43.135252853727962      73.955134246487148
   301   2      26.239014802148215      45.100598044171321     -1.0606545257447646
   302   2      -24.58976947305058      32.447775328401946      15.497302673122684
   303   2      24.213022128878425     -49.170102653591677      85.898558457072269
   304   2      33.706575801428599      50.666806278511665      43.506598160991828
   305   2       41.39629608718753      44.189796168904756      -9.127220013581427
   306   2     -29.476476866615961      33.921476399842327       83.80258847357905
   307   2       2.493824234064784       64.77129410079273     -4.1643290085336107
   308   2       16.83379560152051      56.429712565210508     -29.510966630372316
   309   2     -8.2468639295876418      21.873205549465077     -22.884279199497762
   310   2      36.505785269435044       22.17636092005236      92.050662103814318
   311   2      40.905259629168924     -51.989976712891739      53.549697423307407
   312   2      45.817226044849967     -11.051761702335872      6.6743690595433467
   313   2     -11.842363682475183      52.314865320008302      3.2812680898136799
   314   2      29.803930206175185      34.561081760477357      87.540811627229516
   315   2      33.223746392650334     -31.209010258499209      46.966852836392135
   316   2       36.05114992771999      39.544255568316814      14.187157086623669
   317   2      43.581047158664489     -37.430492125826206     -17.793024601183184
   318   2      2.2547262815283364      6.1896343181115947      98.183602137756168
   319   2      37.915839589556121      60.717617617127111        14.1812964460991
   320   2      9.2117318600529092      44.173327108234616     -4.1533676675979638
   321   2      18.564219117030859      50.289869042019454      27.752838357214756
   322   2     -17.721732019009838      32.622129230042084      45.449688441144566
   323   2      6.3944478464760142      52.771644525666851      -43.28681305103887
   324   2      9.9712546595463944     -33.417749790462778     -6.0976854315288973
   325   2      70.502813187866707     -32.697872751229255      79.794611817137209
   326   2      50.649777874593219      35.744353102748924      26.160601142575317
   327   2      9.4985055904712272      93.700706661969704      105.58857409513762
   328   2       1.635579516624831      89.421787204359362     -7.6594987143083584
   329   2      26.571222695072048      2.8019125603740727      29.658968160611739
   330   2      18.268483820942166     0.97842132136649196      58.352839586719924
   331   2      110.29045793161384      55.908070862332345      97.748915952608868
   332   2     -23.496948347164029      23.764267128722704    -0.84137207982987749
   333   2     -1.5801577700645038      57.399543280292527     -62.082558443589001
   334   2        8.60290239900114      38.366630625105266      112.35248325781643
   335   2      18.320005070822202      55.355055626316648     -22.777657993542448
   336   2     -27.040747752610315      4.6335193872165883     -20.667974942400534
   337   2      46.988473837864035      54.856471942667525      44.375968820563877
   338   2      -9.991439599503023     -13.297496224380312      17.898446967817183
   339   2      96.047593459728319     -31.429138808062678      41.422748693543937
   340   2       45.49708286242258      2.2095537514807684     -22.872742143540226
   341   2     -6.2550404903232772     -27.664901322317053      42.119546089519559
   342   2      17.033030134707744     -13.459570952885265      6.0082838916879568
   343   2      62.380239846056298        15.6149853039354     -8.1759095665688548
   344   2      15.616228841196019     -42.686600879453508      51.231596892135165
   345   2       25.88135925474602    -0.76195223568398718     -3.4728330029686876
   346   2      62.406706264125646      27.082812426627594      9.8300308036271549
   347   2     -2.0566579784961778     -65.286608917449016      41.584586076142145
   348   2      52.004502682146963      25.977125723259839      51.702254138921376
   349   2      76.933005182399441     -19.244972224989144      30.270658113439197
   350   2      75.612636813859865      36.988145205631909      39.793653505598293
   351   2      65.428798133465051      39.286256287607742     -18.798537980724461
   352   2      40.569070089108365      29.749581318245351     -39.775731260904941
   353   2      54.736502364430685       70.43262918125734        61.4775161296037
   354   2      12.283881993569233     -12.864780584483167      39.168385812465786
   355   2     -16.867082563826077      41.201883122715955      36.606207636292837
   356   2     -31.175982133139669      49.689946582885426       37.50553572944095
   357   2      62.907797126315153     -4.9642635895547693      99.828795953972147
   358   2      19.783460355680912      45.410014757937972       17.77749213017854
   359   2     -14.063366278944148      -3.570814949691274      31.111807378032307
   360   2      43.456998987674559     -26.041747330688008     -1.6986906324303157
   361   2      80.591763522107229     -12.150990738792835     -103.95987441738581
   362   2      13.312595926190552      35.805986207338599      52.392760859207954
   363   2      5.9416824449255774      17.657887535661484      41.724074811634658
   364   2      45.866484509041058      14.542357501192157      50.520192384202183
   365   2      11.298105227175155      64.921235288979361      26.158924558994439
   366   2      32.731208666279237      10.816660572094705      31.178809624835999
   367   2        26.3953909032445      30.155526694227024      26.802167376461984
   368   2      96.161497451768099      12.924187636250066      57.148835198943935
   369   2     -8.6347927503321618      25.836410623307732     -25.652991489104483
   370   2     -12.102118603140251     -43.828999000888373      56.513364710849693
   371   2     -18.643470183770503      35.714469340771181      95.236961854748458
   372   2    -0.70739011945730201       2.971593385007306     -64.829854599821658
   373   2      -19.95843690012153     -11.817801075004885      19.921225189891199
   374   2     -9.6498534593364855      -1.407571334604786     -8.2514363870632064
   375   2      32.633291898551221      11.526028949273028      36.587492675799055
   376   2     -17.769267850652334      55.776107542644141      136.74827265940186
   377   2        2.36156459234273      83.451461997496537      70.777799763083408
   378   2      49.475069496736978      3.0371361537683947     -3.6813114659882613
   379   2      -17.61423675978785      17.378571331360849      69.131214145124886
   380   2     -18.858318180007686      66.502014057291291      24.503768564025552
   381   2      50.091833524219595     -4.5363861358944497      43.059948346378221
   382   2      21.830025754053821      52.035786387371488      2.3498997410010403
   383   2       41.93846461012366      68.419233551527697      105.20129049933522
   384   2     -10.890168583370942     -18.172291988833035     -33.742411851173877
   385   2     -14.846450801524336      32.200945009217804    -0.78383648923830973
   386   2      29.268662052951655       44.33536703639497      58.671937349473332
   387   2      21.374920941539344       21.95628807025162      9.3642799045495657
   388   2      25.774306438165024      2.3368757879004844      61.107924091451146
   389   2      2.1654782993802972      47.951928396551615       14.21743400933118
   390   2      32.881069990325578     -21.166386865776367      7.2359552686588824
   391   2      44.127796089954224   -0.019947499774237491     -8.1116788051500333
   392   2      5.5810853791356339      34.723179092931673      24.301028595574277
   393   2      94.061152632258668     -9.2480420221377866     -19.286272478364605
   394   2      87.296897197927152     -26.678168019329213       29.80950072349129
   395   2      9.2149676582178692      18.761373398970377       55.31617883919052
   396   2     -11.042734774377902      2.4403476923029017     -30.547023385083961
   397   2      39.148802643773685      18.148876304173765     -10.845775076734027
   398   2     -2.2355798287664235      25.395989540625262      24.586045328417189
   399   2       26.50686700412183      74.728899925557286      37.177240575076667
   400   2      90.479012912708498      48.879834642663852      29.448284958490014
   401   2      45.649781396358954      42.791935021377355      33.219480834355004
   402   2      49.248805911928699      51.142457029868247      8.0525507332155488
   403   2     -20.413950798948068      34.996770571773901       56.58563143857279
   404   2      51.123920707008132      23.245786539666131      64.077336988912677
   405   2     -3.5733874001924653      32.882685055767077      26.422266523873898
   406   2       18.03155273853136      65.100527789657846       55.34979768534599
   407   2      45.191952185116236     -25.691459879233438     -9.3209013829668308
   408   2     -5.1860173109239529     -7.3218025169032996      62.043447965249015
   409   2      67.902575353080124      43.318617750050905     -41.484242961550514
   410   2      38.822401631632758      10.603657431698458      77.077452416847663
   411   2      3.5965459196855707     -28.755175191108339      46.158060032043906
   412   2     -11.175755311932614      26.645749793254584      81.737875079355661
   413   2     -3.0728781248007899     -5.9534520067669767     -8.1339521864473472
   414   2     -41.259138740825371     -10.386810987057919     -16.064384211766743
   415   2      73.239857861514338       6.597098305525277      58.965467148989802
   416   2      30.114879456956167      8.1348146589883754      109.34277381460772
   417   2      91.025876966969136      -7.460525269533667       52.91725828116509
   418   2      79.226309255980823      21.868416554229235     -27.985913877103936
   419   2      56.779044186626066      36.957228472208108      49.532051325737918
   420   2      31.394623187453721     -48.710823754845343      19.082830590850037
   421   2     -18.826269559342379       56.10068315513935      72.054168991623641
   422   2      23.433827506977867      48.799249153644006     -6.7618993093932591
   423   2      2.1417535657807023        106.643416636381     -34.604564989825818
   424   2     -16.210930660949487      40.589954477448565      60.797805329019084
   425   2      85.504259091450166     -11.882765246967327     -20.531244615952005
   426   2      -9.460320360355027      25.777202679350054      9.4321598520897894
   427   2     -19.345978764142096       38.92106021931081     -16.812827734816029
   428   2      36.790476356309007      36.804008626963466      32.732991070953425
   429   2      10.420000068353623     -23.338951546780041      71.340659156667598
   430   2      33.644328862725466      75.859626795273286      66.257440259789263
   431   2      22.822970403779713     -1.1887161121835381      50.601914383817309
   432   2     -21.662802282236562      23.613925090070122      33.878406271369599
   433   2      26.884492685415946      28.596926024030459      13.379189621752984
   434   2      22.383074439932496      92.107666857990807      53.016705739369144
   435   2      55.992607290832915      38.232680229913292      53.896472300479452
   436   2      42.731014505978912       47.60485483499594      1.1198517180663825
   437   2     -7.4316600812476628      29.835063610716439      25.472459071368043
   438   2      39.917708762059988     -29.413692283098346      52.054992726961515
   439   2      69.149855745526182      30.819241696941383      7.9041188172467223
   440   2      36.440819235800902      21.278691031568677      38.240834366029638
   441   2       113.3371927652687      70.117169375097603     -22.895611946327534
   442   2      23.383547407905041     -23.047354429910527      69.102505305745126
   443   2      17.609686308672128     -16.257751707318722      40.032312293287632
   444   2      30.444184928535563     -45.099661043977029      69.800225618130298
   445   2      21.616996040968242      37.293825925162864     -6.8769840341131241
   446   2     -13.814630810214782      39.975365140256649      22.723416944459199
   447   2      81.843300602988435      104.74378241871479      26.840405106576533
   448   2      3.9118575683106158      61.985446894237285      70.625898756374553
   449   2      59.066426842071266      28.833360547070569     -36.183655633950927
   450   2      82.027182926952861      30.975037530550154     -22.599670224361116
   451   2      28.525321184890746     -15.210136217166571      26.376865434174295
   452   2      53.303382209889023      109.67261411333422     -22.085886627721024
   453   2     -5.2373681988055534      35.917591059988084     -7.2162432396258573
   454   2      47.722936983843475      39.900759632941785     -12.830017280963334
   455   2      47.934954327042938     -44.921906756735758      21.295179082462294
   456   2      14.503174901074756      57.704766813421607      63.535112092914652
   457   2     -11.566940513016204      18.419926091200406     -29.454670450037902
   458   2      102.47462007941186       110.6896607048879      15.124861671705947
   459   2      -10.49299107412935      7.2391712166958282      43.785682415202878
   460   2     -4.6151027643469575      58.341639241191288       7.660729435965357
   461   2      6.3669194946735459     -24.384469232820209       94.25982512057125
   462   2      71.949990042140442      89.237626658214168     -36.021162381473836
   463   2      111.96537640511465     -36.786147114811136     -7.5551301781387652
   464   2      13.918300841993794     -23.318044433617871      84.684898442492909
   465   2      72.534015152789621      38.829296106107627     -16.466127776405195
   466   2      35.101718757661395     -35.458955111332891      34.360134302550868
   467   2      20.802966947830154     -61.509496617756255      38.661033200917338
   468   2      56.246709729279402      40.368944018479262     -6.2776362934258776
   469   2      44.839780058161772      51.260033601497803     -13.666830410302619
   470   2      47.973857675630242      23.276330548631154      2.8902225485681643
   471   2      59.795098929347475       34.68469894509068      48.303376195164702
   472   2      32.577177153874388     -11.518207063465884      8.2221185119637337
   473   2      33.370573941285393      15.246663198284244      91.096340922741149
   474   2      75.008281485190523      11.625583071770368      3.6613157825093223
   475   2      17.928799660044273      17.728785712422827     -16.571080823310663
   476   2      5.8801297100264023      33.365049663797812     -11.756468245941212
   477   2      96.327241195127314       51.21553921346586      65.548464856100296
   478   2      11.628220666164962      5.2166329568964178      34.148199687473742
   479   2     -24.298355109458221      36.990715282033236      26.987598801372222
   480   2      68.915476656851752      11.114285912670278     -12.729169627805991
   481   2        20.6926970049335      61.791539670196435      71.462636477740787
   482   2      4.0755370420376975      -9.880746993934336      -24.61442155032125
   483   2     -29.579153939037756      15.386542452802615       98.87504140528614
   484   2     -6.4280109052686871      14.549667825172735      106.64285957631425
   485   2      31.223640727139138      35.238060050131118      17.279279751939004
   486   2     -10.825024402079285      7.0692010343304572      64.952719118591475
   487   2      14.833662725488034      5.7093746796743767       7.259217248991833
   488   2       3.295022729341762      58.847864445901159     -12.878526358400197
   489   2     -30.975589033527122      55.081195125181914     -6.4886849218061089
   490   2      119.05837391927078      4.4843882839150311      67.173272631246761
   491   2      10.667203118059382      65.012691846784378     -45.032231598300861
   492   2     -1.9861727666741347      19.461701562947876      1.4667367421967794
   493   2      13.759203180572076      13.886914017506991      6.7580338068801753
   494   2      -28.60293653896208      69.766010271769417       52.19236451326794
   495   2      11.164812998409214      9.6443897773309359     -19.866387991250836
   496   2      9.5664078413247804       20.53362690458248      16.597079656147908
   497   2      34.052293733656036      26.762301486160371     -35.783908059243096
   498   2      40.639613278870264      64.652535106950836      63.644228206849917
   499   2      52.546078643243277      59.726350422314432     -2.9007968478902635
   500   2       5.616460422858939      2.9834671498411272     -2.0816187669591062
   501   2     -55.922293646210967      85.195876387973101       70.80767331679867
   502   2      22.715970188340847      29.346887064279436      38.945094874555444
   503   2      47.738964623065094       35.37081152864392     -4.7669265195477841
   504   2     -36.559511056057616      40.252849977877631      37.114866712881721
   505   2      19.207792425454649     -33.629312356910106     -13.494709665731664
   506   2     -48.094834252033571      72.483292703625693      40.059999292309051
   507   2      20.000974970622334     -27.966476584760031       29.04375543796797
   508   2       55.18960189083878      17.466899183625987      63.249563450436661
   509   2      26.938465084267001      -32.15619912106866      36.222996113023292
   510   2     -19.309721948044523      31.404370811984602      49.269688025664948
   511   2     -1.7207710315460727      67.589616729692736     -20.833038463585616
   512   2      29.816727469361862      21.998598083782113     -38.626569497922411
   513   2      35.842630788695736      45.101164424173902      22.124246634015179
   514   2      21.661797354561909      23.778640148785968      74.206442470632041
   515   2      50.418170473730072      37.293944263377476      14.103368463544713
   516   2     -27.537283858729811      31.947178117278625      29.489657586625455
   517   2      22.342172531109689     -10.656448936340636     -3.0066823641721938
   518   2      54.040675103308651      91.221435553784929     -15.975494515374095
   519   2      63.192302803541274      14.208039579119035      64.578871439200583
   520   2      15.003830412476365      50.831247082963344     -3.9884597565978819
   521   2      5.8022602904877232      72.548111033773765      55.592410583437008
   522   2     -12.439334175682927    -0.78271042057535201      11.201750630635528
   523   2      27.709803801053358      47.767634146322656      69.036074600284095
   524   2      58.513280165792857      16.826326223090799      17.760469091316555
   525   2      36.084645927602772     -34.078678218942159      46.592091118504385
   526   2      58.227233249238587      -50.78026330773578     -61.851850583655853
   527   2      46.584140754634348      28.039923526056633      49.430170799573716
   528   2     -7.8424833425818203      11.674602556744045     -1.5229340071093349
   529   2      67.986585488118692        29.3320312413382      2.5205020731283527
   530   2     -24.924476878233296       12.53651239107446     -15.557844582136884
   531   2      46.255191048755599      101.05550590969106      47.379740023364896
   532   2      57.552412948121244     -22.399722771245145      6.4498119998618835
   533   2      120.17698918009432       37.45904380818007       22.82544036020456
   534   2      29.063453163892621      39.869928148251702       41.71897499623676
   535   2      7.7824652813291006       63.72916286708378      25.750830694278658
   536   2      33.361776987040152     -16.219180557399586     -15.032512529417493
   537   2      2.3015546052407307      30.094631859650946     -22.115821029030482
   538   2      58.061695679496296      38.856879660013547     -50.868572176397336
   539   2      5.6948622067438803      66.424314146174467      28.957698660783468
   540   2      14.304464996005649       22.01683747963051       46.64227397960056
   541   2     -9.3840704989281001      33.976676576353313       47.46191481848998
   542   2     -13.717214445128493     -4.2055534563056041      15.537026797137582
   543   2      15.987745289751507      34.221849070003756       27.73719066965165
   544   2      -35.16083650604871     0.29032301037674696     -21.087729056337775
   545   2      9.7276099570424286      8.4233760923830996     -13.097620157009516
   546   2     -23.864402448050921      19.905153069971941      34.034592225549758
   547   2      76.138277669132833      37.801833301885765       24.05617378221751
   548   2      108.99449476230166      22.449042199642811       32.82709224927666
   549   2      27.403851068226803     -49.031007443299117     -14.264659145712983
   550   2      34.993053711327676      50.571535888373774      22.391089155522138
   551   2     -54.824404291022084     -63.029096245869418      11.207333672655315
   552   2      -41.76582533384375      68.205835041947594       51.52643102054941
   553   2     -16.596577041861778      9.3510741504667081       47.24555549504322
   554   2      6.7989862400852648      42.581827141024235      62.687869395290797
   555   2      59.620353292405305      19.992708224282364      10.195304115613869
   556   2      52.488636229417182      23.145743268168872      -47.71601821982545
   557   2      5.2138249308666733      -25.66108590036098     -6.8531181187937706
   558   2      31.685701055409631     -35.265070204323187      71.356830950674151
   559   2      25.027448543607232     -4.5895917294448534     -25.979818611966195
   560   2      8.2403926528281826      6.3508450197716515     -8.8888719301843544
   561   2     0.75305609154687225     -6.9459781906741114      78.251602652055269
   562   2      39.397144060798809      51.371052292686308       63.87954083439859
   563   2      4.3483049380168755     -18.171695890677771      34.957400648686381
   564   2     -4.9722395759205584      30.028178529081501      60.812670867655484
   565   2      60.811742514528291      44.009999116360603     -9.9650303965785483
   566   2      41.907512346727316      24.361886271536406      100.54860083960513
   567   2     -59.900491136212217      53.132605016108805      25.421557622716911
   568   2      32.897594474660217      21.692517917522867      16.928717178813713
   569   2      27.365506200819929      15.289643832041822      43.446748517537408
   570   2     -7.6229719211579852      53.114815978975216     -3.4394342139054963
   571   2      57.439684319123288     -66.616229208869342      -15.05786730659527
   572   2      53.004490469069502      2.6358417573214581     -15.216056781870073
   573   4      28.035322161963471      30.067230926745609      7.2214191670155534
   574   4       56.55033589705377      58.295928853264734      25.585766915610797
   575   4       12.15388390945596       32.85445372918943      36.402467744251112
   576   4      38.098112589103316      46.388823262406852     -2.5715732029950518
   577   4      22.105560270984437      39.383568903592057       38.75345669324026
   578   4      35.918890999498949      7.0739092517515916      1.5459908593511715
   579   4      46.733078019914991      33.962002864734714      23.232862263055203
   580   4      17.764964644075377      42.819491150177299      41.765808955985939
   581   4      48.947034966727045      34.654715833802285      17.442281538124529
   582   4      26.556220392534623      41.818295496480353      9.8713098089447566
   583   4      22.471597487903423      11.698191778076694      5.0631578614791675
   584   4     -5.0577816308928405      50.502877389053431      17.196760650906317
   585   4      20.457302803485351      41.053827685639014      58.834070277765541
   586   4      4.1604569856964586      8.8700305351487732      24.594327788571988
   587   4      14.201103056268709      34.639474813349437      20.118994674482124
   588   4      8.8200343319282837      24.633317673965394      34.794384764971348
   589   4      35.997041255690441      21.031930630616575      25.883555195657529
   590   4      12.901721766515381      14.597409064252298      49.229397541778908
   591   4      27.188392974175908     -6.1109902457948335      29.763173962960519
   592   4      37.106687773845579       33.55084603291386      31.036972739958532
   593   4      46.088329509369011      20.296050106901603      35.447033890396987
   594   4      20.891906568100186     -8.5251715435983808      29.756188002110417
   595   4      6.6454756298587432      17.341776267374783     -3.1511147813237055
   596   4      25.679941286128958        15.5097813515741     -1.4116127878542786
   597   4      41.790672838196301      19.528431309832726      29.446643724935633
   598   4      17.502274759905159      31.599686724115625      13.575658917918688
   599   4      16.837717225606994      31.604418736870954      44.041065805887705
   600   4      25.824350888825094      44.321947398586389      36.261316954813687
   601   4      38.466967593677353      21.866898341582726       9.542931910578508
   602   4      9.4033903157762531     -6.4414252753469849      35.229698342676151
   603   4      6.7677621078367745      44.806464262023944      29.265997520654881
   604   4      21.976216738891463      44.858512549863597      42.047846238968994
   605   4      23.133609626690895      22.121188212393456      22.565331695190803
   606   4     -5.0219502274854211      20.131081279206349      4.4250430071309745
   607   4      12.111387393312263      29.200508569891706      16.048414690662902
   608   4      49.515889404825899      37.101088215918715       5.213473310377398
   609   4      39.370484620466819      33.231911005551559      42.203537689426362
   610   4      25.824156401446686      21.788079347954152      9.8777397326989842
   611   4      37.990723982623024    -0.12920040953947678      21.189167030924381
   612   4      40.119509945612286      60.041275507940874      9.5478088137130612
   613   4      24.005538585375508      18.812749038758916      3.0262846934519509
   614   4      37.220948428568356      36.890147765151667      24.287238321711875
   615   4      1.9647652192626857      9.8862604425320821      6.6292341331308799
   616   4      21.534590299373885      27.060545566353316      8.8442882634256659
   617   4      47.513901334470084      38.387324852533837      32.270301581216579
   618   4      37.130328714342681      3.2409208030103858      31.504693640990922
   619   4      3.2333550412347107      26.392473762831465      47.816735641329004
   620   4      3.3314023211073653      16.258493554414912      15.698266134517215
   621   4      16.326181181993359      19.711438254304959      5.8040770948160905
   622   4      21.863198494768969       23.81011465628001      46.017404370559063
   623   4      33.409692807195839      33.987259931009213       53.51372430751784
   624   4      26.997309803447664     -9.3870054505946321      28.598329048078977
   625   4      12.474626060840185      19.153502094289443      19.380959032268567
   626   4      44.498073999053709        1.57620350355688      31.396077245546028
   627   4      2.3451953145595916      20.785305604688386      7.9165188636358526
   628   4       26.58208244946314      55.600179601080541      5.7102192366998041
   629   4       27.36935680577356     -12.152968648350964      29.882116490121199
   630   4      31.495141371588286      9.1822768871075802     -5.2803402524718042
   631   4       56.37564077639184      14.165813729524954       20.08630461379305
   632   4      31.100123017118641      15.538267934625795     -11.522363795771073
   633   4      10.780429645877057      10.763623614288269      6.0470921748544955
   634   4      10.628799210698908      13.727201552412891      29.896129512445579
   635   4      18.178474251141914      44.880801250783783      38.569958492617786
   636   4      31.172935933481565      50.914026051575185      39.229077558676366
   637   4    -0.36470195303120734      14.600576994843463      21.889923263828226
   638   4      42.382465074029327      46.047299555479185      11.298777393742718
   639   4      29.355472567991125      37.441014753173967     -12.104213289246898
   640   4      42.794124073234173      14.854377693673571      24.786659532217328
   641   4      41.755560690788194      26.138516601563087      12.420520235378245
   642   4      5.4415541500454951     -5.4408573101029623      41.406663178797572
   643   4      17.911086054175382        39.9955268002496      21.750421271482494
   644   4      7.2067747194805261      33.071398745346215      20.478887599017423
   645   4      34.283689971450848      10.083994527929372      16.627532875292019
   646   4      39.349768028134207      37.503805221490374      27.000258211426299
   647   4      4.2419299546535569      28.400771685318958      6.5070681151365806
   648   4      26.318053145869921       40.40164669329026      20.929573674103587
   649   4      16.474920801286114       49.76329064558761      24.125880927363536
   650   4      39.525082259625577      4.9214305262448441      36.886630975104076
   651   4      22.888737620217579      -9.555367418663387      16.683783227466225
   652   4      29.410362151051846     -4.2821028682926565     -7.5219575083160217
   653   4      5.9677971731963506     -6.6820741496487503      25.057056037798436
   654   4      34.926279651015122      24.538298692740714      40.375584368895296
   655   4      41.634079744030068      41.021759827942248      16.708153380930721
   656   4      8.3372218063888948      22.957748962932733      8.6511496253735274
   657   4      24.949674055613531      11.994061415946407      41.259864891777738
   658   4      12.251095841777648      48.457431969505677      42.659040961340587
   659   4      16.469547628399603      36.837092871775624      40.561215523851317
   660   4     -2.2989811358390657      27.090308995463182      10.613729978798338
   661   4      13.557789398084916      37.639885852698569      26.959419371840802
   662   4      31.881537182939343      31.061801086942069      30.408637206461357
   663   4      46.828542486800572      12.203651767859997      21.008231204466266
   664   4      31.371844698286115      20.339254362356098      49.006687754911596
   665   4      22.723292574849591      -7.785388873017709       19.92703542581754
   666   4     -1.0122780448188693      12.500011678605153       36.75742041078837
   667   4      19.510199333522667      6.4345813912644045      15.769812115190165
   668   4      5.3979957804648206      17.130945523597354       32.76750640995477
   669   4      0.8080220797629003      47.187221494473611       10.51308344996489
   670   4      16.724056358083775      35.487355727587726      32.115139306446586
   671   4      48.921585445635621      20.837081925767556      30.636684976966375
   672   4       15.65370347658377      36.005705454574496    -0.75370625836132021
   673   4      39.634157464306519      45.835896214599074      27.600397681202811
   674   4      20.623738289432985      39.150270275384322      35.261829558106903
   675   4      25.938717081402633      18.933301331755068      26.260916444540964
   676   4      13.136110480692105      18.295878252426988       33.78937104350976
   677   4      -5.435331564479581      37.163462020092837      4.2680264289364809
   678   4      27.918763170929619      17.800687950086807      29.216690463213428
   679   4      21.074000992079032      47.214190927964168      39.381987955995612
   680   4      4.6793120671818347      37.570206463139158     -1.3962309870606815
   681   4      46.859302422362333      35.285462175646842      30.109239418625624
   682   4      38.572978472521172      11.488121802357362     -4.8650336214371919
   683   4      46.308918119511098      22.958480133109095      21.237855788712075
   684   4      29.316439796911101      22.811614951313622      24.969968620088974
   685   4      37.021040263050843      30.505807291659917      40.760564355609766
   686   4      -3.608451325035837      6.5150400726439628     0.74647397239871727
   687   4      1.5563011795471136      34.792137191006319      2.3998668081497869
   688   4       11.36581535855569      14.882867659482974      13.392806319934568
   689   4      10.259903624302183      2.1614134313731648      28.968741225907728
   690   4      -1.145348086806383      30.667739801928438      5.8351477609457172
   691   4      18.718716892064563      45.677749938983297      43.866288737731665
   692   4      31.289990408048766       16.88366250063233      28.250810679230952
   693   4      7.7469587855475286     -4.0514346872933125      20.352514682142889
   694   4      39.043710934907033      8.3343745694575908      38.499755215667086
   695   4      18.139282015447847      45.628291066956187      34.641245795377344
   696   4     -1.3676656367003988      35.902490787755823      35.122378135310541
   697   4      35.216619756132509      15.422472319496343      20.223546861283566
   698   4      69.124646435538253      32.441211194991553      16.059936662255001
   699   4      11.056451233332467      36.601042616979875      19.440482919529124
   700   4      4.7362512072638543      34.341954133843323      33.297312133962393
   701   4      17.339877417301832      9.3867393836156143      46.801981033974911
   702   4      16.069606145829383      5.9691749336863449     -1.2693066462490985
   703   4      31.417630641539244      22.677490193545555      6.7575278314574057
   704   4      10.505678946773202      25.031487121012663      10.872737106549204
   705   4      10.036221238617774      5.8200285416105384      30.295858443785228
   706   4      24.701825969765075      22.465218872707759     -4.9082756696700214
   707   4      25.026199400238593      15.465258603926356      39.529398437869602
   708   4      9.4743159054176207      30.261434662624414      45.260800545616235
   709   4        35.0808898294285      64.535836428770239       11.00886855767798
   710   4      3.0517007326418564      16.036880062875809      26.301138094072865
   711   4      4.3403839246711433      35.030212725683874     0.30751817764485234
   712   4      13.382381707407253      17.752502974638084      7.3277393321554714
   713   4      5.5771915152098712      11.401635467744468      42.098217480864925
   714   4      10.710436764676803     0.27432343492269257     -2.7555338896264971
   715   4      16.540127863597608      31.411598891147481      4.7891355621509488
   716   4      2.2342029429324164      30.849591514135337      43.970652181412632
   717   4       14.24688233287419      2.3322865927586829      34.676138505566819
   718   4      17.140687908762377      31.930713234102971       59.02270373870995
   719   4      31.766876723160586       41.92217573777009      16.356488850137485
   720   4      40.884023433521641      14.112248703000297      38.421056686867821
   721   4      42.373574050592019      15.423828670530337     0.18660940150976446
   722   4       27.74365719637721      38.547387616174831      4.0430863865005504
   723   4      41.156777122881266       34.15834777583062      26.314306381489043
   724   4    -0.15431586702683012      37.931292885378852       10.98109605101997
   725   4      33.656096519688965      9.1111984731657891      9.7348420418723549
   726   4     -1.7277066651807396      4.2767181567344332      12.418683370230562
   727   4     -1.3518658246756461       18.60033073928107      15.839816812302832
   728   4      50.058248114320257      28.071752436721447      15.917300495686353
   729   4      47.783278964729121      27.592616367698941      28.351192847789108
   730   4      47.921340644363205      26.683037733158223      34.119638591892524
   731   4      46.039291218506733      45.706659659432887     -4.7930072274097135
   732   4      33.030866594459631       21.39059658100518      34.162268871856057
   733   4      24.125431879311311      54.111634010813169      36.281840669234853
   734   4      44.254891438106199      48.959290236635816      45.187681037055924
   735   4      33.992565497416628      28.137389035227624     0.89739209031815925
   736   4      53.490958081284063      23.662021194248393      25.234502448683219
   737   4      29.283511299191996      -1.943757724657037       16.07803621814945
   738   4      8.7702201880354771      18.749040036216304      25.681248177925273
   739   4      34.593848312932451      33.458790638587068      40.530971847087329
   740   4      27.285249606854904      31.664313101376546      3.7737385167628226
   741   4       25.76229545424334      52.291533104116311      33.450760724787358
   742   4      7.6240006568172936      23.056111249024422      1.4935942033147918
   743   4      24.206610792168327      14.741211016995894      16.261943996856814
   744   4      36.284735804497906      27.798141353798524       25.41166349227138
   745   4      16.434102377911707     -4.7645906296888025      15.528983636431031
   746   4      41.869760449666188      33.650668594503159      18.316663082202748
   747   4      19.958052648133641      34.577616762932749      25.741356314625737
   748   4      41.690872746445152      46.370477431667567     -2.0646456883517574
   749   4      67.879431958505208      4.7288949330468535     -3.5666916584295572
   750   4      32.617720087189639      44.484915582083211      34.296105208322714
   751   4      50.003213285253366      10.445835115096484      10.357954957877338
   752   4     -3.7804956866137069      28.960156515229333      7.5838574501147704
   753   4       4.589615795273259      42.349654495804529      10.538323151692886
   754   4      5.6809229157335661       44.40058541697568      36.500312348446798
   755   4      41.922370609131832      40.797320898470176      45.564368208230903
   756   4      27.922003099827933     -1.0844006111782563      6.3282477302997533
   757   4      42.410811291315788      16.136989245130412     -7.3806413158577371
   758   4      30.664088650507473      17.504262958683221      15.439571763305295
   759   4      50.330070619481823      39.393840143076247      7.9763487496452425
   760   4      12.694025346465194      24.268214927615055      4.4494778010363731
   761   4      26.286871788790993      8.3628276078613482      47.238354956073302
   762   4     -2.9225416312937647      9.2124212090703246       41.73622395587045
   763   4      42.666727886052044      4.6634867547361418     -16.365892863629377
   764   4      25.717965429379316       44.04059355648932      41.596759621389879
   765   4      51.194680232010725      14.012267187390313     -11.515593508347472
   766   4       6.267889051602177     -8.0535296411060706     -12.611669508881304
   767   4      48.679845346272792      17.278815411662315      24.574833143589444
   768   4      5.2758591986347749       41.98796791984055      21.293285219680001
   769   4     -16.815277776044059      42.135393992575572      7.6470219044156194
   770   4        8.47970961418795     -7.9277604846509915      51.242458626183947
   771   4      46.557778556578853      21.000434157559091      43.052007805106228
   772   4      5.6852988921257728       56.07606107030918      51.962678218162097
   773   4       7.582899557857826      53.463597388498634      9.4802036482983869
   774   4      34.265957009650585      13.673515030395732      1.2664239672297426
   775   4      9.0766963361636588     -4.8882617545834943      23.902247060897341
   776   4      23.319501571612733      0.5549050514498256      9.4780066258729043
   777   4      19.085989894192348      24.272574065321233      48.402254713966123
   778   4      14.518097923293121      11.402279851413322    -0.47064811958902758
   779   4      54.097296799527797      37.294149418975046      28.433893563494927
   780   4      28.132989875361755      11.297313859116272      13.021038924488272
   781   4      22.482394336270438    -0.49825115386808988      13.062550307149186
   782   4      11.089001529389108     -5.4145643521012747      12.153902286605994
   783   4      44.371133852338851      34.831070430914174       32.95203365240922
   784   4      18.561823051538159      22.779306205851778      44.984809098921666
   785   4      31.748054345833395      52.887634553606098       46.74366416306772
   786   4      21.335947814643568      19.462500874043251      20.587943717776778
   787   4      31.627694647840048      23.283245312495371      13.281591181030109
   788   4      37.258850629712576      48.329432301150852      15.184971445822532
   789   4      48.939803623070482       26.89728874328042      45.781879320384526
   790   4       40.81287502230726      14.092213849524502      31.849424165242336
   791   4      22.957929018316861      35.395675624895333      48.892529636775599
   792   4      13.686736647463807      6.8204950622984173     -4.0453299311184585
   793   4      34.267437545142265      31.556537874054818       12.85957443053362
   794   4      14.159455454377776      25.655705176703982      25.220603835788129
   795   4     -9.8498468948979099      3.2617735692039553      28.480717937067819
   796   4      38.087711573378677      60.682791056475452      33.130395905725671
   797   4      34.246482843081637      0.8312125680510164      32.223477212978025
   798   4      1.0156088806294485      27.499416870364239      8.5557669228763658
   799   4      38.086551124733006      43.995086973768068      38.532331807648127
   800   4     -1.0197353249846295      24.699969556228339      13.184585882559453
   801   4      28.446457381787518      5.1411602817281095      14.215042302829595
   802   4      17.891648248178544      12.572444587361767      30.021012680955632
   803   4      14.723001990602558      16.118918027447474      24.459301408583453
   804   4      16.028588723692845      13.469696995364151      50.869873357087897
   805   4       45.65869311630815      44.185102155558802      29.471186616564271
   806   4       16.52661568238101      9.2641165946114992       38.28156467325303
   807   4     -1.0962893541047993      27.185890922691186      54.307132785324718
   808   4      30.832571210030004      10.700618755471014      28.030648440661647
   809   4      42.178372038066897      27.564757413033142      5.5011366584802861
   810   4      19.648877627274391        40.7260061443328      51.302938911659751
   811   4      1.3058317701809685     -6.0296825596490358     -1.3735905447146273
   812   4      43.091533248201721      10.902992690677028      12.057508521049119
   813   4      25.521304537121271       50.46564783839758      1.0809086130202223
   814   4      35.014537592314561    -0.44942988364107012      5.2358457963915823
   815   4      22.573708414826665      17.230755197108515      26.494214158861062
   816   4      36.594988069568885      46.965412545546172     -5.9609294914609272
   817   4      29.998051642331735     -8.3774619688305396      21.755962600544951
   818   4      40.217766568320577      51.425887785466244      49.316115951660237
   819   4      20.402692937805647      38.430458565276375       19.36660128665541
   820   4      39.081907163376307       42.38016765950303      6.7499396410540369
   821   4      9.5752625580541029      35.666116719964648      11.720672807967976
   822   4      24.133941502750407      4.1751427940576011      43.031583420719343
   823   4      15.467301972572121      44.102220580948483      7.9557157637085991
   824   4      26.844073803816432      33.365817907916316      19.296820461345625
   825   4     -3.3582680721415503      39.826698537127072      24.202377621004146
   826   4      17.644015673748029      21.862160316784536      8.5834661884152972
   827   4      14.472786646529416      25.890909295697561      32.200791419906636
   828   4      24.769837853871564      40.498982413082828      41.015422690881515
   829   4      21.375500365289071      41.794262055050723       41.45389288526431
   830   4    -0.50580292975032992      46.741949627813561      30.460777893182076
   831   4     -3.9294002129578955      48.501238556586841      4.3599033041581272
   832   4      10.192144884227496      33.379839036827505      43.101868907637552
   833   4      18.338075365448841      11.757982358411684      18.935292551480551
   834   4      -11.00001674245153       16.85943055582522      5.6333094633119485
   835   4      27.097478332138838      45.749454425186762      38.627452126211622
   836   4     -6.6704892795130455      37.533139782435391      17.959411620950132
   837   4      38.835235318174625      42.300933877330294      14.675188722095696
   838   4      35.316003492520146     -11.353378603830853      17.345354987338556
   839   4      37.210683587249534      26.402990157217694      15.938465611980888
   840   4      39.222748597923413      26.947897878508371      27.718857257742016
   841   4       28.79338267002349      26.221120503474587      26.846355238457733
   842   4      6.8934471083043238      5.7887921991515006     -12.545330217679309
   843   4      32.958552636267207      40.729375132534699      28.049383695238397
   844   4      15.360758456677685      8.5900463447779352      24.532096279775331
   845   4      16.600347727403062      23.278291803477778      15.895926758964334
   846   4      40.794139533157157      58.882653053695833      17.809312816103173
   847   4      36.404895816649699      37.729542871849446      10.297335964840178
   848   4     -2.5608118791375483       6.701875745750935      20.161287565380047
   849   4      37.536717941894302      22.665340079542617      2.6581476974077223
   850   4      46.313914744993276      52.638222144426457      29.294054825970914
   851   4      17.535661974100886      5.3585897596060716      30.246449978175757
   852   4      8.0619115350432686      29.752775811133745      22.245870072962415
   853   4      54.304163798871642      44.720580530052999      7.9716840571721388
   854   4      20.870811547569318      25.438992662593503      36.770485515401376
   855   4       38.49162167321159      48.120125692262086      35.479778301095877
   856   4      6.3873907058517823       40.99258466671067      28.726674965913674
   857   4       43.83871868488918      38.567869993095229      32.807638397313553
   858   4      3.0294249470059027       45.37725783083787       29.79086664798697
   859   4      48.217685082547924       4.719107760082399     -12.299722434402566
   860   4      7.9855259056830787      42.647471828129646      38.710232615700463
   861   4      40.904284610027617      4.2484396635215536      9.4202992094137734
   862   4      25.871978263839978      31.606516744776602      32.797027926207861
   863   4      51.313395784246296      24.312726704454118      44.833939324475722
   864   4      32.793570601065703     -1.4722981011150593      2.4109823797377921
   865   4      20.673960445319974       25.55686636626362      51.764058118785535
   866   4      8.7025709800345226      24.525629721367572      19.216430401606814
   867   4      15.875140946435613      47.883255807388927      43.126847127594644
   868   4      22.897592820987711      34.129798431697637      57.346446750726081
   869   4      52.599722028807484       20.79418262794578      38.343856246196005
   870   4      36.060976716693908      23.061217894703177      32.779937820334169
   871   4       31.73490412014861      39.244830219521134      47.326690382182484
   872   4      23.014827658333179     0.93308733885599249      28.922337695436202
   873   4      50.321407189560617      15.586098696420954      40.576914972638114
   874   4      3.4686127814864824      38.815535578219787      59.850785191353637
   875   4      32.592001973298565      39.305963963059305      19.077586351296208
   876   4      18.051272214441617      42.454809207218347      45.248205492400352
   877   4      7.2615791938902809      43.023394446951059      54.096584160616494
   878   4      15.417420090737535      38.175218012132476       13.91512869378162
   879   4      17.490352746648171      13.289963143568993      47.665128254713714
   880   4      28.570860510057184      15.068212427257532      6.3494429205158642
   881   4      7.0826183510682563      34.477505772271726       30.31100643123705
   882   4      30.036298965856048      15.681556243617221      31.528069690303322
   883   4      40.224184275692103      38.275897846417365      34.149527355447226
   884   4      23.241794756894166      9.8356591287797244      23.475228799342013
   885   4       1.242337946548641      1.7024049559042702     0.54787991494307087
   886   4       40.04437407962358      2.4628425923883634      33.900513749740647
   887   4      38.240153575737374      42.409504228690373       21.60352652791919
   888   4       32.78256338886721      37.354069327210738      35.106912004741332
   889   4      23.940187917593619      6.7604608370945218      21.575774718972323
   890   4      38.469518469203869      5.2505343452136781      12.171995252011561
   891   4       19.39327875917451      28.016445366401896      28.969777835970024
   892   4      21.440246308025962      32.300707502139453      23.123961997777318
   893   4    0.068903123275016728      26.613293148216584      37.718474830737243
   894   4     -4.4452539133909346      28.246333077460367      41.132785809675433
   895   4      7.4559544425170277      8.7828577920529405      0.1543677621791992
   896   4      58.210227187609021      18.277347907027806      39.791742560632926
   897   4      56.379484472289711     -3.4839343991854532      16.617616859249473
   898   4      41.212938090074623       34.04192888919993      39.023662432912325
   899   4      38.800384865034374      31.900846279744844      18.739054644630386
   900   4      32.236052019997445      51.226050102605207      10.460177535410105
   901   4      19.373150654184336      14.998495879821071      11.117274390220688
   902   4      37.913602052944249       0.859497791024317      7.3461288889802496
   903   4      29.193386641230425      25.229086665575927      30.579826082587054
   904   4      21.459821632965376      1.3554253532002498      20.540793724655536
   905   4      26.755710170247141      7.0481717760364129      37.548033630346112
   906   4      8.3718506771157859      7.3792051808560304      18.150023856594476
   907   4      36.405589019941132      10.839141447447448      37.893533211279006
   908   4      2.6436770435809893      1.5265558775466921      19.429578372437529
   909   4      27.698382815358716        25.0714126106176      50.811219086711596
   910   4      30.892872921603281      27.489714810170049      37.475975141947615
   911   4      35.476358980314799      9.2876718401935374      34.488319408048099
   912   4      24.639666381826711      9.4454883449291955      30.575735705590489
   913   4      5.7414730765208644      31.434249423551886      28.471871572287281
   914   4      7.9244520507635317       61.36719747764252   -0.086898560121894883
   915   4      38.652441229471123      19.499084543833607      15.715037788047344
   916   4      30.599653477642601      32.606120136796996      19.580361741667041
   917   4      20.493997676690917      13.507911841958215      7.8915395241522539
   918   4      46.232947931142263      17.255599860383118      12.485155623645058
   919   4      29.196155254400995      28.352620514665666       10.42291837006816
   920   4      22.268340901262508      6.6560070004562588      24.858760736991258
   921   4      34.593606121561201      21.768520366071243      20.428047264754195
   922   4      25.465921659191388       41.57333487486563      44.300138862807493
   923   4      15.636681610927344       9.023609157104854      10.825706680778177
   924   4      25.455618870160819     -15.370317087661544      29.427072328692446
   925   4       3.137368322595214      21.309927155645859      19.024755634312228
   926   4      10.127988508265686     -2.0507219504406891      18.572651074460666
   927   4      2.2187733988588607      47.712287195435252        39.5272991324142
   928   4      45.390972088004432      6.4452892065107577      23.150294426849104
   929   4      21.986380639483833      13.977323877031566      25.792494389481298
   930   4      27.621196122785182      28.086339260042596      21.028987772537725
   931   4      43.977779302643363      27.767860570093166      22.158072007372528
   932   4      14.150039105435924      -3.639771875567376      28.769240505035505
   933   4      15.824410411192467      47.367609271595427      1.3349075506887147
   934   4      20.752426214640462      7.0843227504093509      35.781511427392154
   935   4      7.2331476003557853       33.83617733682987      14.086927188561493
   936   4      46.866959628070916      29.628265549108963      38.465155699896087
   937   4      11.430812975196801      22.988251317907235      25.592477550370333
   938   4      27.316334321436468     -1.5056347944878239      24.707237363245678
   939   4      7.7014816104494956      32.902167974348842      54.669751694573954
   940   4      15.725510981168462       17.03683633919805      36.275292502992592
   941   4      40.834914249535572      9.7398549167142736      50.887681412628645
   942   4      38.497791592525445     -7.4092243990614168      32.788413834778012
   943   4      2.7315137739412698      43.965361173590736       38.74509486093563
   944   4      53.320140618679126      53.516978824890209      -5.766210644998135
   945   4      33.466849243732909       24.93291056802844      43.848848519887568
   946   4      38.942276440422255     -13.769441390883969      9.0905862845579772
   947   4      39.935290988304871      21.362719010248593     -3.6555810107465261
   948   4      7.2063549775888216     -1.2177344185076562      45.919016399855849
   949   4      28.580935118907377      3.6208490504580704      10.740731025993338
   950   4      21.794250402552692      3.9337068923481433      9.8175745621647081
   951   4       28.61727597940564       11.01442969974317      19.650609683981806
   952   4      23.064384007873915        13.9899713857112       36.57551880618891
   953   4      23.196011736487236     0.84767998720284354      32.718444598777531
   954   4      35.031453185386042      6.9096021528516003      5.1938857671951073
   955   4      38.411130672301262      5.8699338366345719       22.16741406942382
   956   4      42.940938356316813      22.602548827737049      22.740748664068555
   957   4      28.323475253013648       12.95552098757862      9.6602936190814219
   958   4      35.781697435174607     -9.0283487744614064        2.43766776640381
   959   4      54.421003512969861      24.926256485976367      32.482366552251698
   960   4      4.5862409539035296      32.011252534321152      56.653977308166105
   961   4      26.092302841242589      41.856050257595648      51.791242866072039
   962   4      17.974186698797162      16.569180035625571      45.813844937489542
   963   4      40.584409226299456      6.3681834831532989      27.568853345638214
   964   4      60.224039741940445      8.4088976599931069      42.490557344601349
   965   4      29.972186191834009       23.99348426448875      16.472477189435256
   966   4      40.603467446984219      22.380466331021907     -10.754254036394947
   967   4     -1.5463444209919193      41.143460393727558      12.255489943981528
   968   4      11.935509551067375       39.94502737229157      20.397291984616103
   969   4      41.558312211636775       -5.68880244081583      19.864366891901874
   970   4      2.7729973550386151      40.336553965328015       37.46112095005504
   971   4      37.291591230964734      18.648019383983836      45.234564954997673
   972   4      40.677186969899815      27.614313507462754      35.312691647667478
   973   4     -2.8832587910377487       47.74328422063995       23.08271479623701
   974   4      32.172567170965927      7.5016238697866982      35.120606257321562
   975   4      15.995711495181947      28.831937626573907      20.454524038755807
   976   4      23.037149343525062      45.895307763052223      45.639587796319944
   977   4      35.057813635346044      10.444040273278461     -4.7115493197700973
   978   4      42.501014777289555      44.121208363112785      43.687571390632904
   979   4      46.510829144812632      51.536458152666846      43.515413757361934
   980   4      2.5245268133187477      34.255028228431392      42.223170451589759
   981   4      30.591292991264883    -0.37288058753381348      22.933287766803737
   982   4       6.160634958282948      32.180743771388471      2.0331636804150741
   983   4      2.3737523264569242      9.8702928444226448      18.425087236098545
   984   4      15.572008349899786      19.415780885461306      29.342833239935874
   985   4      41.655406669119955      8.0036167962985143      30.939977276268316
   986   4      2.2154192489074109    -0.43350830270555701      31.992273267267159
   987   4      2.9783662012119603       47.45809433873103      7.4824946408250055
   988   4      42.947875160568003      17.766520508128206      11.283624339043426
   989   4      9.6828286712736276      32.890860436235698      2.8671190290939079
   990   4       32.77480052455072      10.668188448580809      24.815110743701307
   991   4      24.049036971249208      20.058648952022438      12.705779597390794
   992   4    -0.34287715237911887      19.116496696018974       10.11185975191618
   993   4      56.928479049410505      13.038458896674848      12.100032687378844
   994   4      14.750083793912447      29.726046793210447      1.9605138606175048
   995   4      11.800519394120389      41.126381900893314     -4.0193891862536546
   996   4       43.42399981509714       53.56838945790269      42.668886289070244
   997   4      24.339946856719941      30.078018991249547     -4.9495318684153258
   998   4      26.974714153192703      21.973853615875576      37.990309134169195
   999   4      53.472540079256206      11.332939024663352      11.461615509563277
  1000   4      18.076205968244967    -0.37283908958283607      20.884530622350724
  1001   4      13.265403844825583      2.2705267327188361      22.828939192936737
  1002   4       18.21095277952552      16.606368234077515      14.328189922013543
  1003   4     -8.2098763580677385     -19.849952805429137     -2.2625621685997115
  1004   4       9.361851740842031       11.90748071432952      36.748890423029344
  1005   4      8.9351570127174273      35.587136902424128      22.880526104078829
  1006   4      39.761862400255417       11.17400913048318     -12.394573330593893
  1007   4       0.567316363258628       31.17420948396574      23.495180603074633
  1008   4       46.54926537762546      24.348686389688591      47.524993440999786
  1009   4      14.565512444764423      11.266347516759472       67.11762745069889
  1010   4      41.562523238202765     -14.016918076792516      35.367155741816298
  1011   4      33.420976766033881      3.7737969830954836      17.969771258760257
  1012   4      19.726667701975721      11.117485688145646       47.74545280708184
  1013   4      43.680607017416285       20.31731979590759      32.703818923857916
  1014   4      5.9366024785117251      4.8904699149786532      16.692950729923005
  1015   4      20.318948331109578      25.700807010518094     -5.4125846421832655
  1016   4      31.245552188407022     -1.3378504191052945      32.539117907973683
  1017   4      6.3832661075430721      15.778794799828319      5.6964830825036845
  1018   4      52.801747944575894      10.519216711430943     -16.847821812252537
  1019   4      11.536095884451489     -7.8537639678809885      33.416490715286571
  1020   4      15.231024178256238      17.902234756436826     -5.1369353337976671
  1021   4      40.983685793539379      34.515336157576577      2.8915323294859281
  1022   4      19.054892108481479      45.028879624979751      22.325107548341734
  1023   4      36.086831056651043       12.41515010584361      -7.490961078555407
  1024   4      19.971022809435727      24.359632005832523      22.652539037116778
  1025   4      2.2839443083629369      3.1065190731857868      24.482163845635721
  1026   4      24.832840129332247      20.319975969472164      6.4375371001522064
  1027   4      36.453962778180895      27.635301536524352      7.7938903108943638
  1028   4     -4.1754079868990726      16.124490725403884       16.63542476985408
  1029   4      49.765689788461209      31.307477974512729      8.8717646600346978
  1030   4      18.246328344428033      20.933834875740988      22.186234469682798
  1031   4      30.018039212414944      26.559483986141903      13.708889312163775
  1032   4      44.940454221839055     -3.5908201632451795      6.4137690131203655
  1033   4       44.98189152159577      13.835074602721788      5.1840897294906334
  1034   4      9.6509431977684592      15.822590180487879      47.670328759754888
  1035   4      29.169514768220889      35.454676334881555      13.178366543970466
  1036   4      18.496835245474845       19.82360120350361      44.222066133868438
  1037   4      45.006156411629043      22.224406943810791      50.257938376438773
  1038   4      33.861331298013852      28.617948101951921      22.572627747146086
  1039   4      21.310433795586228       19.42903812448704      33.410654185002429
  1040   4      48.911012250288962      12.582659117709348     -2.3038139144644041
  1041   4      30.496657281735963     -2.6073833623828273    -0.46364465638062563
  1042   4      35.093143155992877      15.889901946087337      28.547125842682998
  1043   4       25.79659089607658     -1.7541709706672473      14.324132322916833
  1044   4      14.618487800492524      30.156203713674834      37.218048749954498
  1045   4      10.864933897126008      6.7329361104802494      15.316477145373737
  1046   4      22.007671617147313      31.514053821306671      33.307819990347021
  1047   4      8.3434740230615834      29.920972076959405      4.0708983055437669
  1048   4      37.867260632235855      40.798363690717885      40.489753937060591
  1049   4      34.186846765447847      28.288568382056965      39.393943595711384
  1050   4      26.461829776681505      33.338108761449639      39.862119665335079
  1051   4      15.043311701258073     0.66068622414728306       12.44635049355152
  1052   4      2.5370855618621042      9.2692753927508829      2.9288041882832703
  1053   4      13.246717600096737      31.071177956869608      27.204821808086219
  1054   4      18.339798358398593      5.8711576277245197      38.462448485704094
  1055   4    -0.88160658134114933      34.358966706574378      10.050649781589732
  1056   4      31.191464334506872      28.881630503346976       19.96159462829042
  1057   4      26.785532259617344      20.953631949435614      23.166654323052082
  1058   4      43.992724607161584      27.348264825653477      28.855306763087398
  1059   4      21.499469217895999      31.811607226194944      48.624584647210398
  1060   4      9.4608254127403448      1.3801735724525956      40.371770046609868
  1061   4     -5.5513487177545446      7.4368053431446546      3.9056299225979316
  1062   4      17.954228347398629      7.2359193591202065      5.2023182433995663
  1063   4      41.999604200283578       32.61043581739623       14.61733879622361
  1064   4      9.9328517079167522      22.047939989929887      13.282018812306143
  1065   4       35.54450748270682      39.236570362542722      47.443943723483066
  1066   4     -1.3260688380163164      32.485206199261164      2.7899997101217591
  1067   4      46.758073710146689      18.238161232792731      32.386832256039689
  1068   4      21.882051625540875      42.388304128225371      45.081406748673807
  1069   4      55.054313276435252      29.303813680516008      38.547608676848867
  1070   4      30.793015661488511      17.978065867833458     -5.6690111842800155
  1071   4      14.261559985030715      31.030923207953414      7.8072795229583782
  1072   4      -7.880821922372732      30.928094270542921      4.3564521073859117
  1073   4    0.040317452708227126      45.013506690593303      17.117434481045986
  1074   4      23.279863471978196      44.685413442867393      19.003555372314793
  1075   4      2.2195793909582058      -8.812136835866708       -2.90534254449397
  1076   4      3.1877356968386934      51.255659167869538      15.803787332304932
  1077   4      40.117571202578098      45.515908131046245      0.3604583377847223
  1078   4      4.9143473459485785      27.750955519804666      14.743930854213506
  1079   4      33.822059313802939      1.4265573018753581      27.367441337642926
  1080   4      42.050281112978283      36.967202182234971      46.235445329668153
  1081   4      2.6359966167746256      6.4651571833942496     -3.1431505882749655
  1082   4      4.2261295911150025      33.380053814994966      53.334241297504768
  1083   4      51.830355280976491      54.628763826311527       35.98204484325862
  1084   4      15.580406251018443      47.400622996732174      39.506139614987873
  1085   4      24.887788693271464      3.2645429984491492      20.338918562300179
  1086   4      48.868764271109946      21.721819734653774      46.103590067165328
  1087   4      24.464879341050146      9.9674380346093692      12.673793207720388
  1088   4     -1.3182140159815472      42.583596342019959      1.3899760323927952
  1089   4      15.040913203314183      23.578320149284835      39.227047759604488
  1090   4      21.282784833329565     -2.3016917186106753      29.491427031475617
  1091   4      10.044032176358195      44.092088573870356      2.9307880647583811
  1092   4      14.351719394078614      38.406308672818007      55.200458168808524
  1093   4      15.366465195974346      42.456925076718896      38.856876129619849
  1094   4      22.894062066720981      26.401922486856449      65.289416539443224
  1095   4      3.4847266690678094      5.8953344536236667      26.811384677227583
  1096   4      6.3190117721487953      49.322627049844982      3.8340841674804582
  1097   4      49.522138926612215      29.578235527807696      35.869950339692139
  1098   4      32.544539986445074     -3.2318324408492431      24.528450117752584
  1099   4       8.666225401215037      50.678859816920529      60.461275735199145
  1100   4      31.187855655834277      2.8452881036232673      25.010343699176619
  1101   4      21.706173003612548      16.502299820766932      23.013252665747775
  1102   4      22.370591068533408      46.591191041504175      21.236955422849732
  1103   4        31.2715958064856      50.130914166288839      30.000747730144784
  1104   4      66.269970359243246      15.252527281347435      42.374544424018595
  1105   4      5.7468267512295661      28.492997390059838      30.914674387710097
  1106   4      15.926764687826447      2.9431123596267761      17.985844093726101
  1107   4      58.558550294126249      23.652621548216874      43.657211185297541
  1108   4      6.3758892885178788     -3.0340751116430207      25.655072375628492
  1109   4      21.205482361706775      24.702817641319943       29.41879971534286
  1110   4      28.150413930431132      4.0555696799107643      25.854288225567828
  1111   4      21.617257688245498       37.41220908736549      58.522262359002887
  1112   4      27.771680500224424      29.877636679943713      45.469850067601897
  1113   4      22.903315201316953      23.220347083959769      14.383335882986936
  1114   4      -1.051992341212179       9.645365525980468      18.284224064858986
  1115   4      10.198982045115219      5.2641841662056548      20.610592924105781
  1116   4      31.357401856387039      14.158190579417271      3.8731488883046521
  1117   4      47.133705334790214        60.5333603643994      28.624205993581295
  1118   4      46.411663054891143      25.830939414822844      20.244391125973493
  1119   4      28.782884630695694      5.7830166410207982      34.624324684253324
  1120   4       37.38278310888888      3.6876181063016413     -5.7351560897246943
  1121   4     -4.3860755627789807     -4.1424245935562558      37.038090375553303
  1122   4      12.013164202954837      3.8179536816268391      51.691588671577847
  1123   4      40.545217708222644      20.223162855119966      21.332361185476323
  1124   4      42.597558320769934      3.4119447020915237     -19.959023042613406
  1125   4      20.983373927692561     -6.9018453712000927      23.263628071122081
  1126   4      44.868877218799611       38.82093287899135      10.802124076342372
  1127   4      31.172540524794346     -4.2306555052497092      13.654498894586423
  1128   4      29.887391681799425      11.100914448993654      2.2707624859181772
  1129   4      27.647422082122933      19.289604826741677      20.250358879192461
  1130   4      1.4492907310459386      65.626949054840779       50.86598006471344
  1131   4      42.766658102339214      25.186814176701283      19.839249542715045
  1132   4      34.179983705797511      39.923031022246484      40.989626989418056
  1133   4       4.329435925051361      41.619283711713074      7.0827015402271245
  1134   4      19.142916593708854    -0.17834549644809181      2.9371771431925473
  1135   4      39.357125765192727      13.156329423183566       24.95378318191749
  1136   4      48.864105407796188      40.887571882778325      24.563871552658547
  1137   4      46.496477950231075      28.057364964647217      17.215413030632959
  1138   4     -1.0652852658000362      40.349225896709534      21.182288127816822
  1139   4      32.784850117039248      31.527570246599542      37.907729518563123
  1140   4     -2.5947846168712143      38.526444794257607     -7.9001518163530084
  1141   4      35.599356235272808        4.60469838059079     -20.293818194830987
  1142   4      22.569728847572932      17.285337400679587    -0.16594677429089422
  1143   4      14.592749005216561      2.2438971565901782      9.0166047744202427
  1144   4      34.159754507558759      34.778608283495139      24.709340550355893
  1145   3      47.703835632938763       19.73511581347482      31.551427222803028
  1146   3     -1.0209055299553864      25.726487650294359     -2.2556130472899203
  1147   3      48.776091373252882      40.745904245698064      22.642233209500294
  1148   3     0.08253650235420909      33.483362515546617      2.2748388910398445
  1149   3      2.8305380323245899      56.348020674404545     -13.095154521362106
  1150   3      37.249273083485335      13.401524649047293      33.621507141805331
  1151   3      41.852699300088631     -10.063367808766596       33.30985577070841
  1152   3      4.2112498915878716      8.4032989981384851      2.6810737621605569
  1153   3      45.864547523680073      2.4614751806192254      30.472743032757315
  1154   3       29.50875883254383      2.6849503120165363      25.933985984913853
  1155   3      29.459016589758665      17.518099642296576      28.236960325605899
  1156   3      16.284251076934105      49.541879603984967      42.656295526486325
  1157   3     0.28128520539169966      38.560830621146756      9.2580373037702426
  1158   3      17.412031408804069      7.6606376313761801       38.39187888171513
  1159   3      1.5832236901236483      16.797323769020263      25.449056455945541
  1160   3     -1.5506874040175402      37.539110283650629      33.977265405413782
  1161   3     -2.5586456121069414      34.131249883682585      24.922669857796915
  1162   3      22.183156296764238      35.714971075710579      58.059645881623467
  1163   3      15.699156521123301      20.026046541261131      27.663832429266844
  1164   3      15.161594779458015    0.088645655675044066     0.76266280930074992
  1165   3      16.506283928896661       11.46016902781742      18.625872756595172
  1166   3      41.969956928823727       6.375191560447373      31.736695334747164
  1167   3      38.496522200111151      2.5985887038607944      32.711862548366575
  1168   3      10.066490356261518      36.346581552523006       20.93522717773239
  1169   3      39.027736167814389      45.031800801444547      39.532459314482495
  1170   3      20.496922871404482      22.720356179361868      45.282784338223209
  1171   3       2.426241104885781      33.738489351864338      3.7193740684129097
  1172   3      37.565953536199871      5.2709816455975096     -5.1318593450116001
  1173   3      40.087027436812271      8.3037071544782144      50.214432021662333
  1174   3      26.832456833490774      19.586757918004995      21.896016426950695
  1175   3      37.091635693286229      3.7866076212217359      27.766940422009764
  1176   3      38.906044498972001      49.675738668763927      34.700822269750134
  1177   3      33.015629287576118      14.022769512765473      2.4945053960260313
  1178   3      19.755383163111869      20.042357609654204      21.455552822177605
  1179   3      39.909052190113442      12.691134950503862     -16.408539376307154
  1180   3      67.475248473057704      18.277553762624851      45.432907877160183
  1181   3      23.330544163783451      18.115550332220867      1.1987764380696784
  1182   3      39.937082427619039      33.449848847855286       18.07533263858906
  1183   3       45.02374897614159      52.500614324589179      42.701848488270848
  1184   3      21.555823085787058      18.044099352749999      21.804315092138552
  1185   3      5.5966892047575048      36.430724529169581    0.044032437601819324
  1186   3      16.740501398138441      20.780020829553369      7.3380591695059545
  1187   3      21.304463362431129      43.456603219711546      40.689020944546357
  1188   3      15.707470859426623      12.808267733531268      47.482280478733905
  1189   3      23.205089573183756      6.2302715470866916      23.180705339929638
  1190   3     -5.6567926828371027      34.396271124904381      34.494971005468308
  1191   3      47.416339008977445      19.740930130817937      42.143144106982014
  1192   3      37.517398133875147      36.443383609249999       9.530100587395637
  1193   3      19.664978807768996      14.307300295547124      9.3648432190325721
  1194   3      4.5994345325215589      30.107293103362295      7.2638961490774241
  1195   3      36.311890632990853      38.339032559925784      23.841715862142497
  1196   3      42.744174128626867      23.821338422629591       21.36083881713056
  1197   3       29.45205627019655      19.357484780551516      20.272521918572775
  1198   3     -6.9647279862880325      15.557802266808759     -8.9384918151729309
  1199   3      22.049704065613859      20.984511262947365      33.181235735634793
  1200   3      16.184335484860302       17.05190441671294      45.176190016165478
  1201   3      6.8746968658266754     -5.9703540634767283      40.365295393889006
  1202   3      41.202006621374899      3.7453900331608847     -15.863977391868149
  1203   3    -0.94043273345831546     -11.494879316053149      54.369642093670073
  1204   3      36.672309853381925      11.895873240464686     -9.1669763855882564
  1205   3      29.137699987453342      9.9064739613179036      12.601251131214001
  1206   3      50.060219734289021      25.679003861458753      44.663297406676527
  1207   3      8.8726920438219068    -0.29779748493476588     -2.6135866836421591
  1208   3      24.753642292288124      45.575171681579427      45.845540822551619
  1209   3      25.051618584841272      21.083967886846704      11.368755344132882
  1210   3      58.168032584867966     -3.1647600958263724      17.263690776917056
  1211   3       6.960849062288843      44.289478755858433      6.7637323241972807
  1212   3    -0.39775439419588005      31.719608088273098      4.4493085863246185
  1213   3      32.455462252217259      27.654817799823682      38.470889910747985
  1214   3      29.948439389189133      27.515486503865855      12.012700349947039
  1215   3      28.233531888456636     -8.5118063719628303      21.246736619340865
  1216   3       33.12241535607378       10.05498722460578     -4.8457070364279131
  1217   3      25.116875647206854      55.751027786625905      36.552317757371682
  1218   3      37.806113334280134      42.365145228593718        39.4774461019367
  1219   3      25.703346552743071      45.965966506986675      37.083741525803902
  1220   3      61.843767302218069      8.1681337008969823      43.534067861615135
  1221   3      66.479241117881671       5.361134284319288     -2.6653943541917151
  1222   3       26.67965346023496      3.2168098381573094      25.513646351548918
  1223   3      42.688464025370713      4.2018265381987687     -18.218256307966588
  1224   3      39.889533365692891      42.576977873728296      20.617281403722053
  1225   3      20.224782516679884      45.479564186937147      42.683899204411098
  1226   3      18.356301765950114      23.475830911076752     -1.8829087088463914
  1227   3       45.41005303997143      35.053079898641627      31.332723189215894
  1228   3    -0.34909476202096051     -2.8543362842550337      10.438158775551605
  1229   3      24.037047269753977      16.216781430441248    -0.83373579137204801
  1230   3      51.393307860581338      31.762322967975923      8.3383461242157466
  1231   3       32.34054464379431     0.86182631071493998      28.477836657450112
  1232   3      16.979860945464495      42.446058260344998      64.767483855724578
  1233   3      35.861946425067835      1.8492765153612876      31.967062506034949
  1234   3      1.1440408093954979      28.007331399776362      37.032547587818492
  1235   3      22.101719298166834      17.465930458006255      24.594072945147136
  1236   3      3.2422012531910553      35.340215162786727      33.057481706423822
  1237   3      14.803872523284431      50.181092876591435      23.502315642133119
  1238   3      39.887338632513334      46.857966162882356     -2.7955506924609432
  1239   3      23.805560384620748      44.354567344146311      41.690894448066317
  1240   3      42.055037710853512      35.533550275898349      18.035209960769262
  1241   3      22.944640035117953      42.997934654580391      19.624836861369694
  1242   3      14.812679862256104       6.462633404571676   -0.072124587939857904
  1243   3      42.098428959025782       39.41359707506232      17.507606638301855
  1244   3      2.9396237640757796      1.6048818149365105      17.683928222315831
  1245   3      20.075430527968212      24.987939206675776      50.123032084307546
  1246   3      33.615525074600249      32.801329870194728      38.905124083712082
  1247   3      54.517864295229323      26.695446103567747      31.830590067444714
  1248   3      1.8813935837744913      14.704968987018198      39.014911586117613
  1249   3      59.407991057491074      49.411288335078304      41.568328604964982
  1250   3      18.234407600121092     -4.8174008530484125      40.225606975750694
  1251   3      21.625432580166564      42.971549386924096      43.176949343028042
  1252   3      10.857909866946631      41.146716780073028       35.37110187122024
  1253   3      48.058362885732492      27.111272615038761      9.6680321043565858
  1254   3      8.1668370125231089      34.278403654163043       21.48318697555532
  1255   3      18.041801666132809      11.635795829665504       46.70274312130887
  1256   3      4.9086670420614436      15.636374841909161        15.3326570908063
  1257   3      9.9984386308396296      14.022125994251011      12.589142331217372
  1258   3      37.297047411280779      9.2419491210191431      38.454177924170601
  1259   3      22.747549013828216      24.861215582380591      64.121757846611985
  1260   3      32.944079645201711    -0.62481954196639022      32.686197297278454
  1261   3      8.0439268606255112      34.916810626849959      24.214217288791382
  1262   3      26.332160746202959   -0.068415430678389982      25.001999606159366
  1263   3    -0.51318381310567285      30.220245323488857      37.322799684824481
  1264   3      26.193318550148184     -11.344423410916841      28.646579765619713
  1265   3       37.97597656530111      11.610493207114361       37.28646646970568
  1266   3      4.6381756818766942      3.3971760785256313      16.276446290351036
  1267   3      53.086059597069173      43.435440589992176      7.3411422328747395
  1268   3      44.497898569689944      18.020594869573355      12.414304076867612
  1269   3       34.11786164693725     -4.0228393719822844      33.335750468804349
  1270   3      30.336184065684808      6.6883141896664666      35.110706665074467
  1271   3      42.852418074862257      26.724614195462241      20.982260391644257
  1272   3      51.329945636795365      40.972668817450256       7.598475783039853
  1273   3      35.113576986831639      6.8223002437972822      3.3547557494436231
  1274   3      47.039232349886824      10.910503417418083      19.472349129795774
  1275   3      6.8618982903205712      43.965670360785801      37.945854910353461
  1276   3      23.833409877020117      39.960545799382068      39.385987002209973
  1277   3      22.592458253056158      8.5036721526893011      24.741466068620902
  1278   3     0.58213889036026534       9.579198652455899      19.179987087292677
  1279   3      42.066373134098143      33.182168022901308      16.434066683713272
  1280   3      23.272866249915381      22.999207576321037     -3.9825661556402054
  1281   3      17.120214102707504      46.499369082407604      38.858675866295592
  1282   3      35.399353309156531      10.906978421175051     -6.5167019154598025
  1283   3      45.861393490000879      35.138421180620526       34.17821827141622
  1284   3      26.268381886916458       20.10330826982992      24.778339310971102
  1285   3      18.169939352167358      15.819555409454203       43.99421111609341
  1286   3      39.419012767179197      11.303347630613757      34.584484331017244
  1287   3      30.867501017035021      12.527648643000218      3.0608224504480135
  1288   3      21.724498986924885      39.375374686422631      20.437454579910959
  1289   3      34.256919413400674      21.667065501052811      18.736625707403341
  1290   3      17.397595567274944    -0.51532516286564156      2.3727987624935949
  1291   3      26.222156094456977      10.674806207401129      12.583887279428755
  1292   3    -0.06150809041722223      31.373302512140807      7.2188189355612886
  1293   3       17.64180835242507      47.160780322331462      43.648781877769565
  1294   3      34.597907109932756      26.324504452909633       39.93203770638813
  1295   3      9.7688653660115765        31.8823516150999      44.127032991799702
  1296   3      8.6889750180783647     -4.6686807572621651      22.116511011884629
  1297   3      21.564532749016156      12.846953474291682      6.2723959841664954
  1298   3        35.7160476283535      29.120539784752797      40.102278098120486
  1299   3      35.728437671564514       31.95728133071875      40.495685521961654
  1300   3       27.84265591755959      6.2150756494072557      36.214373330626138
  1301   3      30.786774481381975      16.953086604306414      32.521314425072696
  1302   3       21.03498229201692      39.551441657394243      37.032216709020254
  1303   3      15.677680794587625      31.438158274860431       9.007362360932694
  1304   3      29.514517383896901       28.29054423842322      20.685800880957178
  1305   3      13.851535895623158    -0.84936520139899641     -5.4380048257460105
  1306   3      8.3848095631171162      17.066634156403982      25.909272943988704
  1307   3      46.212911638896252      5.3332156591181983       21.76164113695517
  1308   3      7.6468011516033636     -7.2780357956223538      52.746612217165548
  1309   3       22.38576096516524      20.705099073141263      21.704425060421126
  1310   3       2.302379253735666      58.309871517391947       4.651522969326205
  1311   3      6.9900646286257651      30.546186372133366      2.9180071230234144
  1312   3       9.946795637170073      6.8811621764037314      16.810508555837021
  1313   3      30.975864237679847      25.073167282949665      13.119734959952215
  1314   3      31.796809577841142     -2.0867373322024165     0.62470147991081926
  1315   3     -8.8633960308160091      41.484749450517562      16.106895701421841
  1316   3      42.753780810547838      47.770727851657703     -2.7294820619986995
  1317   3      17.022794459078174       7.608992754328475     -1.5147056826268614
  1318   3      28.933212224999405      25.721919592687417      28.728516827393666
  1319   3      31.632232937713695     -5.5914199286386559      14.756251621895055
  1320   3      17.433687950502353      49.317100005266695      22.561632551086802
  1321   3      35.870310435551801       4.133229021846744       30.27367776287636
  1322   3       18.85322629320131      22.560801932172971      22.524987881197795
  1323   3      28.375389960802448      33.945744218821062      13.732386206625575
  1324   3      46.239927812702881      24.732241829644853      21.948772164112793
  1325   3     -4.7070700516587003      6.9026591799123223      2.2410263119843972
  1326   3       21.55911071934942     -8.0629536931631876      28.196289707413257
  1327   3     -2.0141098891195219      26.118152356635743      12.224442746271199
  1328   3      32.013575936757285       10.64058816326693      26.501265196742217
  1329   3      13.346668135532305      1.7665749605308481      21.130943121425652
  1330   3       21.84738015461523     -7.1042055103370441      21.630077593442174
  1331   3     -3.7187095100575651      19.328698242309031      32.204197718262513
  1332   3      28.459381348204264      13.710523342775177      7.6251278619281333
  1333   3      56.643353486721665      45.257638541155643      24.670458904009106
  1334   3      28.042379928008103      38.471649206718936      29.900086058507096
  1335   3      47.993317931889962      26.281866779494674      35.939007985782695
  1336   3      5.3658845464241685      33.809509203595631      1.3077104691198402
  1337   3      24.196591299103495     -1.3155640624175102      13.353912797787054
  1338   3      44.285802458171389      36.568533080823357      5.6090387629436398
  1339   3      24.782842452483255      42.156444260784781      52.869293118883178
  1340   3       42.03750576473881      45.140501011812177      45.186095932110192
  1341   3      7.9040854446374116      3.4411142962639993      10.793475025795825
  1342   3      19.887501451051914      42.266340845600325      45.184274162547432
  1343   3      1.3008927454929702      22.879175265190558      45.163437636501982
  1344   3       50.51605706119733      38.267562258505976      6.5455934370533466
  1345   3     -2.5684872251122908      17.246371305331234      16.426844469683747
  1346   3      21.517349589554499      38.399713302380725      17.855523273756468
  1347   3      4.1806702110338048      -4.271549277958175      -11.26507110300825
  1348   3      2.8096215667458955      42.011059456997067      38.235603845603407
  1349   3      34.947481996938983      28.315462787725039      24.167115656154024
  1350   3      23.205729290429638     -8.3690555866132108      18.201636975939007
  1351   3      19.269853260071777     -7.8256553739353603      22.604713352512949
  1352   3      31.397091993667047      45.904087524327565      33.678624820812388
  1353   3      14.591233683920507      1.8105554923141349      17.920663744477398
  1354   3      22.008273602198567     -0.6272419661760269      28.844542911504764
  1355   3      12.688340503881095      35.688605813989916      20.062044063988061
  1356   3     0.86584048120844492      45.762220930841707      29.811782560680317
  1357   3       21.25334864846349      38.184728218570456      39.705752078505512
  1358   3      5.2479815267542698       43.95618270215423      9.7444779950184603
  1359   3     -4.2832880012608427      4.0703218784741617      28.451623451886935
  1360   3      9.5630511437899148      23.981522691268559      9.5827885271071889
  1361   3      23.637424594584122      41.721060911085601      44.711933658056161
  1362   3      32.497967025087966      29.115123913234644      21.176442175313504
  1363   3      28.189300338024886      11.570600328726282      2.0639687096067383
  1364   3      24.356001297524291      18.023601147007071      26.468114175800821
  1365   3      6.4047530065796829        36.0582245782253      29.344040588909472
  1366   3      46.279364722755716      39.954687237205029      22.488404053451866
  1367   3      8.7763787274958514      44.018777630875512      4.3346827607098524
  1368   3      24.091385511057794      37.959991897943567       16.64572751786211
  1369   3      48.201150039406137      32.595169208299438      23.100118915843389
  1370   3      46.709453065100107       19.00471918179781      34.209877465140501
  1371   3      12.701234419138039      24.272853640168403      25.475266210919653
  1372   3      16.581052289650486      31.157593293336181      11.868830475136521
  1373   3      2.1751662234221376       19.82657573887942      19.162610695571306
  1374   3       6.165561066247685      41.418710956836875      26.904498038186642
  1375   3      22.416303728067277      2.2220495194412448      9.8379419839751225
  1376   3       7.613842470969745      10.534604885210289     0.20378873063227862
  1377   3      18.412960920649699      30.892685587128863      58.238810510641976
  1378   3     -3.2927441188747011      40.375109972479748      11.721068073210036
  1379   3      5.6929967075382839      31.115069663236937     0.62133752503495643
  1380   3      24.273757273274406      19.623188181957623      4.7085009689905188
  1381   3      39.574484924311349      4.3960852819590732       59.66042811808083
  1382   3     -0.5522476312618666      39.575766885869179      11.836454345664437
  1383   3     -6.4798968172494211      8.8305356038119758      3.1228882475618183
  1384   3      49.956471967193217      53.963842996361201      36.157567356177438
  1385   3      24.850662799821738      1.1534169876246938      10.227265340558763
  1386   3      25.420110439209996      40.403976281823851       42.77888284153596
  1387   3      6.3945177318572721      -5.415328611209608       20.76373322215397
  1388   3      37.573940869873155      49.813128915983313      16.050763488182781
  1389   3      2.3214519308387147        32.5478979648395      43.060212441125785
  1390   3      31.242896130552083      36.952671842262092      36.173327780642857
  1391   3     0.14258749544081517      26.796529743228479      55.873174873919346
  1392   3      39.329369092771692      53.711020399647118      27.355777803164187
  1393   3       26.57210901699106     -13.983716947749214      29.803316959351275
  1394   3      15.462262185739732      30.576549375402966       3.474398953345196
  1395   3       30.42539002344127      30.740553618979572      19.887258279646904
  1396   3      37.671848894488171      26.339125337319441      56.852366924758009
  1397   3      27.798719937870008     -4.6100779029692944     -6.8600410414028499
  1398   3      19.556916952195028      6.6555811849973283      37.090603928335419
  1399   3      6.6467192678967439      42.951470310516683      29.134434234565123
  1400   3      24.044867667950278      14.519353015781052       38.06078787127457
  1401   3      36.045271824510294      40.403553345021862      40.930611598607584
  1402   3      7.4124441759084494      5.9469100652763851      17.342258249540549
  1403   3      31.997473633824075      40.637345877905496      17.811997886615131
  1404   3      3.4964812114777035     -9.8956300748428827     -2.3531700218341922
  1405   3      40.345466932413188      35.758306172172382      26.541185806904156
  1406   3      30.423510693425435      30.461862879992744      29.757463766718953
  1407   3      42.573963771557025      19.954592132380299      31.103950912976444
  1408   3      35.557934968313965     -9.1630058427057808     0.68160363462660278
  1409   3      3.0259560519784894     -23.830452716417067      46.522834861885798
  1410   3      37.229727936554184      50.204010360990274      20.801363654331706
  1411   3      49.370908214144215      13.295456916714922      -11.66077820217679
  1412   3      19.350939215561564     -6.9000048335994943     -7.0499654456811376
  1413   3      33.480816320074858      9.5863341358901177      18.161611804263078
  1414   3      16.489867671992126      43.811915536114327      38.025670634481322
  1415   3      5.6245813205625979      34.383363383542942      31.614483063545929
  1416   3     -2.4389479744895919      27.785290309451781      6.5961513169497827
  1417   3      3.9503528579212652      5.9195303664353993     -4.5129317032660268
  1418   3      23.255870743008629       41.38883446662711      41.633407802921482
  1419   3      27.579307845522962       29.30489341837486       22.32299737136168
  1420   3      39.559490063479508      21.544703329388462      20.897694645154051
  1421   3      7.9388418036528723      31.468588944521553        21.4683255303895
  1422   3      11.209021226020496      15.148195065558456      48.447953109794959
  1423   3      16.847438247941813      19.320373996287064       43.64671880417233
  1424   3       44.33397188872113      44.751814493509713     -4.9780954677120643
  1425   3      2.5684154941543196      4.5306336394901141      25.726454436176724
  1426   3      23.223332223014967      21.602709063627106      13.376447479764865
  1427   3      40.588812251700588      53.174152099769614      49.126697209660605
  1428   3      9.0798382417239658     -6.1432354309374571      37.141316083504336
  1429   3      28.576962879254534       16.92431563652206       30.81487337270995
  1430   3      29.839901679115847      25.453542226405482      15.465861895813234
  1431   3      41.461551091258499      11.034153815629196      10.736419023919863
  1432   3       33.80796525784627     -10.496379619157054      18.007529653351479
  1433   3      30.702917528674078      22.960632443053292      15.005745561729228
  1434   3      31.105037240177108     -8.8668923601138356       20.36308541100048
  1435   3       44.76985442033628       15.10197274459475      3.9856758151588676
  1436   3       47.53811435071183      27.875120830580524      38.127037001440243
  1437   3      2.3509629903841871      30.227495386952302      35.636613424751644
  1438   3     -8.0309010461411852      51.452450622570211      28.853855074455211
  1439   3      37.848696244177795       2.499769162701035     -18.960796340395973
  1440   3       27.74753414733199       30.93303313988045      5.3625555731460652
  1441   3      28.990002243233754      24.410945156532058      26.018185062807511
  1442   3      23.255804770005259     0.98944455559889921      30.784164391869169
  1443   3      19.734214282170672     0.50134742398811916      20.826280547169482
  1444   3      40.959315000703796      44.645962672844796     -1.0175295333899634
  1445   3      10.482505114735948      22.538304969689907      14.890989735029438
  1446   3      17.297653702893378      42.193949673975226      43.596069947155577
  1447   3      22.943092008365483      15.609567681076845      17.152396612464962
  1448   3       28.09951300027663      1.9643583559807538      11.293249832330492
  1449   3      33.798647701325486      57.173021787530956      34.937846037490026
  1450   3      3.8069058574141788      32.542026241275806      54.906692033025912
  1451   3      18.370427508733417      21.010446979077013       45.80927072243653
  1452   3    -0.53645998988548216      28.243979918123269      16.495569263647965
  1453   3      33.721953959167045    -0.85836865207600943      3.9394204374623154
  1454   3      23.833169194105476      45.252725905175026      20.823297754409072
  1455   3      18.023799702198779       45.46817734131146      36.438543303582151
  1456   3      25.756623240200387      43.148062621618216      43.359732229381279
  1457   3      4.1899671057420287      43.577094611466961      40.004347088417212
  1458   3      18.351444206894016        21.6694682866849     -5.3697815078174385
  1459   3    -0.10295357433774052      42.886706399803366     -0.2192275220392437
  1460   3      22.261915401907249      43.953548361012871      45.877545250929579
  1461   3      19.006004111010416      16.195363870018671      12.704739722528423
  1462   3    0.095382949237410045      24.163072341054935      11.899437700297325
  1463   3    -0.19673528490718739      15.808563693562576       23.38298573728806
  1464   3     -3.2716964079987632      28.708017834378001      39.877141990340263
  1465   3      33.685875017561401      39.390460650573225      47.545948017076491
  1466   3      40.818066156512351       7.136327758819947      29.236831538873279
  1467   3      58.092350376983106      25.072951705299559      20.778577266775788
  1468   3      7.8731622262891667      -7.549778037824634       35.23744927637491
  1469   3      28.628915431000419      4.3839318635237978      12.493802906009579
  1470   3       17.56390115219817      44.594260846847327      42.665194641578196
  1471   3      34.459651530766969      22.403863564306597       33.42090185318505
  1472   3      1.6780836257756102       10.06329680039301      8.4545640622245379
  1473   3      22.215746192614009    -0.38352360390979756      20.648950606057806
  1474   3      24.049093759509574      31.607142577414148       33.21116526030891
  1475   3      5.9300631180592092      9.2684194892929668      25.296573883713723
  1476   3      32.386967584838338      2.1690770243630899      26.196658896074663
  1477   3      15.852292186890828      10.035669778891442     -1.1592990669882097
  1478   3      9.1102924982065527      6.1680760709811118      19.479288423639051
  1479   3     0.52439810796052877      48.121029616482048      39.570446028788155
  1480   3      30.615139934701126      3.4345777587487327      59.527657308024942
  1481   3      6.2091265345902293      38.981257719953824      28.436532683141877
  1482   3     -2.0715067842280446      45.646300609016166      30.090023576104766
  1483   3     -8.8893634771090237      43.399586272536858      13.743336704390385
  1484   3       27.94456554658499       34.16255622288125      40.056144808164177
  1485   3      46.817744963721246      18.041748276628283      13.988903085275119
  1486   3      38.034564217901078      31.132736258670548      17.355688413793992
  1487   3      17.750467806810004      14.603169970862867      46.447399536726088
  1488   3      20.079278113291316     -5.2751970776653279      22.794001200449227
  1489   3      36.945179021582398      10.609006510860082       33.84125024936597
  1490   3      31.115178048204317      8.7927893960062278     -3.5996152462134545
  1491   3       30.92031669169662      43.171813681092836      8.5816437924422271
  1492   3      45.638757377131967      38.734632054454387      32.067932520596791
  1493   3      37.892258636176784      46.071583881914783     -6.7601462433409933
  1494   3      15.080386265053116      6.5287666809613523     -2.8732534816930206
  1495   3      1.7581105101274908      38.106347096420556      60.282396478473323
  1496   3      67.507972270007016      32.361299334686912      15.021418946635928
  1497   3       30.12861136280755     -3.1376122188183642      14.799811438169312
  1498   3      45.225841066301513      47.261477689241097      44.682666135969235
  1499   3      17.408923731379659      18.333770352194094      5.8170709523718243
  1500   3      28.621197525518625      32.933402087799323      19.509469118591458
  1501   3      42.242746984156469       21.08147315269828      22.085778561903076
  1502   3      21.921857004861092      46.274991335167847      40.733818521792401
  1503   3      27.103052177106207      18.771462227866895      27.678271037469923
  1504   3       5.635185310523636     -4.8532193206587548      25.312954302581229
  1505   3      44.676810008631207        20.8193145122328      34.417360108364335
  1506   3      14.321992315259216      17.686450280510538      35.221836481861331
  1507   3     -4.5431487278892462      21.275036012150505      51.769301337197767
  1508   3      7.1970408808738311      24.898998580173373     -15.039058976500101
  1509   3      11.866303435896365      18.723247407827223      7.0527824003727932
  1510   3      1.7402483501899155     -7.9005294757716333     -1.2487867685103653
  1511   3      25.084008266221836       21.55694972674398      22.738364436349066
  1512   3     -3.2591668003301004      7.6748940186970689       21.61170442911186
  1513   3      3.1737942326131203      35.620209993916731      50.486303527551179
  1514   3      25.602619351522893      42.367103500439455      40.750754512661793
  1515   3       9.153740183020231      23.706102974846107      49.856382393951648
  1516   3    -0.75146656293629965      13.338583776189271      20.139621454009379
  1517   3      53.556905096296241      41.307213105744864      8.9394112534710128
  1518   3     -2.1971191250040283      26.703536406902543      18.479481571173988
  1519   3      41.810767344313888      38.804832153956397       45.84075708780933
  1520   3      6.8058488698585089     -7.5415049488476225      37.921752587346155
  1521   3      1.0265750748076401      20.000653082467771      8.9137541243082747
  1522   3     -8.5463635565480285      12.834115744051418      37.188216928213357
  1523   3      8.9725073736455592      46.128678913461535      19.972116198165423
  1524   3      14.490241983901248      14.526505600310648      50.308527139984591
  1525   3      46.998078419369769      52.376555968019879      45.064274238087819
  1526   3      45.503781378701817      50.084725848873966      44.310608928234593
  1527   3        4.87470811463945      45.133228514450913      29.658505096011552
  1528   3      15.519244639871497       31.32165764085979      45.189552118560741
  1529   3      15.434803416802554      11.922314483451711      49.949330353690513
  1530   3      7.8619516062518633     -6.1058775929559284      24.690628734453458
  1531   3     -8.1448758883889294      32.806982549581754      3.4866454097120938
  1532   3      10.063826156075725      3.8851394388432174      29.735783736078503
  1533   3      13.298164070345308      31.537636519950482      36.906869315296682
  1534   3      30.727271588127017      15.769372326610412      29.626361298559228
  1535   3      16.276265135767485      49.056582905200422      39.357193380447889
  1536   3      7.9590484685616696      24.112912232524639      7.3053095069061289
  1537   3      14.842576470731315      1.6300802553978326      10.859704579963205
  1538   3      15.647607662190181     -1.8312323272722555      41.407137336514239
  1539   3     -1.4421882190913196       18.42807377848667      11.484219135368544
  1540   3      45.408928671856245      28.069806253186211      9.1361290156495745
  1541   3      21.311123171716922      40.820839137118831      39.801839492811609
  1542   3      34.686479788393243      2.6746865196809204     -20.466346433434452
  1543   3      7.9584646919128712      33.009637142146453      50.842645374971035
  1544   3     -3.2944349289692711       50.40693099802666      17.066961054930307
  1545   3      29.095716231596285     -1.0291113232469911      23.809398570397487
  1546   3      38.671664069361704      34.261953502322612      30.853298932478857
  1547   3      7.9976744025006274      31.083817630224281       5.493490944186056
  1548   3      27.184626175503965      4.5573960781160929      33.951054629541602
  1549   3      27.085247982286013      40.237533112033482      52.485904141854775
  1550   3      7.9111332461466963      65.473928789353295     -2.0741351622025674
  1551   3      22.347185301801495      33.564930149287186      48.695267323453493
  1552   3      47.118260836449636      2.9494534023137251     -20.782915025677209
  1553   3       49.58100613818312      35.913548356215706      3.6711353407361806
  1554   3       16.33645642749077      42.256651273850395      40.547272083231789
  1555   3      52.456357560482232       9.965977496760086     -15.215450926332011
  1556   3       3.771142399840151      40.573542881600041      59.994768376635129
  1557   3      40.764000296912442      4.0921576605459968      37.828499509240622
  1558   3      22.480949942897851      6.3064320345163054      36.213180328559915
  1559   3      3.1664261518645893      27.815904941629235      15.322172854701954
  1560   3       26.20695779930541       30.09380667836988     -4.2953648172637733
  1561   3      6.7850199745528146      7.9429865324432125      1.7244327203191463
  1562   3      46.566035507021994      37.981812921417706       10.62307557972958
  1563   3      45.854556879962239      27.716265976625266      28.741464253388664
  1564   3      2.6833184662445984      27.942604637089381      7.4087530313760208
  1565   3     -4.9091873594152657       36.71055164980298      32.975448217796526
  1566   3      41.999921396852898       5.050275343248086     -20.740615899729459
  1567   3      30.734461560126793     0.10034783437199229      31.175325426045536
  1568   3      47.010013677899934      23.917177910354699      19.752572635637012
  1569   3      10.511371072173826      23.617041087171142      12.140103117241676
  1570   3         30.138279247945      14.502444270549249      5.1929609043973404
  1571   3      47.069550550451268      40.786971644797745      24.947780596027261
  1572   3      27.618238167516346     -1.9772753646238217      15.185390652274487
  1573   3      24.216238981375465      2.2387755096915609      33.220328590396711
  1574   3      38.539130839748132      45.723858862530072    -0.71149963253725002
  1575   3      21.868321261946072      45.838239728857474      19.524591053895215
  1576   3      41.393361653022431      41.336769715883165     -1.6134925643634255
  1577   3      45.546180709592242      23.202321347448763        48.5871724187081
  1578   3      42.302389589198931       52.47120481356913      43.448771295536901
  1579   3       40.58837236513827      33.493398665000555      40.652766447465673
  1580   3      6.4453761725566565     -3.5471924331039189      27.433423739334451
  1581   3      27.691067160398777      22.435809517663483      24.079299876412641
  1582   3      11.285977566106904      48.676858123600731      44.207087935023473
  1583   3     0.53026620323972662      48.243411978457161      31.225614281261095
  1584   3      47.877474638411599      22.929880567512949      47.144550080486333
  1585   3      36.669670473393651      16.367162242027486      20.179009766649763
  1586   3      39.032411931883779      37.059009346992418      28.710173516356345
  1587   3       7.625584967764742     -5.1057169865676197      16.001327121170846
  1588   3       9.798707111593826      42.220355889626219      2.5458478264696662
  1589   3      24.985561102313142      13.759742883262854      40.546850368326659
  1590   3      23.704567662828854      8.7250865004883735       22.08018044758073
  1591   3      8.6688010655200323       14.32400567982766    -0.49725693595564463
  1592   3      10.287492058002435      40.158947392837064      20.942615448950413
  1593   3      3.3214785667769093      8.7857134402694523      19.436709531104732
  1594   3      28.308910947654432      42.152657812369227      9.7485580204384377
  1595   3      51.727958008539652      10.556695127050169       10.87993955378426
  1596   3      19.012737744238361      24.468671518238821     -4.7025990629532268
  1597   3      45.531571380835189       27.25715568572571      21.179661289832335
  1598   3      20.435942966644927       26.33205608419502      29.100694018435096
  1599   3      40.871303848918195     -12.337266264542295      34.932723972028036
  1600   3      5.1615226582004645      36.811939946648174     -2.9201105597554089
  1601   3      36.592163685443332    0.034592228781653696      6.4811794448088849
  1602   3      43.851412798778988      2.8684048795577297      32.548748104858795
  1603   3      8.3943999756378087      34.695868591861135      12.803897378279473
  1604   3     -4.0083486947893645      46.876466413113022       5.335150793067319
  1605   3      6.2556815264938397       33.25573529350423      53.397347293249474
  1606   3      3.0300817201788313      38.765941235134854      9.1871889695528708
  1607   3      1.8616947205603718      46.884720798880302      57.589761187051295
  1608   3      19.770023982315735      45.943563213701424      38.907787676397156
  1609   3      1.3178311641642162       5.421121294855018      45.383825106784577
  1610   3     -15.637127972565892      1.4974903711483076      30.866356761315352
  1611   3      27.983591875264683      12.113426146023629      11.328026139361665
  1612   3      18.276372080660618       46.78947566892095       21.59559222228836
  1613   3      44.801886048124018      22.313809350592724      22.308443088221946
  1614   3      49.081213121094322      28.251346672052183      34.516678918677698
  1615   3     -5.2444571332230137      28.513005924109791      55.205114759799308
  1616   3      15.376541108223185        31.0584629413814      6.2534871385759541
  1617   3       27.89982623987072     -7.7240450255047008      28.794180876692579
  1618   3      20.810667972811299      33.514729320130606      24.393105620819021
  1619   3      3.9738705426989998      7.1357061508411794      25.418526324460849
  1620   3      47.432949102226253      36.881153432758019      31.025507910014387
  1621   3       40.96401583342179      47.076509199241471    -0.38386119982780376
  1622   3      23.192833519430408      2.3400248079192121      20.382111851721628
  1623   3      43.274307534490987      1.8559183882124843     -18.767919616397602
  1624   3      24.440360057499063       40.68400091448671      20.595578730859913
  1625   3      33.492982634226905      30.079183609359102      38.861356260145627
  1626   3      29.047035648447245      36.876102216953967     -10.480590829511712
  1627   3    -0.39828533734577587      29.002715088416014      54.209099448523638
  1628   3      39.569168177866288       3.666101850227899      35.291078069189538
  1629   3      22.568709563011641     0.19675579601367449      11.378888382834583
  1630   3      41.919917217589081     -13.987864348730133       37.09856528280644
  1631   3      5.7333006470792176      42.626455247029014       35.86512880129218
  1632   3      42.326262711749344      35.465136961818359      3.8261677475202531
  1633   3      36.872875004220056      10.793244563721091     -4.3177181793672093
  1634   3       21.61024674851333      24.992983497245476     -4.2064563363615681
  1635   3      20.750843961932759     -2.7327492063654835      21.922694560543182
  1636   3       12.72180928131999     -6.5597635585977896     -15.460473938084807
  1637   3       5.917990265180741      30.150452293742209      29.817750958861982
  1638   3      7.0838280723358826     -3.8129564520475876      18.530826962734348
  1639   3      30.892905795500972      1.2291826916788491      23.981746660739791
  1640   3      54.566881236879375      42.071257804189869       23.10397908116931
  1641   3      16.096550069734164       16.68571401535252      42.537527504633353
  1642   3      58.791765866604976      42.231616145600881      33.358882432640073
  1643   3     -2.0733782965559251      21.747425585861883      50.534006364028933
  1644   3      41.156024481954269      14.073581744007788      24.774786632422803
  1645   3      55.145950466558361        32.9362471005267      29.425587652777452
  1646   3      51.875036735437412      25.353839768666397      49.240836787231643
  1647   3      42.222040282442215      42.518642569845632     -4.2489930824962991
  1648   3      55.323077844719798      12.040752273962504      11.884057099289301
  1649   3      47.714860587644964      21.445210557189302      44.577998254352565
  1650   3     -2.7410409215546734      30.446692531174072      6.9338930230376459
  1651   3      4.5368696136013256      32.129764438248642      51.893546923828353
  1652   3      50.266757760537082      27.008907048170645      47.185662240587419
  1653   3      21.595953599976511      32.154061428068623      31.779534826478368
  1654   3      39.273548971740688     -8.9412349464524112      33.517668575145308
  1655   3      11.996260867125658      38.237064036838682      19.382685304934121
  1656   3      14.721067510463362      18.985279479494345      6.6103248766711431
  1657   3      25.568535627309412     -16.258807528175524       31.08529325192962
  1658   3      30.819437778423239      22.240070833707808      12.056299343076384
  1659   3      18.575161661470929      9.7195577252614971      48.287433637555985
  1660   3      4.4987544834386721     -8.4596268849617449     -11.910337385135669
  1661   3      35.776869305251736      35.574910970525792      24.206656108037592
  1662   3      37.724656320654596      27.357372085438705      26.776695182968879
  1663   3      2.9997922320575325     -1.9498192709549222      30.988036953560492
  1664   3      28.542992933187413      29.201719495830414      8.7986646961422306
  1665   3      28.664845572201777      45.366450579857755      39.646007082987325
  1666   3      19.042390387402403      38.978514263771395      20.637197705828147
  1667   3     0.31493403639846451      33.081300440185466      9.3465349197857783
  1668   3      39.343417302005918      9.3897499268952007      36.870982877500232
  1669   3      8.9911526908093471       33.48000789140508      4.4810445769105804
  1670   3      34.199762583607182      24.711813569529166      42.221930802773073
  1671   3      19.152474984556981      12.634274891255123      48.702179425285102
  1672   3      23.604569025524007      29.050919532026537      45.000432630872368
  1673   3     -11.085367016833354      16.618013866342384      7.3875185127799758
  1674   3      27.368748554902563      44.264011885198016     -11.330076963298072
  1675   3     -15.383735781610508      16.446897467755115      28.410442258394283
  1676   3      21.153616326441092      39.359755083829249      59.007706622268486
  1677   3      35.904874298797196      10.131942802154686      36.156736131082454
  1678   3      2.4660771140586957     -2.9849167250361766     -9.5271986139470783
  1679   3      9.7333561244750495      31.162243154433693      3.5738529284610898
  1680   3      17.163074845087241      14.162900690302646      49.442680365283266
  1681   3      24.675617697681361      53.338320392174985      34.675870859039193
  1682   3      41.370161755389134      41.961337012159909      18.420228325607173
  1683   3      39.206877827283151       6.636655926328511      37.790689522295402
  1684   3      5.0916633203810591      6.0741713254017213      36.174429591478798
  1685   3      6.3487970160970679      32.379332014883268      56.002974901899606
  1686   3      31.922699298335495     -1.5691451603271287      23.810488682589469
  1687   3      3.3312318243976229      36.202624154214035     -1.0081914172855868
  1688   3      24.122194947906138      4.9687897758657353      20.773920324542228
  1689   3      49.048488941187209     -13.366925856879963      34.621751253838873
  1690   3      22.708796954913836      45.557300161091675      43.733042026629462
  1691   3      41.984184191415039       46.21882678538713      12.970745125285131
  1692   3     -6.3436218943451177      19.152002270777849      3.7487041291564509
  1693   3     0.76511726247216294      29.284569273776789      57.515082190592551
  1694   3   -0.034471240503295267      35.975572664185385      10.318428307995562
  1695   3      13.022086175063334      12.758243824548991   -0.017132256474964799
  1696   3      23.240124910598727      15.426374865639964       26.14034652700094
  1697   3      4.4713841228115463      46.171668366471266      7.7246221207977586
  1698   3      38.354180080286447      31.765935032262256      41.674510170111567
  1699   3      46.829322951764802      8.2061218672440912       18.97603506483048
  1700   3      37.631129668004519      12.229325363342836     -6.3429208164370676
  1701   3      21.507680416321623      23.129620059354217       22.50095485894931
  1702   3      -1.665565362205796      13.445111969636864      22.558945390095733
  1703   3      41.296244159116412      29.201203807217635      5.0126152172407954
  1704   3      37.183492689065496      46.942838431099233      44.642450309990942
  1705   3      20.732263428721513      24.516376566792541      47.360347837484007
  1706   3      37.703824431065627      36.757932190059918      26.146092355870604
  1707   3      6.0970987263503984      41.851220048586192      6.2807505755596074
  1708   3       28.46602985833642      43.812859239128336      29.279833431830763
  1709   3      19.615774795996231      24.798914438862077      24.299282549466771
  1710   3       8.555218896026723     0.62532829025092085      59.321244178775444
  1711   3      18.265887026975591      44.374054474668448      45.208458541355377
  1712   3      25.303768668266855      21.033247179764793      8.2381390907114191
  1713   3      21.819059112811036      14.622673030327524      24.043733944408615
  1714   3      44.677322257914454      25.102208800313839      19.570072562545246
  1715   3      25.996454349734677      44.970928778746917      39.965025865508579
  1716   3      38.489870282360968      20.106437794624018       45.09266579771618
  1717   1     -11.248360943440209      21.252266285421062      14.706983004817403
  1718   1      32.148909124401349      29.755125204392915      24.031301810974053
  1719   1      49.032681294400618        11.4876677569496      65.648350568928166
  1720   1      22.060044814294461      22.331595812652601      29.684940151605169
  1721   1      20.430869509745317      30.356325374702358      24.055365976968702
  1722   1      20.234988558346497      39.489733488218015      32.795182181252244
  1723   1     -6.5174691478060254      7.9696011318933833      54.833694364915296
  1724   1      45.431421268953102      46.597380028392649      41.796648855602399
  1725   1      18.707763055609529      47.633162892697975      18.656446315527017
  1726   1      16.186766974245348       14.26445309843475      40.383881189450371
  1727   1      28.741005597145666      47.126764314080148      26.536860301306458
  1728   1     -1.6935164199068546      43.364830652110605      17.542139207292937
  1729   1      10.641767786001225      28.664289630386047      43.999538370660119
  1730   1      39.913998788000754      29.203881349859738      27.979297143318561
  1731   1      14.690341698595027      37.965193291240723      39.435732618636933
  1732   1      18.354808713793155      62.808871428510734      17.990259679930549
  1733   1      9.3800480915871294      44.357173607431839      39.611689865016395
  1734   1      13.557637676683711      8.8070051650137948      60.836005009621715
  1735   1      24.266883756726667      34.820948950567796       14.30325371761138
  1736   1       17.52526408474127      7.5601353211838029      16.102168924571846
  1737   1      27.308147234743558      16.959359720365001      20.225439484648884
  1738   1      26.448410331804613      10.778158079070483      18.959225895501984
  1739   1      33.594498259312786      22.464074368499773      6.3258694483861655
  1740   1      8.8038429396514637      3.2179655461060799       41.53369346533561
  1741   1      -5.268146336176045      15.504084426859079      26.845677928925383
  1742   1      39.981467266889588      33.896054493603884      14.242748071962714
  1743   1      29.782713005351322      27.467760351667671      31.280756676924689
  1744   1      7.9478909334429328      12.192309520343953      42.624040386581321
  1745   1      1.9794038279268604      63.495463563457157      50.251048619270613
  1746   1      3.7685196835818466      18.904632351843741      8.0245155252046363
  1747   1      30.342966917452259       55.10407288060366      20.930434579347789
  1748   1      6.3263939465101267      32.536762707231269      34.429713016768325
  1749   1      14.959446782930829     -2.3075377580754637      3.2378193923138086
  1750   1     -9.6655457763961419      34.595604404507277      38.080812515050908
  1751   1      47.841199110984533      4.2771333350238772     -6.7564184060546468
  1752   1       14.56942668426413      8.0666329622761523     -10.789296940355216
  1753   1       7.672035598074558      35.281922399502236      6.5008069443915826
  1754   1      44.824069736942533      50.761405845614995      3.4681117587690315
  1755   1     -9.7285827120526012      46.598675576821371      2.4181275724273767
  1756   1      26.639671074974935      31.110871365320072     -1.4890966966834542
  1757   1      24.300104236377447      6.2794734105145649      25.993472238677018
  1758   1      47.532124394045255      25.212078482395704      28.454345598383885
  1759   1      10.637517601852592      39.259136565746651     -4.9667673392904454
  1760   1      16.066073144805042         34.828136349363      1.2830406010576214
  1761   1      46.254520679832424      17.458365478227336      30.234021739618349
  1762   1      8.6287844863377607      44.875978864970755      1.3251838496071489
  1763   1      19.636681743214101       24.04778752574861      35.305378879137066
  1764   1      31.276336549410683     0.26210028091204574      2.5196378470312775
  1765   1      28.892521088666214      45.302854193397614      17.743362141229067
  1766   1      20.910322270331047      36.365815352582793      20.352510174886365
  1767   1     0.57293057342513598      38.351794088137162      46.374357540325342
  1768   1      74.066394256463383      17.451326588582251     -10.570839285447699
  1769   1      22.504793795492215      21.033014760004022      55.758060871077213
  1770   1      18.578818909174288      30.783964277530099     -3.2258452603264591
  1771   1      70.112107208298667      32.181380358030914      46.256414224347516
  1772   1      30.575598614718228      34.804592703814336      43.829169614718431
  1773   1      28.433156056822909      6.4072630164180762      39.034941010279475
  1774   1      40.793610971830418      23.395609765944688      23.692854712341777
  1775   1      21.192921881432326      50.143118278352482      18.196435947502415
  1776   1      29.023798367320989      46.609390468722765      31.865820799597969
  1777   1      65.480224162941354      9.2525377345240383      44.455112522467061
  1778   1      35.446238144250458      57.632379252778847      60.097401585881556
  1779   1      9.8073272818568498      2.9930747000218139      26.777513954427118
  1780   1      24.558333922900118       27.18507114164883      14.948333586208799
  1781   1      42.014417257411473      22.023755294043269      33.462369496980472
  1782   1     0.19836778722104764      1.3486998222850328      68.021629225515184
  1783   1     -1.2131787869523296      10.629313518222663      9.7841865575926121
  1784   1      11.334261766258454      38.274607308130214       27.57969717928135
  1785   1      22.337117463324571      35.355953200496728      51.253327540343818
  1786   1      56.118795634266931     -8.1882557576451269      31.088672573111999
  1787   1     -3.5290795112005631      47.329590577274047      2.3942432575149608
  1788   1      35.380910553279612      36.958248246516305      47.778068956836698
  1789   1      17.574612287165447        5.27724333282689     0.40568730473278819
  1790   1      12.165503787741823      5.8374045340087246       31.40008431898206
  1791   1      43.304560008785437     -4.8633228895396741      54.048886911822585
  1792   1       42.83150932982516      16.219528803298044     -1.8781059740377926
  1793   1      40.346828905958056      32.879736314281757      28.109416071145045
  1794   1      27.712225410212397      22.085321773526843      20.963779892328873
  1795   1      12.886408782274215      36.843347044703549       24.93260527731756
  1796   1      11.926541641789212      29.325910815266109      28.120337117780991
  1797   1       5.346387645826213      31.422476869711431      9.9821609460653704
  1798   1      18.055853568709743      32.092329722571598      51.766398486699536
  1799   1      54.302577761679757      4.6470677770732518      26.225316996038941
  1800   1      37.374172597086776      22.161986217739248      24.431094955992673
  1801   1       45.08068751059826      8.9164056392467614      53.239870344704464
  1802   1      41.732428975328766      18.383068657101603      40.990753860659638
  1803   1    -0.77940655446563134      27.664276720362661      43.787952301018173
  1804   1      28.094157743335618      23.463565147401539      36.392786964582946
  1805   1      21.628604643012572      19.242897053750497      35.741319846168182
  1806   1       37.89923756680956      39.390189050442686      47.600417436710835
  1807   1     -13.188672585261655      56.975681863529829      43.881566437366381
  1808   1    0.047662715185855471      35.947202958061439      28.596843012667623
  1809   1      2.2434521013741131      15.628335999103536       28.46732155129008
  1810   1     -5.3828900683816414      6.9181681391635248    -0.89824928547031002
  1811   1      43.999650386915881      5.8265174788692287      44.736745996394475
  1812   1      21.736974072409641      34.844614422525282      6.4591742008186772
  1813   1      28.614137416874684      45.281118511810575     -2.3404356190018416
  1814   1      2.8335155227252238      11.952716134578045      19.467337364243967
  1815   1      45.739548597680695      21.402405503239702      5.7360141122895296
  1816   1     -5.2365067873712494      37.128826873245593      9.2838246213362439
  1817   1       12.89677399320817      27.035345099721141      33.777985817847402
  1818   1      2.3600034395559857       12.19514752278171      31.722896015105256
  1819   1     -8.7978291250388239      17.832293183736148      54.437770278687672
  1820   1      32.287548396448351      24.591110324903838      17.191872163741174
  1821   1      43.934144303294019      18.813995847322136      55.235585365041565
  1822   1      9.2623817363955165      6.9964952354266643      13.578012385571494
  1823   1      26.906035570216119      39.937597425639908     -8.8668808485758532
  1824   1      26.148123655608057      38.094405202723493      20.599365009139525
  1825   1      50.250258846878346      13.186553982199623      22.514997974063423
  1826   1      26.695787352356049      20.220695704890865      18.320421580618962
  1827   1      24.384098206676356      7.5568010212201751      12.737991715364817
  1828   1    -0.44353929757622124      33.923586169298076      31.356431009228935
  1829   1      5.0532637365842685      22.529895763212515        33.2426381798657
  1830   1      13.973515921921992       25.37270966395705      22.887610511158648
  1831   1      22.529266280062973      9.9267915534375675      55.568621340517922
  1832   1      5.1107456181667734      39.188896686483467      55.490568653363312
  1833   1      23.609628719029125      74.357017542287934      46.706331903248397
  1834   1      11.904199987713422      1.3947510557912637      51.529841768187985
  1835   1      16.097157091764622      38.050659890618768     0.39880009394229543
  1836   1       12.63243039807521      29.787167848503721      6.6675195970861747
  1837   1      34.098162343664349      35.834084652124581      36.029862929034898
  1838   1      23.723497704771333      22.513972908600728      41.768915388124249
  1839   1      32.974027047573855      4.9357575706630152     -3.8857747632917534
  1840   1      45.094346517785226      11.979999892709476      7.1322793087076555
  1841   1      65.219691378384766      44.247654606383477      13.209497375744476
  1842   1      5.9728716413663152       15.39143187069835      34.077669010720548
  1843   1      32.527826454742602      34.941705744517705        40.1960869436491
  1844   1      47.474586921370822      55.590684451652514      24.313036651914739
  1845   1       21.65847596130709      6.2249498033796424      50.472944900793991
  1846   1      54.170807790320552       14.87501299232199     -21.658856175593979
  1847   1       27.19194881188383      14.184663756660827      53.243183430857968
  1848   1      41.432325134704378      15.782625842572338      36.836693691468405
  1849   1      49.600166149257397      18.908577660951586      29.361709930869441
  1850   1     -4.4426978681268841      39.090938598345424      35.045570248308479
  1851   1      57.052084040727195      16.391735384694059      20.633491211230101
  1852   1      9.6905152464069388      39.463218691990051     0.72331679819192551
  1853   1      21.785342381732661       31.71141449779164      14.240631466273985
  1854   1      22.698798806332629      41.914409265123339      10.444393949999499
  1855   1      10.528713859658257      24.082891883616927      5.4017879075924053
  1856   1      11.756124136807896      34.291214866414585      44.632492043931066
  1857   1      52.398358463682932       35.31176193273982       28.33287604662981
  1858   1      15.532636443628286     -4.5870935994361375     -21.665421226544783
  1859   1     -1.0377445431319383      4.3239828423788094      6.3704640442233025
  1860   1      12.653291537248363      24.367882214743339      9.9536576478895071
  1861   1      21.122785331460939      1.7776625004957751      32.908397884279793
  1862   1      17.539290777303393       37.14238386186944      14.686040051657638
  1863   1      32.546451218184856      26.370353667479705     0.27107601449005803
  1864   1      50.010886148901555      43.153865420730106      40.462136072140424
  1865   1       50.07750596099082      35.332745097054264      6.6589014607904788
  1866   1      16.988511288618138      37.850468259549558      32.408798065822602
  1867   1      32.865921239210842      6.3914208453668619     -11.756570632716883
  1868   1      39.354045138407272      35.452197490435225      4.6384287487318581
  1869   1      21.712562315250288      13.148802573305151      34.573314591971673
  1870   1      10.962586071625305      3.6816398781485988      22.184985213323149
  1871   1      22.943133360378553      25.483046321002398      30.798745455208717
  1872   1     -19.957016973702491      33.179200080189808      2.7228094157684239
  1873   1      29.888774818752111      12.803192383328046      13.807789145720431
  1874   1      3.6478832655522462      66.184311654168141      2.7076778372094457
  1875   1      19.164339845771952     -1.3735886902071028      29.813296805421203
  1876   1      30.401479814179776     -7.9378163579518137      24.019111661642189
  1877   1      40.545148008461624      47.256675562338899      35.859086558300561
  1878   1      26.997938547753627      14.433766959403199      38.524214152948765
  1879   1      50.682200096392478      24.984533375159149       36.92068089213771
  1880   1      56.312980213510002      22.621808997615371     -5.4228109912025886
  1881   1      17.210156824688205      33.880824966294298     -4.2421368493244493
  1882   1      22.026749093298623      41.312087577604593      2.2206620900154008
  1883   1      36.965948218775772      36.078399423283159      16.163501974426342
  1884   1      18.400800703248063      10.761527492345209      38.645171287239037
  1885   1      16.420871825589959      42.975949033977173      54.903310592419587
  1886   1       17.79338530555712      9.1475321308243487      9.9300827138263958
  1887   1      30.323918632917049      12.168467829703083     0.11591280879167545
  1888   1     -13.264117353867089      52.574276727597109     -7.0504048679532021
  1889   1      0.4902106907649596      10.600874504109649     -12.845623117301715
  1890   1      4.2388796155590951      10.860767989137578       23.18747585703278
  1891   1      30.911132699273534       40.78489382359065      48.945722267773775
  1892   1      11.381142431765797     -2.4250561343572952     -6.7301728121281883
  1893   1      21.543350201684309      28.564974249803104      55.777023828301445
  1894   1      7.5444447893825455      55.976449964619867      34.370974240308271
  1895   1     -12.914438734210043      61.989363313160688      51.761533479451309
  1896   1      39.098886364428843      21.947345707473357      53.199139996273097
  1897   1      -18.12944794825146      33.491775181474232    -0.61048274639513356
  1898   1      46.049687622130079      18.503518861216754      36.909100743586464
  1899   1      22.816869003706547      49.835691492141109       26.50006262245126
  1900   1     -5.2337221872886568      29.440495105614911      20.604683163885944
  1901   1      -5.401840019148394      17.924767062017253      15.718057582207924
  1902   1      31.868464159859801      26.773598670122741      35.510415439453531
  1903   1      33.680132512360473      17.190325012237164      19.723230838889325
  1904   1     -2.7637487565662537      20.367997683022466      15.601222824747918
  1905   1      23.532135106822889      31.891511496671633      24.593751020249279
  1906   1      30.323022384314008    -0.13631991439429617      34.239405240629132
  1907   1       20.06064323872048      6.7055692764966297      23.721087157589118
  1908   1      6.8734553850157845      -5.893641960094719      43.617430135573123
  1909   1     -15.079239406446675      11.527901688452626     0.70359606862874691
  1910   1       28.97113458125655      15.948518577154978      14.496931378816257
  1911   1      46.367579486629275      28.094325107906677      33.206482329987523
  1912   1      16.001053999519321       25.44514547602801      40.235365657778289
  1913   1      39.515786585658262      31.318092421915303      54.885869202378629
  1914   1       35.62830086439719      38.580494815115365      8.1307858701410378
  1915   1      20.556697312412801      23.562566422742396      53.049365814253811
  1916   1      41.710494885489929      23.384436637048484      18.457112500393084
  1917   1       39.48644062218716      59.219826716823512       15.73803059242168
  1918   1      43.572306890288743      30.500028822385413      9.0290697784202383
  1919   1      20.267191661943833      19.129265670113302       42.90623247588136
  1920   1      6.3224333581210042    -0.30407494220253584      47.858035778635731
  1921   1     -26.169797662487589      13.326115064952944      57.805636413680496
  1922   1      32.358930155181554      12.302742070697818       28.97615813753222
  1923   1      7.4020045614054846     0.36560458848624716      40.552239012214208
  1924   1    -0.36228084755159512      72.349540787291431      64.085378405762867
  1925   1      43.599782119369152      12.224292245896605      52.918131495946625
  1926   1      25.896839714460675      19.636133729634896      1.7917001045549601
  1927   1      73.636155458196484       28.42789125363209     -23.203311239427975
  1928   1      13.207077813410265      16.200638163814219      32.794948994476449
  1929   1      19.297085732710343      3.6827514246962361      38.459451360598734
  1930   1      11.632921369923597       22.49379607358863      27.919083497754535
  1931   1      7.8487653063401295      68.085173920238134     -3.8866960942096549
  1932   1      64.251544692216825      16.055478364801356      7.7079320456578433
  1933   1     -2.3067708600824401      8.9456792721717235      44.156733060143829
  1934   1      49.269722670799261      59.835358714216724      29.070692241940744
  1935   1      21.909027822730138      4.2156369754180814      25.128628810823177
  1936   1      41.750163904201187      22.931277595440331     -4.0396188813420464
  1937   1      39.312683366876506      23.999601986229486      50.721461914413027
  1938   1       54.69621906917088      13.399464282711937      49.335560039455146
  1939   1      7.6276277278652476      19.299861575822039      27.906470974362183
  1940   1      39.533920550336731       36.56619003564429     -2.5126227066317197
  1941   1       5.305756231693695      25.492349415405201      64.093686919056012
  1942   1      47.080508149560153      16.277734493120693      20.898189562339255
  1943   1      25.915304927533406      13.058537509748286      9.3898041837966968
  1944   1      48.581111378383667      26.366553453631656       20.94505488362072
  1945   1      42.640094372698911      41.455107652744552      21.105134453854742
  1946   1      27.137177403538779      18.056148216070088      34.014236165869498
  1947   1      25.984331989461545      37.137852875976201       31.77748020607509
  1948   1     -5.7518856773902707      43.860935623803435        10.7298669352903
  1949   1      63.328169644928067      56.988022454760234      8.7609175971590485
  1950   1      3.1237197376102692       6.808562441875913      13.033710676346255
  1951   1      22.730126812829397      18.645458467882715      14.130550566477279
  1952   1     -8.1743587365659192     -9.3313982254603314      36.092713095784397
  1953   1      21.890593243084805      55.693427337502968      20.649790181225431
  1954   1       12.65321711422763     -2.6425119047034782      30.338590257284753
  1955   1      22.426763833334206       25.79000413818547      35.042754679792537
  1956   1       12.13594496086497      6.1751478571126919      51.745807207131485
  1957   1      20.394427383510116     -7.7139193100058341      7.7296381756622257
  1958   1     -21.941276552549802      27.944062890846425       10.92226092511916
  1959   1      10.129516635190155      47.459375104364035       7.219199074936351
  1960   1       31.89924396964209      6.1926948645662456      47.769449133974213
  1961   1      34.561513273467206      32.460007171038882      31.402789889910864
  1962   1      44.023475202022368       31.36747305971635      14.336072893350304
  1963   1      30.756434198663712      35.039764196928601       19.97162126383931
  1964   1      24.995640818870932      17.964207175663244      11.615162741136901
  1965   1      25.409019679496467      28.196008586220373      38.185411193546798
  1966   1       51.13771024638811      16.004962964810826      13.572790200126212
  1967   1     -9.5613250966454792      28.156697780254081      48.494485732367458
  1968   1      21.591185274326033      38.709487715552505      14.778765006969055
  1969   1      1.9136786121663607     0.47870195383365105      6.5184103102029303
  1970   1      13.196505825359152      14.307390780361366      12.153277266479815
  1971   1      38.669459575503339      33.434250273503302      44.404858679844658
  1972   1       6.668869393292141      8.2330901524519184      19.440383535313792
  1973   1       18.39908050008669      9.6312244535679064      20.019345344611608
  1974   1      53.026426842422808      25.581980142270179      23.599560918803459
  1975   1       6.897602416058378        21.2892596950899      56.416681545396344
  1976   1      17.710534658923432      7.6251735797105944      29.068081539493836
  1977   1      57.914223289447648      26.891469465505146      35.346985516444548
  1978   1      25.613384976376651      24.016552924212341      38.708852704555234
  1979   1       42.30884961119397      23.477087594845205     -11.937233309576566
  1980   1      32.865022843051378      15.415101301879933      11.484521554392044
  1981   1      42.359921772651049      3.0331558167512531      10.729728146896555
  1982   1      9.6635008294654074      16.040433343280821       14.68431735369508
  1983   1       27.91704755837182      54.988547935800071      16.277110880081473
  1984   1      41.627562644810467      19.296464122719783       19.52652428435481
  1985   1      13.825842485535143      23.163156342098233      41.279798754860671
  1986   1    -0.41229030885162687       29.61736249442875      22.098852362538558
  1987   1      20.007743316774942      36.420867198563478      24.239986069596085
  1988   1      14.479572567197444     -7.4126333680250118      50.120828475606586
  1989   1      12.689201701250958      9.8185781981135225     -7.9089383931969088
  1990   1      11.925926375264789      2.5755422869176727      35.228772570507253
  1991   1      16.397780715468144     -7.6589570823845117      23.487118392440625
  1992   1      23.737441794991266      27.457629753254338      9.4605718214504915
  1993   1      3.4934989477190155       2.953690930616593      44.452497388085625
  1994   1      34.901588251000256       23.00492795042183      26.320004841019824
  1995   1      32.399888695017083     -2.8319781130845936      26.750846948957758
  1996   1      8.3739796799388557      22.169788652160626      19.123741114172997
  1997   1      3.0446774762681676      -5.562565405677093    0.061719927844085941
  1998   1      38.141521777485913      20.633846126212166      50.221762553338266
  1999   1      19.889054889064695      48.554326747553517      41.006883728256781
  2000   1      -10.49559766105107     -10.272365940505434      41.568108695694221
  2001   1      21.015371886983015      21.289630406185189      19.138986814834961
  2002   1      3.4596066780102159       29.15989632767624      4.4475446672801828
  2003   1      3.1449960372660262      24.748933435585879      26.643326217979009
  2004   1      17.840811479802205      29.468817227537997      5.0068544461129179
  2005   1      54.972349586864183      24.593638983629472      19.425780486867573
  2006   1       12.02833421329707      6.4462216800574579      68.792609901790783
  2007   1      59.316701105248029      21.568849898421156      43.094915237105113
  2008   1      -1.382146963440855      34.237360295145351      15.822326912094503
  2009   1      34.204588170156917      42.089270872881634      8.4174580258281146
  2010   1      14.430897092677553      32.832854755188187      26.177494443912181
  2011   1      15.617508231836053      4.4160039129995452      16.218267512491561
  2012   1      9.8292143715894849      14.574604906743446      31.908368004261867
  2013   1      50.714787336480413      56.717549864662111      47.491059998943655
  2014   1      10.236476468207517      14.993749164143411     -3.1914268368031307
  2015   1      22.235459400117161      29.361424312345161      32.564953390395516
  2016   1      44.123083520139268     -4.2459263032854366      31.294339717535173
  2017   1      36.644200927890168       5.342831938448918      10.556584005464206
  2018   1      42.282267250818315       26.11592579744023      34.585303559228294
  2019   1     -1.8104490727957203      27.767556338635355      26.109014160966765
  2020   1      27.143459306918217      4.0484659976124266      19.846501625297535
  2021   1      47.252907928154386     -14.793426917665226      36.605599130366272
  2022   1      31.093531411415228      58.199364872126885      36.370536183249868
  2023   1      20.765307041248043      7.6623158135099487      17.438083835114494
  2024   1      9.6381515258101782     0.93499932446342171      13.658779104044825
  2025   1      38.433005619664499      2.5119743453056689      54.528155255021588
  2026   1      24.485243243123911      3.6499796351900811      17.909875983176502
  2027   1       3.234611445061542      41.815599510348939      53.653998555558516
  2028   1      33.992663169503793      -7.970732453369779      19.921491407152804
  2029   1     -3.0809336496171511      25.137867052391712        9.55773821394782
  2030   1      29.002557426780065      8.8629190121388941      18.469015354046537
  2031   1      17.994013958428063      35.659508523371031     -1.2206955028681155
  2032   1      10.048642014967246      35.340259092678259      50.733133695817415
  2033   1      32.789164188931174      13.251394356645577      5.4791409723613729
  2034   1      25.115896921061836     -9.6370507760791035      45.709952186695773
  2035   1      11.974989412367284      45.551358896840284      19.162934405911603
  2036   1       29.97482241494065      29.919089500170923      46.528560912814847
  2037   1      26.659040967087815      7.3727251992957648      45.110624889028706
  2038   1      2.7222442681099008     -18.872154959045176      41.954100199149067
  2039   1      44.407511373433188     -3.2117394244413044      28.059059878827739
  2040   1      36.655459759667274       42.66354829958501      13.457624128989966
  2041   1      32.292332765988718      16.481717724303628      4.4423854583886921
  2042   1     -8.1711423270883259      12.283561547059641      26.797413797509009
  2043   1      44.809996454204601      12.312885239541483      28.488108977035829
  2044   1      6.8685635006378751      40.359136164168447      15.484780093380655
  2045   1     -9.8200376835797911      15.011115258157105      26.463673945950585
  2046   1      16.375730643625047      40.434784022214096      38.150262353807669
  2047   1      4.9829706945969097       15.91574039478143     -2.3179177866346721
  2048   1      25.471061249915387     -4.2667438553629511      18.503259867342308
  2049   1      36.667824045817966      24.623282891706086      3.6757781371992273
  2050   1      36.337875915880971       0.604242699067425      3.4654958599453303
  2051   1      28.739680942303359      28.025791598480573      36.403397898646304
  2052   1      26.827457103411451      31.454378987020888     -7.5728833087763645
  2053   1      13.119460334269224      16.577128013759303      5.1966321714594299
  2054   1      53.189500698058332       31.38816177517872     -4.1387794683135795
  2055   1      36.922591885426627      20.422220507631074      10.678596861618876
  2056   1      54.389435937921654      13.187686446568833      40.606682613133806
  2057   1      46.303073366505608     -10.998632455689261      43.144703412205885
  2058   1      36.213273128356157     -11.207124118269588      3.0689795784130833
  2059   1      59.959095827061155      34.911695365488882      17.717938427931237
  2060   1      3.6749159988974727      21.485641072086462      58.579552944312169
  2061   1     -17.303000246464059      74.786109233977768      43.309241159559164
  2062   1      16.945160651851509      63.330576865538013      14.548806921733787
  2063   1     -2.8417253352126211      39.782271430213697      38.953917432782347
  2064   1     -6.8240092822582117      11.907627972160217      7.9275899697505015
  2065   1      22.451862476721988      30.695049266899886       -6.47653570614471
  2066   1      9.5569970992000908      32.727493212740974      56.362574131947213
  2067   1      34.814302287715243      7.2784369219905143      8.1120835320727878
  2068   1      32.222769570833563      37.578098872925054      45.627355258215793
  2069   1       12.57665105990624      17.124112879277732      1.5269456362642602
  2070   1      59.711536120084425      24.149440479025618      35.805296608566195
  2071   1      27.373257178371812    -0.36678941574236146      8.4349748658772334
  2072   1       20.95434786800984      5.2599730063551764      46.531542366449884
  2073   1      9.7064572437783401      41.639791983961025     -2.7946237302109305
  2074   1      14.103088457058435      9.4552878723871867      26.356668000729258
  2075   1      44.995390416143124       39.92384205303857      8.5942329490030094
  2076   1      6.9737501907230897       38.37698000277792      36.489922824770268
  2077   1      22.094569140446847      39.858203226876476      24.106429198463889
  2078   1      14.457824448599373      4.6787609657019269      34.694659268886106
  2079   1      1.2347969836548855     -29.032343047917852      44.904570739185552
  2080   1      23.000968692669527      18.759038720470677     -1.8320966712615863
  2081   1      1.1657350362586918      22.805197420407918      8.1662745321845325
  2082   1      8.4063359715565618      18.165124713038583      37.837110316637485
  2083   1      11.735879136344325     -3.5758722212316449      13.415836334124029
  2084   1       29.79156988078611    -0.49147327050584361      -1.152034850465832
  2085   1      16.074335457449756      33.609290565322773       13.66615126263123
  2086   1      8.2192025950863847      50.539257953946212      4.9914385139708388
  2087   1      2.3609587944539712      35.474265197625314      44.333221666367443
  2088   1      43.964458126725056      1.4120527137042274     -10.632890438713318
  2089   1      4.5349866495422084      34.215984062652751      8.5176726024512348
  2090   1      21.679570555103844      64.516805271448348      60.230386495183929
  2091   1      20.252725412823366       7.319372290943404      54.135198594394495
  2092   1      12.289756030666203      52.896349894127496      49.325756158530062
  2093   1      38.022911209196515      27.072043824687491      29.741222860485305
  2094   1      30.627287284319799      12.825168027205732      9.7892620417630827
  2095   1      27.441249415768858      10.571718075308882      15.242488090666086
  2096   1      37.777620943157366      31.282148609848832      31.463261421745429
  2097   1      19.557093503967184      27.932223518290012      31.308619479170559
  2098   1      34.543299388312164     -19.064721614351633      7.2201585317665771
  2099   1     0.74734087689652917      19.243055358540335      2.7403084372501758
  2100   1      9.8172269681254196      6.7688568188847631      22.302261695198613
  2101   1      19.820813371988372      27.647170658202057      36.147736504713535
  2102   1      55.561318497619546     -9.7262190160283932      47.487177667614354
  2103   1      6.8421383588451103      36.050286758506786      15.150872763758171
  2104   1      17.498138085943939      20.504417712707077      30.556955309065341
  2105   1      28.793311562500815      17.916388268941365      44.225556398027543
  2106   1      27.238967937995618      23.435569641974702      59.322962628027867
  2107   1      31.667209826857231       32.95839026149288      36.197535475617727
  2108   1      11.433435758885828      18.972323995804551      32.251943147000794
  2109   1      18.403177519056801      40.282708927754548      10.676071277209454
  2110   1      39.958542794011514      23.367349688832011      8.2234848935336942
  2111   1      40.520688092053028     -4.5509092071198873      26.204613096481374
  2112   1      54.409269732127356      27.426628839294938      8.0954572390230108
  2113   1     -1.2299006902784608      61.410212287002828      26.555486520116414
  2114   1      33.384750767047677      4.8616498282760299      20.017534729506401
  2115   1      8.8176953630439261      55.164590979551875      58.959754652317848
  2116   1     -18.011066292197849      31.729330209787555      39.181993742821831
  2117   1      23.562777237386879      30.616989801239438   -0.066099225114273352
  2118   1       24.11983011185767      9.7376656454588275      14.897011766239197
  2119   1      37.017836208914829     -11.668010083254392       12.53370340794806
  2120   1      34.180882787390694      29.337789744472428        12.1408385217693
  2121   1      38.947897402019777      43.323445460368902     0.87060244105495943
  2122   1     -5.3790077098933278      48.247188881871494      18.047116480466897
  2123   1      10.220977642278092      11.495549710111257       31.03678051562931
  2124   1      43.162863562212209      42.728481615946919      16.230385405463295
  2125   1      6.4950206695514465      10.051104560075977      40.607358611044987
  2126   1      29.588843838330142      12.375045205451048      26.982863400140012
  2127   1      39.719283547927574    -0.16864668697532281      22.794908439961667
  2128   1      30.695744524562357      43.498238302967401     -13.024879960545054
  2129   1      19.600384182800976      13.895009630846882      30.997206310952365
  2130   1      40.603819018296413      30.723625338303552        14.8701113715607
  2131   1      40.293588572181505     -15.900859772808476      34.913843288522351
  2132   1       22.90008381317044      3.5691340454919351      37.169557297269385
  2133   1      34.813479254582035     -2.8548910455282863      24.837936090663572
  2134   1      27.785880763301705      6.8862721354441145      48.112592802561004
  2135   1        49.9950856866244      7.1811786031167379      51.882733063564871
  2136   1      19.581308502669064     -25.051117917557395      27.766190894524129
  2137   1     -14.712316039845817       10.18179984644911       38.67853194297583
  2138   1      26.091884782824586      14.349668463063658     0.60500480741635254
  2139   1       31.80158268378915      40.263903126657326      9.2788807113311442
  2140   1     -16.743841157119853      23.323177882183671     -4.1470632109414289
  2141   1       14.99943524006566      45.424480805088329      9.8373544590226114
  2142   1      10.738078364674369      36.557288646027345      13.690640494566692
  2143   1      31.070054355186482      20.278276458734958      35.058818248392249
  2144   1      9.0185066477004838      28.468371664041303      50.695769411798814
  2145   1       38.54885945466782      52.534521501933725     -7.8442264482614341
  2146   1      39.657087071356933     -7.6694269186829658      30.736098469025599
  2147   1      10.843173112716238      15.852937159765293      29.052732189069243
  2148   1      43.732192473952615      19.083846221850816      28.081475550333408
  2149   1      19.630604732175449      6.5544840277662688      40.297733902749812
  2150   1      12.593536941555509      21.467975418170123       19.00302425677592
  2151   1      9.4275460958023363      41.117698947699537      39.912439615524164
  2152   1      4.4522682227107744      54.850374127616853      53.710997621439773
  2153   1      22.311412269255204       41.35006388135411      31.307153868209294
  2154   1      19.172591830974167     -7.0069585746576539      30.185006440109561
  2155   1      6.3864688662800209      18.270318964127505      5.3723054623210045
  2156   1      50.190042216709635      17.838843747163175       11.09758886938673
  2157   1      29.409686996509421       24.56046962637096      32.934160208387347
  2158   1    0.068353086217529391      2.8549698062560145      25.181039904550168
  2159   1      19.758264270882226      13.133126436226153        12.5417447207957
  2160   1      17.130500862234172      22.727769853762986      13.671504115327055
  2161   1      39.031202679616321      17.123350278014417      45.744753128210697
  2162   1      46.317720689926482      15.145332084448208      6.8268534805905992
  2163   1      7.2307269166720802      16.190765960953502      43.632725760850704
  2164   1      16.626982071680363      9.7200416968528351      12.921992579783792
  2165   1      62.766331792041626      4.4866140083686243      23.150232911016985
  2166   1     -1.2965040281613516      60.076765289070707      38.648657901540602
  2167   1      6.8386754869546582      39.814764936086483      24.604540345812168
  2168   1      7.7479389534627119      24.341943248435385      36.915104151533946
  2169   1      15.118154681742096      6.2591570581105476      42.937181415847512
  2170   1     -1.4178120802714731      24.897873389257825      38.757990207121438
  2171   1      12.784291373007298      28.579054930100668      36.999484492757475
  2172   1      35.306577570933001       25.16982259164131     -33.622821881802196
  2173   1      2.0924124785018461      13.903434106278548      26.028540910883635
  2174   1      1.5686144921855685      48.575152844473045      1.8700833734511413
  2175   1      34.737318619485094      10.125235766314852     -2.1602983819623747
  2176   1      33.833165516579101      41.579895316387784      42.693682389757953
  2177   1      7.5361598620933599      29.784891685625354       44.10401403106183
  2178   1      44.793881119236026      27.164245639375306      43.262750595076689
  2179   1      15.212283398100844      29.925061480329216      34.904497646141152
  2180   1      77.512428280073394       70.28025143047131      26.846289078325018
  2181   1      8.7635210414885236      12.886494610684215      38.770936244196108
  2182   1       28.05293872968819       40.81934070270578     -4.8478027654724647
  2183   1       57.82292073556107      36.178891458533769      47.084940804992605
  2184   1     -1.2899411052022465      34.042766029692451      46.198850151376952
  2185   1     -10.276741463905811      12.013991876960382      7.6242775796993865
  2186   1      16.633088226339112    -0.89447271635986758      11.584631350784113
  2187   1      21.648207969215669      41.459173831075731      34.967178815341626
  2188   1      41.702524781535196      14.684307275747967       2.328797695429758
  2189   1      22.152009682397992     -15.411192000354539      34.844180678630963
  2190   1      34.055667988579323      8.1666514397480761      49.671620906803888
  2191   1       2.186787992408187      39.553289421032098     -5.2131804085742974
  2192   1       8.509571371828061       25.97231661792101      11.694503377421407
  2193   1      31.952787408390986      9.2210308314771545      8.2721219255371139
  2194   1      38.518731220424627       28.76499547975633     -7.4794268461366995
  2195   1      19.871583425743438     -11.835346713258042       35.42911607735136
  2196   1     -2.3502412097202141     -23.853816828372146      33.803150432143866
  2197   1      27.969081090149633     -10.670365236715121      1.6881786330497164
  2198   1      20.010575204996062      32.725706387464932      27.371303796235882
  2199   1      54.418595541134472      31.561862061467973       19.45341069741248
  2200   1      -5.298034626547147       47.72362380384849      23.137675999001075
  2201   1       42.10921960428572      39.866272042056387      14.708083569642854
  2202   1      59.681198393576743      30.149048688807284      31.977861658634861
  2203   1      6.9041152852152123      40.352532344014236      20.576342641954135
  2204   1      52.289258924371183     -6.9560221601561523     -3.4267221043305516
  2205   1      7.2629499622638409      10.799616008282984      36.639096118332212
  2206   1      25.217878303838713      31.214425682739591      2.9836217286286644
  2207   1      19.672648262442333      24.063145012243709      31.105165419149895
  2208   1      32.690193135244982      10.434985009321453      11.453186512971739
  2209   1      11.539017064771327      -27.64642487254936       48.40254956832451
  2210   1      35.205101252621219      24.980068839304121      31.928406506572106
  2211   1       6.279834158623264      25.187076878301987      26.385193416295483
  2212   1      12.666549726707277      19.236923331639652      21.682393811127039
  2213   1      39.512690524497401      38.043684671947673      24.365624125068074
  2214   1      34.935185893616321      5.0327543670823784      26.183201910454446
  2215   1      40.527083297798747       26.80799962464998       25.73837406558151
  2216   1      4.4316935421134724      48.779880117591652      33.148758751350769
  2217   1      25.997734375135106     -17.513431688967696       13.71658933355347
  2218   1      40.461529723649626      19.055817823063506      27.465822829332787
  2219   1      32.380197642323637      8.9504484316373389      28.975214461752955
  2220   1       -11.4931583817344        41.7880110089692      34.807384124303333
  2221   1      47.910652657434106      30.668956587764931      25.266146883027446
  2222   1      11.604233872662075      49.928715996471013      24.017505089542816
  2223   1       46.12783641017284      59.814133771327704      35.555965507409475
  2224   1      11.119721547523737      37.830123632343543     -11.047079956738322
  2225   1      25.322668494842166     -8.4378907828139695      50.145640869242889
  2226   1      13.925730397092513      32.190152474266092      29.206078729311045
  2227   1      42.193453079909276      50.402934283384099     0.97595217309623028
  2228   1      26.828174681088615      34.782200305483116      21.182890185150814
  2229   1      35.830147247552375       19.83650730760715       21.14354995306644
  2230   1      7.9299809865579745      48.481530075055659      2.3955072476638661
  2231   1      24.518918748918857     -12.235374581157657      24.080971005136313
  2232   1      29.546115483474811       42.23776314022922      16.803395097809698
  2233   1       6.957243119009183      37.823926843361761      41.910331448650801
  2234   1      30.611497357459218      21.190262032129972      5.1733767470366629
  2235   1      17.103504909973164      29.522730710875621      43.017981218767744
  2236   1      29.211363862360212      -5.278160400045194      12.815811348458189
  2237   1      54.094746605917408      15.090266705515887      20.109382661777722
  2238   1      46.712516168394352      18.302548981895729       24.03985143791969
  2239   1        58.0619557365277      52.981706424697713      7.9145713210968625
  2240   1      58.174064516919834      21.401923770599652      30.713086483816909
  2241   1      13.431641898549501      7.8717604295111459      72.189111064366799
  2242   1      26.104265224139901      40.204549597850374      23.262678919859866
  2243   1    -0.73316251763175799      21.576665091559374      35.258648937599418
  2244   1      57.675739698561195      18.132641550926966      9.0767730061253236
  2245   1      29.284629685049623       26.65544797898157      51.203306788020527
  2246   1      33.127488928111575      31.878981088673193       52.71742702043845
  2247   1      37.287473020139089      28.303657977938752      5.7003887546124936
  2248   1       51.39667252490203      14.031576743749239      16.322363673373793
  2249   1      7.2587600091580953    -0.92252327526537747      26.092541558517837
  2250   1      30.595391295189938      6.1472401583986809      14.062760221177921
  2251   1      39.976195200024343      36.669387284708769      7.6594295871558069
  2252   1     -5.2647042490778171      34.032818347724614     -9.1448739626409612
  2253   1     0.45043427871600134      19.910955766479965      14.970610799779278
  2254   1       17.34351091277895      26.659714172559617      28.784604206207518
  2255   1     -28.333988668073726    -0.18087027296269612      14.156359660816515
  2256   1      23.834596416920046      10.237962778169619      3.5131649276692034
  2257   1      29.150261125589548       30.47739631389237       11.37752457537464
  2258   1       38.50606458991674      59.540235794856187       11.14907227238621
  2259   1      1.5585234034918516      21.096325784825304     -9.3419330538676775
  2260   1      14.679017280119304        45.7630442422114      6.4531248773953047
  2261   1       66.18553642914992       9.206545413511499      25.687098192951378
  2262   1      36.833191408337939      17.497796391687885       28.82088639546885
  2263   1     -2.9586971873592454      26.756626649406812      15.408382948476756
  2264   1      10.889278729139216      29.054354974354371      66.715216884600665
  2265   1      21.332808115436798      12.986462951315602      37.935510053251676
  2266   1      34.960054862467025      26.356443973442776      26.895982826189268
  2267   1    -0.68803126891905741      30.572576278910446      1.4035189764293079
  2268   1      24.480074309029792      25.188479282985764      18.006723504729756
  2269   1      20.066102819730183      29.962671895303984      39.318172560034732
  2270   1      23.719900418174554      15.376535675629874      13.991307823657205
  2271   1      23.413321744280587     0.91724830287604098      7.1508685375087397
  2272   1       57.49927065693506      22.158479237755383      34.496202718204877
  2273   1      16.283541726355228      14.031267639462838      30.978548685865789
  2274   1      26.831845674782056      40.563308134278437       18.67891899788842
  2275   1      8.1201417320390199     -13.576131890828156      9.8766906761698046
  2276   1     -25.615203900057484      32.178465831822571      7.1017583523975585
  2277   1     -4.5033149685926519     -9.3715491871604737      4.5007723692870245
  2278   1      7.5431850070167048      31.670814040216296      13.282842827102996
  2279   1      31.796427438141095      26.594464242070249      19.704801489985936
  2280   1      39.463882478875391      37.175195853188562      32.157473597124728
  2281   1     -21.968872935588994      17.330396246503248    -0.68167723265389624
  2282   1      37.785628257453261      17.865743820985269     -5.7645993898207788
  2283   1     -2.1875400495005293      54.992110886768984      -1.217397534299566
  2284   1      5.3629158470495275      77.508053605066735      17.046445787098786
  2285   1      4.4349782780753637      35.647293309503063      53.877319072841829
  2286   1      1.3741378922233556      38.793499268610319      3.5838351795489829
  2287   1      10.641649289182428      51.809807993717008      11.219554608715663
  2288   1      52.768137049654875      44.309769806226711     -5.7639565955515479
  2289   1      42.543439365835511      39.836591360470095      10.976454745142121
  2290   1      32.066578062628807      38.739392032526247      27.365522613210935
  2291   1      39.910252265438459      6.6813578917869068     -3.1856834898029871
  2292   1      14.843110331113271      8.8792131448639697      17.777225648908416
  2293   1      42.033507832592697     -4.2606730003023081      22.066303463071772
  2294   1      26.272794447953977      4.0924516216155862      14.507921896125639
  2295   1      29.006673964976844      24.875439484913166      18.475836598070309
  2296   1      56.578247677118384      30.910609755736647      37.692564136759131
  2297   1      41.894348384039283      17.246606123018026      30.003720807897565
  2298   1      25.076336739043615      44.821408176688053      14.638787746819709
  2299   1      47.678816352966308      40.607100316799404        33.4293110948867
  2300   1      13.148869680421573       32.58719717523519      34.105509192510567
  2301   1      42.454950976016647      52.452488314756998      56.426291332412468
  2302   1       11.97374447136867      33.519800434077688      3.2279998863998025
  2303   1      34.222250808039107      37.852580804296963      15.034864292879776
  2304   1      31.206389577224058      42.136871384392826       27.82915985953581
  2305   1      14.470839838367478      35.567496709712209      32.301141876975592
  2306   1      26.288534132242795       28.46015868030786      6.7772187355955715
  2307   1      7.7500659799261573      19.655880577803345      40.750264408935664
  2308   1      46.825415684825444      9.5153291872638182      27.798706474519978
  2309   1      41.359867757926928     0.11845775289805659      40.153544782041315
  2310   1      25.997345999671605      16.587875432700312     -7.3701631173253617
  2311   1     -9.0362165449921559      59.401635057990653       4.056465104364511
  2312   1      -6.787060114406434      22.804419205696075       40.06734581833684
  2313   1      -1.109463334370834      1.6182305014637477     0.99068201508845644
  2314   1      21.164711058194943      25.743477727786686      10.763674113698348
  2315   1     -15.624610911091644       51.37516033831028       38.07484331315495
  2316   1     -1.8532115663772959      34.843158391954226      7.8819484827360231
  2317   1      32.672418538550041      9.1583945682265391      15.110517737677586
  2318   1       60.94099027089586      16.707463070035125      19.487784988452102
  2319   1      52.253276596883225      38.198249699751884       27.22690008698229
  2320   1      4.2854516348195615      37.800080749355963      30.630160802632009
  2321   1      39.508886439263009      9.6525562053637266     -5.9908711009381346
  2322   1      17.162349616304049      3.3844726527824101      23.794679119826572
  2323   1      19.862670063368199       9.120590003085578       45.93970754473434
  2324   1      1.8336686765870642      17.657965292142375      48.734782807549735
  2325   1      2.4126786257056008        33.3795352649284      40.020678526908988
  2326   1      16.742125802224027      56.457404075685879     -25.844284146258438
  2327   1      30.230900319482235      42.685120395710754      21.270804249278299
  2328   1      41.514022628100378     -10.143226870282332      27.054852869083195
  2329   1      3.6142620573075837      24.931345491930145      31.241991971285898
  2330   1      51.766148475889125      54.670070202858234      38.361426535048075
  2331   1      37.925552767215962      29.341749816651628      24.593916086391857
  2332   1      58.801551409147123      11.814509262356639      47.891728502330452
  2333   1      71.872422081966576      50.116650631794663      63.253672053675992
  2334   1      29.133039180492059      52.936238418356432      23.568240513086604
  2335   1      34.746667121563135      10.758620323270854      8.6390561372676888
  2336   1       42.75802641048562     0.24614391497837604     -5.4523188080189708
  2337   1      45.186948054530596      29.379351944638433      36.783904450131956
  2338   1     -6.6536164379464386     -14.383244394019687      46.357678788113049
  2339   1      14.898040621499428      27.853022152440815      31.144621865726101
  2340   1      35.208904251461718      15.731504024803186        30.9476190399803
  2341   1     -4.1547280315293476      4.2071379278977901     0.65613076891756605
  2342   1      20.156006520171005      30.456385307059364      17.239199696290903
  2343   1      41.714590037310728      20.226093990143131     -10.983247744489413
  2344   1      5.8824119972646702      29.484438593967749      23.059127210074042
  2345   1       8.337979998292143      8.4448218021599217      46.863868350610545
  2346   1     -2.6002075129150866      37.653002630982755      24.954887688716841
  2347   1      32.213910993067636     -21.211415354018992      14.548313104757964
  2348   1      20.214318723816046      36.727650051335978      60.324748292616377
  2349   1      30.489745267294417      43.903366525400607     -5.5101765124749509
  2350   1      26.639125386242583       55.68877858171107      3.3301714594476799
  2351   1      19.198330752671215      13.473574731538072      42.134421218598909
  2352   1     -9.8156641390452144      64.042094121673031      30.993837593086536
  2353   1      12.003570056277008      43.662477318930421      4.2414540800157141
  2354   1      19.739151667233898      22.161557635929409      49.311826253603449
  2355   1      7.5327968761430304      9.5849252685152102      27.916070452492285
  2356   1      75.948653201601644      27.837579836004107      46.314897452322398
  2357   1      23.878940862095593      14.713234604607191      31.685396649000776
  2358   1      52.339689739107399      32.381119538597908       -16.0112621976197
  2359   1      19.624721374600476      39.426789906403791      49.273863479780751
  2360   1     -19.782608272215903      28.597664358177994      14.972004490186864
  2361   1      12.723599439316081      13.630426683740012      30.796277819314259
  2362   1      18.758580003362606      38.023897434791543      17.752216284107231
  2363   1      40.293317121462174      19.978189174929192      23.743113219685586
  2364   1      44.209466513706509      40.467655800342413     -3.3353785432224545
  2365   1      30.744368975444242      11.428392055970452      23.666707033417101
  2366   1      4.0728670848052317     -8.9543820052054937      21.520877043065884
  2367   1      2.7976303975449546       22.72050564554738      20.804935729764001
  2368   1      41.720881914490334      19.330515696008813      12.525733183729876
  2369   1      9.1379209111822188      10.126917465757193      4.4949756970989299
  2370   1      24.160254793955886      11.908610726691583      36.194960352512659
  2371   1      24.120544971163568       23.26572238416156      20.698686559916645
  2372   1      35.134817929558366      4.9075984311527954      1.1440698641761393
  2373   1      23.747397020802076      37.590543813936598      48.992897627571899
  2374   1      28.918006428583674     -12.556917447732712      31.887627651960305
  2375   1      32.913384256348053      13.727506986681112      20.010917781798739
  2376   1      45.782939533371511      33.033227676586556      1.2828677362818046
  2377   1      19.064898395118465      18.773429517552476      14.551524421845246
  2378   1      13.011680299296964      29.345047371371216      13.832984443862582
  2379   1      37.829175848746424      17.088635278985635      2.9320934204412121
  2380   1      45.771188141803449     -5.6302366855542649      61.481265417906542
  2381   1     0.49338196670256496      26.639990686280324      13.821123212422666
  2382   1      19.684197942019377      32.747245493436182      21.820548505405828
  2383   1       47.55091831687897      15.383395440439644      11.976439070528921
  2384   1      33.174924687841617      45.822647407581805      13.634630653105599
  2385   1      39.205398724972788     -1.1625597806999992      29.053383506518436
  2386   1      35.845721772897214      44.488814237741174      38.869432319699122
  2387   1      4.5523804815881013     -2.0376905970876158      73.459344598645856
  2388   1      8.7864637068311673      29.894184154645387      10.553161717866672
  2389   1      5.4993914916477769      22.023731946850351      26.682039604676852
  2390   1      36.710872226814224     -9.4221852192373934        16.7700917556541
  2391   1      18.923975970086456      32.741873025491742      11.934795727799639
  2392   1      31.587741759334666      20.782742113997603      8.2703943046144595
  2393   1      15.344881170729634      10.683065754335459      23.383227892690424
  2394   1      33.824148167274373      12.755482653588162      40.702312031157291
  2395   1      46.546758277187656     -2.3557060447287919       7.806652507385702
  2396   1      10.791144017271607       33.69354131805806      11.601404023137199
  2397   1      20.807685971449885      11.985656082379112      68.392908677678875
  2398   1      20.623465106343744      -4.249641907929754      30.546309721186763
  2399   1     -7.2696426791226827      31.930516212901278      38.191381115408184
  2400   1       23.56074888622895      -2.048773821215172      23.240140037168402
  2401   1      41.558668545486285      47.151120136568657      26.749305493735033
  2402   1     -7.3836943497117753      36.405407560329493      39.955062548355485
  2403   1      34.442439405160549      9.1742594601662741      5.2073049208189159
  2404   1      30.847507593609265      18.088866768454384      48.051510522741047
  2405   1      36.058778014765231      55.640878043319397      28.814177744907134
  2406   1      13.213230721007656     -16.288113744436046      20.246178600011966
  2407   1      32.646490930359882       19.20516454079673      2.0404883550240482
  2408   1      26.358074656746485      31.475378665073535      8.2701970790793329
  2409   1      57.014679864440609       14.65317539881252      17.818122305588197
  2410   1      44.152776443719354      25.439426565231027      27.399677984203706
  2411   1      24.155583893334349      23.321058820545495      9.6392142862498744
  2412   1        44.4215180839551      25.862859131285607      30.606620417867852
  2413   1      12.433333777498325      27.146390894386002      25.069502369014678
  2414   1      42.677835732804532       24.19083593055019      13.355694147359198
  2415   1      1.7640578008429018      39.349926327723843      64.887788056989109
  2416   1      16.782213969988629      9.3831499451413674      -12.83832133071148
  2417   1      35.960679648959911      35.661859463065326     -18.184237244673277
  2418   1      31.441650823337106       45.79387722033912      3.4996830625193995
  2419   1     -1.3652005144251049      5.3069069582332071      34.207260958515057
  2420   1      36.358372274256865      23.263253378818529      0.7854791477784856
  2421   1      20.835623119500006      28.983679406556778      10.215390672423361
  2422   1      24.679359936787382      61.223988369842147      6.0809275945833301
  2423   1      48.146003970355565      17.378646845444425      8.4410092707583768
  2424   1      7.2375918997153503     -2.8373659856132907      57.939001466336293
  2425   1      55.920687654612614     -11.824706584037141      21.985953159811832
  2426   1      35.057374614849948       20.02145793293953      27.773250940974229
  2427   1      8.4606191743073484      13.482294706858205      28.959117567872099
  2428   1      38.892597523226819      4.9833584352302065      30.396226593617385
  2429   1      39.032025196457681      7.4679484963948051      11.609484288144873
  2430   1      47.077284397199328      24.722997320803351      5.7031171925750987
  2431   1      33.270349282333164      33.117569500190804      7.0753161781229243
  2432   1      20.581563497602179      6.2284547842157334       10.06966213149869
  2433   1      37.417560575460293      12.097838102305229      25.900803048666486
  2434   1      53.259669665431815      22.399282599868304      44.872583342091019
  2435   1      31.170888621392624       2.932790371090646      18.529861040886917
  2436   1      16.300383708547301      31.884335352589993      37.196766393110586
  2437   1      22.853777150081804      49.095807247614431      39.362656316005769
  2438   1      0.7597241533928526     -23.223684952906094      32.992144702950938
  2439   1      37.175191598938014    -0.43777760386449494     -1.6058664687482174
  2440   1      2.5395614475691648      48.481002468430702      37.299400009243726
  2441   1      26.429805114891554      15.928313434100341      6.9341533020462185
  2442   1     -5.8780932800419112      38.569141492641258      30.608083208415081
  2443   1     -12.750701587878631      30.125614782120543       43.00825476700166
  2444   1         33.601798175431      27.700089827168203      3.1024851914113705
  2445   1      12.674146442185735      42.945502928644977      45.865459925677193
  2446   1      26.383144468300276      49.886507836780837      47.530529216335225
  2447   1      17.952012380072652       26.32057663094221    -0.75925254178600099
  2448   1      3.7606015264259769      39.331070848243911       39.49523134828064
  2449   1      35.184075314809675      46.997994154953368     -8.0647240153657247
  2450   1      34.897231686047547    -0.43415522510258953      28.402523213367211
  2451   1      39.586330809101497       25.24615866469895       12.40377484870568
  2452   1    -0.22330462444027455      6.7750517752348411      20.834322052638193
  2453   1      24.040435851654962      16.248463890449965      22.405521741856653
  2454   1      48.553149254832924      10.235310772570203      6.0468258040034826
  2455   1      22.760810030512381    -0.27756389354562344      34.744320145200824
  2456   1       10.53976024284308      3.5091522439481841      18.914852185783353
  2457   1      40.194934428214118      36.107064422371522      10.803380336102547
  2458   1      9.6039477871339507      11.180620056413163      12.477674919789569
  2459   1      30.277766418448412      32.608121089892165      22.180020865269434
  2460   1      7.7973770255179637      12.829686185277513      14.503495294132756
  2461   1     0.51778824102645737      10.638896078474026      12.630535606236185
  2462   1      23.474050594128503      11.973595288705168      22.574354302279822
  2463   1      42.045426002294391      30.444116228641228       50.93880870101178
  2464   1      41.645663928993265       6.904276884685256      25.712845829486501
  2465   1      11.029461322337781      36.972414087612208      10.366930335418632
  2466   1      39.825448237552045      50.738674906229427      8.9444062055018723
  2467   1      43.752318820519044     -7.6804230578144086       32.44844543763309
  2468   1     -8.5241772780828047      45.491180141643383      10.512607555505355
  2469   1      26.009549509925051      11.547443237818626      30.575264838800969
  2470   1       48.33658454306525      49.980398989017267      43.592024293198953
  2471   1      29.612114454341494      53.462711543445849      45.626137278422839
  2472   1      10.818743240346981     0.75405989917514193      48.414559379942368
  2473   1      19.347590197471074      16.522188978072645       23.20161440282028
  2474   1     -6.2419735388909041      48.482022350842982      52.749140673301675
  2475   1      50.097982828920024      12.162390626893721      44.516474936403981
  2476   1      27.606174151606858      7.1580863097934815      13.058341826309979
  2477   1      37.661098017549129      43.574782868089358      16.273163550797438
  2478   1      44.302929428506786      16.645445579564392      18.821481276898012
  2479   1      51.421678892907316      8.9904761082396121      -17.95176970625867
  2480   1      16.333306697700994       9.399936795075746      40.737213175472732
  2481   1      30.298551509185007       10.96772190488212     -6.0424727838433112
  2482   1     -8.0949211285526008     -22.122886565750701     -2.8714036237192038
  2483   1      37.298930661107448     -14.632994430338368       7.636290566672745
  2484   1    0.074633920741006138      21.032696049456018      11.483373668557926
  2485   1      27.102498754903475      19.702171797082947      55.029150913379056
  2486   1      44.636309172146383       8.344357159185277      24.470005937616243
  2487   1      32.058004295470425      30.157576370150974      32.606022417659425
  2488   1      13.377985276081498      11.175642017202271     -2.5892791167327345
  2489   1      42.641894294265484      49.986278435596816      15.201949258800518
  2490   1      -2.800669440609858      31.872657790743322      38.846899913471702
  2491   1      47.087854046080771      21.158924258976249      28.882044710954144
  2492   1      32.932119156634009      32.090649677423507      41.689530697659976
  2493   1      56.992633988155063       16.23437585843072      40.404166202957775
  2494   1      32.275106018631767      45.923234504151999      30.625445039648667
  2495   1     -3.4514042654617914       21.78530963085948      37.111843015496547
  2496   1     -3.8130263843470313      31.229543177066681      46.506374551466678
  2497   1      30.819045991583661      15.264101331436651     -22.281726731531844
  2498   1         23.010083365636      24.707228135760751      27.789003533765726
  2499   1      2.0324378880326304      53.263912313023674      8.7482032692915883
  2500   1      56.656943841684907      44.448948631794039      34.769385259132704
  2501   1      29.904852768417403      21.060523428759012      47.383731910490056
  2502   1      41.793793673063902      37.101791094061525    -0.31146904924439217
  2503   1      15.721670637186993      1.8620256128715393      26.256321518026397
  2504   1      59.672263300288897      45.287705463967228       24.29683982457767
  2505   1      49.194098887178299      3.4512915142711718      12.333495631649258
  2506   1      36.515112308985124      13.113284946813508    -0.22243754948172612
  2507   1      27.926222038739294      49.081105255577846      44.343683043644987
  2508   1      5.9308780683661659       6.148516673165366     -7.0651159096302916
  2509   1      48.024825413580686      62.298907886552847     -14.273823578235941
  2510   1      25.091799877637591      53.446686256270851      31.563711749413326
  2511   1      43.747924919119193      25.894436886036662      23.704607691163972
  2512   1      1.7574445227051816     -17.509130108195034      46.470321021843496
  2513   1        25.5008945937285      56.198637846368008      39.573379259018814
  2514   1      57.700320738736849      13.263940253549919      9.9167869530137907
  2515   1     -3.4176807843766213      23.935390671708021      45.549746442091092
  2516   1      8.0018451239894102      31.065753677929699      27.677534169990722
  2517   1      43.995598831360233      32.811963504620991      18.831230513365494
  2518   1      28.324828477016279      32.247928535982588      44.776575481948676
  2519   1      2.9497969695721276      22.438353277296656       24.36039954741069
  2520   1      14.376486579906606     -19.241934734043543      70.840986462101583
  2521   1      17.642078599163639      13.024798370145788      69.674109783097592
  2522   1      26.294561513445252      33.559709797475605      34.156518708916565
  2523   1      36.927562709475659       6.520946281524032      20.448413319146489
  2524   1      51.546828622183618      12.072566108315078       6.280531507908564
  2525   1      15.156328366803971      11.652953033675468      15.874134380016882
  2526   1      35.854560074034715      39.392664464303344      45.143472582662653
  2527   1      26.081577145675947      23.267658601215196      50.492025255773029
  2528   1      17.912185827786882      33.681662969969047      24.886370102051266
  2529   1      40.344448418389767      26.161691620685151      4.6077025669774772
  2530   1      31.807964518170909     -14.991226077485727      25.390533679584216
  2531   1      9.2900109421809436      21.501465531291387      25.714434436664298
  2532   1      31.550135947216159      16.351642926149168     -3.9713211208933594
  2533   1      3.3075439651363099      28.430978426575738      49.059892643267716
  2534   1       22.67382132059949      10.706914350884759      31.466114438567168
  2535   1      22.352353159297049      30.525696667250344      21.565710703521152
  2536   1      1.7603011529960702     -1.5847311031691216      33.926890265859342
  2537   1      41.868055674986415      13.793749833134136      29.808764655902685
  2538   1      39.628287529177221      19.878724376775331     -18.192817129439749
  2539   1      15.419777314589906      37.435981654918777      53.285011324511146
  2540   1      8.5230213669884716      32.863915981261663      41.468290895069494
  2541   1      18.342595243023464      30.183645628000665      28.933186665380155
  2542   1      14.441279355506698      14.931149761565967      36.359583863201685
  2543   1      26.471708145980681     0.54416182731972529      54.214527513795552
  2544   1      39.245226447832202      2.5035950218648875      43.973083717730511
  2545   1      29.459676809851818      20.199112626229986      1.9596698293820971
  2546   1      26.760574287581381      25.352258801324993      53.018922539224079
  2547   1      16.008235454731395       6.771023318990105      11.468346092820825
  2548   1      6.2530963703455393      23.270228784731209      23.529049754494114
  2549   1      43.264620665581894      52.772628111964501      16.661749388178627
  2550   1     -7.4493334499987123      17.376423901308669      58.340275987643793
  2551   1      32.651839630883579       43.69383235002617      6.0739125455642444
  2552   1      38.463119146885269       22.98513085624937     -3.0111337507094298
  2553   1      8.5664996349648082       32.80728122105559      31.455142730242631
  2554   1      37.321242752271679      33.562997784301324      19.414943120317581
  2555   1     -9.8830939833823184      27.961234708912276     -32.007218236234507
  2556   1      11.051644041601801      10.518701448023917     -5.0385519816000297
  2557   1       21.79196474709493      15.909470461164759     -12.118689954563534
  2558   1      12.193763640441157      39.679000012100389      46.686943085463994
  2559   1      30.636950295883334     -10.979561831644155      18.092754941800965
  2560   1      4.1813867400296649     -7.7408829883780594      29.514024846601369
  2561   1     -2.2453858241771583      27.355827781462683      3.4996031179886229
  2562   1      32.477264686023339      15.825341541069507      15.149959244682806
  2563   1      13.050533850296835      17.782334574557925      24.556594880255997
  2564   1      25.871121639386374      49.877598789619533      19.554726099278763
  2565   1      2.2533882258998674      33.373409911531418      49.104258878177198
  2566   1      29.557670407912703      -1.893222793287457     -6.7587282339320245
  2567   1      45.102572773895766      72.976240345247305      2.8244174497992414
  2568   1      69.992462661112299      19.036476988944919      27.050556106430182
  2569   1      19.326022870026222      32.694650363069464    -0.07302007250071757
  2570   1      29.864076279226566      48.786433696672148      14.662186280672934
  2571   1      32.757543278713847      36.765858398031178        24.2557443121623
  2572   1      16.061601765261717       13.52811086151584      43.411349076844978
  2573   1      22.973106626040035      22.466925846602617    -0.94303606097521808
  2574   1       35.78562696058335      22.016392330586026      30.476822867175134
  2575   1      6.9013532005774358      15.696864651772868       3.488558180201093
  2576   1     -9.3173413694738549      41.799616395971789      23.524426566870563
  2577   1       25.07757529277335      22.508444807745246      5.4641462598354273
  2578   1      20.426811166453746      3.6749480376747545      8.1042439120751997
  2579   1     -1.3308825786586362      59.212954183685149      22.361973591826519
  2580   1      12.590673358952161       25.62042859668302      30.624053607940894
  2581   1      22.136417287332442      -10.46945247991551      30.268424493490656
  2582   1      28.854255202273311      46.996218866135798      37.198356553818883
  2583   1      25.230773135285496      9.2976279998848241      32.789477645724808
  2584   1      9.2890053373473993      37.531196186124248      24.267827110950105
  2585   1      12.017287904749542      18.964117361273406      16.822785303819707
  2586   1      14.941312006311184      18.737356570196599      32.294861921213304
  2587   1     -2.3070914694653668      34.011155483161488      4.2779504974181277
  2588   1      13.980667375436154      2.1619881326025023      32.435193423477642
  2589   1      19.015494766212576      10.862988762545339      65.681740715309431
  2590   1      37.822498645401261       30.79996697818645       38.71879838485598
  2591   1      9.5498448492585073      5.2132496986655115      36.241224840942913
  2592   1      34.322389294100866      1.7850058834605946       18.85750201740662
  2593   1      14.001970821853446      39.987201451556153      26.273956528919697
  2594   1      29.660024067498888      28.129790799183397      39.557340606852954
  2595   1      36.367684083491795      18.389735053511107      38.606149334323646
  2596   1      53.127074508783572      29.279823440392654      32.630818190597637
  2597   1      26.080538510046402      26.669753579406915      50.233130122198041
  2598   1      36.102924463595699      42.397026952274643      22.869240701737287
  2599   1      17.761611031825886      27.866231240038118      19.265271287649078
  2600   1      31.890400535734866      24.031449412784117      8.6034896873684517
  2601   1      12.814730733618383      21.219193265959099      25.051466227414867
  2602   1     -8.1090969251052343      31.106758593476492      47.328624244030138
  2603   1      23.568677247981597      22.084224641726269      16.240943451336715
  2604   1      4.6626280600823451      29.913277724261622      13.704548237221662
  2605   1      67.565174991785454      16.568252577487367      40.901666523254654
  2606   1      9.7203033060981507      18.916969082425034      23.541108790386893
  2607   1      23.142540095761277      11.939523219321433      25.657132322158375
  2608   1      12.871412843939593      16.234797283412647      15.111662628537099
  2609   1      17.029801765513131      18.965927132494258      36.131300680187927
  2610   1      37.385164100318214      52.894098888190619      37.210391767590764
  2611   1      6.3401795668131493     -2.5076896839387786       21.30052816512158
  2612   1      25.089261684477922      16.067848213766275     -3.6586084419218046
  2613   1      31.527216501773129    -0.11695658826089322      38.589501322427374
  2614   1      14.367055730086561      3.5705544596086032      51.806062283545437
  2615   1      5.2546896797300926      56.456956042128823      22.608026440634841
  2616   1     -2.6780423730727132      7.6080545305830585       56.62944588768346
  2617   1      26.298909686657428      1.8652891185215068      35.354543681741404
  2618   1      14.750020326653889         2.9056055521471      6.7430302272923592
  2619   1      40.814913694257847      45.077068900406481      18.835017471348294
  2620   1      39.316745025298346      4.4987878633875749      17.014994700732903
  2621   1      13.109929370879588     -0.6697038231300122      11.757102910931671
  2622   1      18.999312715985308      42.489059711935994      50.014033074756256
  2623   1      14.132488385687351     -5.1419821574707738      64.269177226285748
  2624   1      35.516030905367749      16.766316637761552     -3.6276663157308389
  2625   1      27.452845935813851      1.6719242357321402       2.183264285437418
  2626   1      32.980301476267599      5.5508826448110176      33.879756614417786
  2627   1    -0.53760601671558061     -17.573324473952244     -14.453213352652162
  2628   1      1.2519199031545434      27.278772447754854      27.534945174472153
  2629   1      25.049449670050041      27.910841353658345       21.33629620287601
  2630   1     -3.1723409685626325      6.7913042163407997      41.831796298998654
  2631   1       40.71264222449895      28.201742624316473      11.673127877089588
  2632   1      40.052684734565958      13.669478524818162      10.239579233909559
  2633   1     -6.0353313689809953      32.027152353549241      54.140692665312024
  2634   1       54.44166215080056      12.178652074144273     -16.359432247581022
  2635   1       56.08387270352604      64.060536764777339      12.078613502167165
  2636   1      21.558328497108562      29.164566150064271      28.828199929805816
  2637   1      2.3940528187201564      42.816184968657971      10.097830654210824
  2638   1      28.670297911258171      -2.961831435905061     0.93626740804743969
  2639   1      37.397196330393179      11.415949725068423       30.97414254674721
  2640   1      51.843966513275902      36.449937989473902      41.278935905117031
  2641   1      40.778211209308886      33.673922097013417     -40.313564968903435
  2642   1      26.328179500506099    -0.77031541091911215      39.207555900029654
  2643   1      11.736440226754235      43.791314321557522      49.687509132303504
  2644   1      44.197592828454219      16.708329662316366     0.97822859036180032
  2645   1      52.255420423715599      33.887935607166476      35.492016370598868
  2646   1      13.738355570640309      24.288883152434451    -0.72786322521193236
  2647   1      13.693986736705092    0.057347204827075247      34.830009088211014
  2648   1     -7.2529366245709683      28.572910271429382      23.099223972299875
  2649   1      1.5232217689639356      25.917813162632363      16.965723739029322
  2650   1      6.4793022334229002      46.661779411284201      36.757742449415197
  2651   1       33.62295148451291      34.201086664614721      22.506597326360993
  2652   1      34.464202471567532      36.415806347920864      10.408949997100997
  2653   1       53.35166047079155      7.1458952780954208      28.473714659337546
  2654   1      39.148547045736208      10.072456769944319     -2.8365631155623143
  2655   1      36.618007754049323      2.2015576547220692      8.7405929706998595
  2656   1      41.087728838922452       10.38435160619877      30.002621264904636
  2657   1      28.631932485112745    -0.34333958676347737      17.852048788626888
  2658   1      21.596553784184337        49.1263969126163      3.8249843641004766
  2659   1      36.018819371509778      11.261733176523713      17.731497436776145
  2660   1      39.545038409319098       51.38099831344605      51.542506707253352
  2661   1      7.0511750206260073      12.106119107555806     -2.2420615963723423
  2662   1       33.12585377716659      28.276018622930696      41.440243149434949
  2663   1      36.903733581912128      42.886511860403644      5.8768455554729382
  2664   1     -7.7714627606874904      27.487815589202516       7.519634922847473
  2665   1      11.982887968524318      6.6597444196034186     -7.7182579049345401
  2666   1      36.139414239645802    -0.34003005757026505      35.675253888057554
  2667   1      34.385571862046483      28.891769944638327     -1.2485554326822526
  2668   1       17.75394479877011      9.3560727947341604      6.2411759084617184
  2669   1      39.334429855604057      8.1435209124169603      31.678271483603211
  2670   1      23.015072743439926      4.3981432581369804      60.602291996577179
  2671   1    0.057214176922113176      35.964667065242793       49.54649991769471
  2672   1      47.131249054832473      44.894268000798156      1.3846599122988403
  2673   1      50.198350509656606      15.957993281809587      36.041033684318677
  2674   1      20.633239626062871       29.70016148960973      48.179318810221041
  2675   1      11.760730691038482        25.3284321821621      2.7079758080460938
  2676   1      3.1340028376965412      61.939355219852914      35.190750730855164
  2677   1      24.816248007103255      20.629075543035697      27.653747595244528
  2678   1      39.808201767637449      42.493525348935115       4.336406626426478
  2679   1    -0.63183336334695894       47.65834206497528      22.816662580520799
  2680   1      8.2974725187768428      36.065941425370433      31.682800871706341
  2681   1      13.373498673496247       9.206646997517673     -18.195484527486297
  2682   1      24.721248395925318      58.704071224235015      46.301970793672609
  2683   1      2.9795176218275592      50.097329968077439      25.841702484736594
  2684   1      28.108584401935659       35.37818093980556      24.698397464542641
  2685   1      9.6723022612394161      24.533266824484208      26.180735907357928
  2686   1      15.893152523038337     -11.654469031513486      26.545593108465475
  2687   1      12.254021378997088      37.176829845934265      54.482882392105573
  2688   1      10.567174069280616      31.164321915580203      35.632407946358491
  2689   1      12.396715123774575      1.5500352194188147      8.6159259950686842
  2690   1      13.115087990266897      1.9766663531671651      42.633261136527565
  2691   1      48.623430709754196      65.628992025645914      32.780952416831433
  2692   1      35.548245201551957      8.0232811116267015      16.563451037205091
  2693   1      20.171237525147923        46.6301450952542       -3.02938548936043
  2694   1      42.275032230676729    -0.53311896898868028     -38.276703998453279
  2695   1      25.641313682981377      3.9393729374322657      49.136507068757609
  2696   1      15.108603158769023      59.997977953510748      10.594581779727783
  2697   1      34.452369647232786      69.556960561831445      36.128531182349676
  2698   1     -18.761518145971454      19.194527474398939     -7.4054621631790303
  2699   1      22.740894987234544      16.837112431580646      28.827447480384205
  2700   1      53.844819725340052      10.267463475929597      13.527521809360987
  2701   1      2.3627032165788573      26.587157704541383       10.26702059911074
  2702   1      32.604347000497761      3.6917610591081096      23.256826544670908
  2703   1      16.099941710519914      30.466344570437006      15.022240419835921
  2704   1       10.31082921248464      41.808960788827179      59.242002571934833
  2705   1      42.470169239352806       41.02590186196457      1.5632879348064528
  2706   1      -5.879316116920883      51.255953648525981       19.31176332133478
  2707   1        41.4493104411956      19.554745840986548      44.442145536332511
  2708   1      15.806197497338783      23.355980771642805      18.086678341412597
  2709   1      48.382692323327696      10.294544351207007     -1.7915618394632014
  2710   1     -4.5712945380892922      42.184447619583075      29.224481019016952
  2711   1      28.391224541259099       46.87034753447611      4.0487088596302501
  2712   1      36.927857111084208      32.607956733313955     -1.0689147279930582
  2713   1      7.9884062219388978      5.9723545238396207       29.05044248818114
  2714   1      2.4790693454647545       28.62662330586118     -3.7580161175068132
  2715   1      15.669608755245106      34.761117946574252      39.551153720229969
  2716   1      13.573616658119317      42.869222103039135      7.5943402795771711
  2717   1       34.95136803219976      27.085045534484497      58.334462809169985
  2718   1      38.094873199377069      47.897350650255504      9.0187849774179014
  2719   1      16.896497233385212      44.316378757715974      22.616062619828938
  2720   1      39.895925945584914    -0.16383713598000482      6.2572900148181692
  2721   1      4.8506681670500242      12.926587986838102      43.827038578833779
  2722   1      15.747935325300684     -11.237472266325621      11.799375374908083
  2723   1      9.9594085227299285      38.806267167830981      33.398793137279029
  2724   1      17.962646216588791      8.0151465761245397      2.9292344787949034
  2725   1      40.102007237997128      56.100158581760567      21.696045766493818
  2726   1      24.241430789805463      32.324012584101602      44.470595819817987
  2727   1     -14.627419129514642      48.206186478693418      43.725528999374461
  2728   1      24.160864474785257      9.4094045994534419      10.346948720504651
  2729   1      12.576117717053423      51.262193983661057      28.954527563513903
  2730   1      42.327024188225174      9.2615666547744731      32.786097154706887
  2731   1      25.114615003252911      47.801884970849919      16.417742874108924
  2732   1      34.227561744952844      20.595308462950754      24.335494962989245
  2733   1      33.996981190947892       10.98971504510391      22.537700301379378
  2734   1     -5.1424364715274988       9.597156341940126      42.628199544729455
  2735   1      17.959127371640545      3.7960102758985319      43.221871115533091
  2736   1      48.453539471324625       3.848386366568525     -10.043488654065218
  2737   1      18.668305893726757      19.938625940007089      24.189398977784702
  2738   1      50.782550711534313      35.468762409961975       15.97237480831428
  2739   1      30.026169170333013      16.133487357956763      7.7094316864907686
  2740   1      22.377246078602486      32.904089392559165      66.126817961754611
  2741   1      34.811671357388185      9.8674514321783864      25.348510442375623
  2742   1      49.764168111012992      49.110286715245493      47.403860538090179
  2743   1      28.784255875247297      35.270166121485559      35.718991491727479
  2744   1      8.8241133045768088      40.815683198685832      28.242575025237443
  2745   1      43.123042596729427       25.40597032979958      6.2521096588146845
  2746   1      34.946010846825345      14.277503742273137      9.0366335506145834
  2747   1      9.2044024983844039     -11.034784254965672      18.005080657994121
  2748   1      -3.861177185532032     -28.661152187805172     -4.4089384989678608
  2749   1      14.921495399568192      11.442293791894903      38.189027491185527
  2750   1     0.21188663982039094      24.690827774507735      24.629297035482349
  2751   1      45.587356367170919      42.281562649273276    -0.10017258414548535
  2752   1     -1.0472716550079919      42.057318969714849      10.177285126576848
  2753   1      16.181311088152682      24.198486216068837      25.079696879609468
  2754   1      26.548059605698342     0.51619696324168252      14.081262065248117
  2755   1      25.767877673640729     -5.3424125030730263      31.571720913392692
  2756   1      42.771349275659432      32.108644809481163      25.872568497513331
  2757   1      15.000577423984549      29.675457477074037      27.215320270207918
  2758   1      23.956330431361216       31.90396159956358     -9.3494092241840274
  2759   1      13.509888480456475     -9.3121892215775421       13.40842434443571
  2760   1      35.982370364755617      21.248797161775158      3.7152632967938759
  2761   1      35.171497497676917      -3.027904841462262      9.8398745595353727
  2762   1      0.4719094274251518     -8.6714024558239942      38.274605982596128
  2763   1      38.067126415554867      40.078519371043477      51.393934753824098
  2764   1      38.490518566630193     -4.6103818798001406      45.381872824584534
  2765   1      46.063056106080879     0.79234204173794909      33.195554958260331
  2766   1     -9.7918553523800327      4.2106779035685991      20.642966335020201
  2767   1      22.996869420698232      20.911914277968023      2.5527794402330075
  2768   1      1.0444568752183849      12.871321620911571      9.8130618977060742
  2769   1      36.652241661095104      4.1915350807749752      23.028772470497874
  2770   1      13.683372912461456      40.137659826898194      53.822328805518033
  2771   1      31.997235254573468      31.888948002798529       12.83460334660403
  2772   1      15.788869990358096      24.557603325707298      30.834203642087271
  2773   1      28.200343629571375      31.763565512739557      32.226467580094749
  2774   1      17.725410328381898      6.2231669919061563      7.3780290945877516
  2775   1      34.026329701663315      -13.14789416508304      26.915712530969373
  2776   1      45.607741094334791      53.177111181147076     -11.870373868882629
  2777   1      18.975690087177142       36.02627002567074      4.2486517799775454
  2778   1     -10.849438448260011     -4.3105889243873703      28.310610493167374
  2779   1      21.239781047854052      25.625493878739128      18.018310667434459
  2780   1      33.885143375841771      11.095853817370909      33.793137833919381
  2781   1      52.253064576368281      13.181963145362527      12.437814798673953
  2782   1      2.1786048828364599      43.822735446179891      28.095113520482972
  2783   1      13.065073769424993      39.039504821048553      57.054395442592082
  2784   1     -1.8288111294316216      12.818067662832789      4.2848316340487402
  2785   1      10.815384946495453      18.015470205556987      47.074594784752314
  2786   1      45.298314643630292       16.65087505530807      33.502174375260118
  2787   1      36.497575452007666      23.064358493116305      20.790855698949724
  2788   1      7.1701503748058872      13.719745028836222      22.274519138592151
  2789   1      22.559175546663372      13.341678350619468       3.430842407363806
  2790   1      29.761273690127496      37.921359820376757      22.427775890943675
  2791   1      44.581761256322274      65.816219551303234     -7.9794149881663579
  2792   1      3.3605839942277167      1.8926006721491557    -0.35022325869999521
  2793   1      38.058749404586905       42.20431396028836      42.376066186353114
  2794   1     -10.141365839971089      29.215098997380636     -3.3508354538794221
  2795   1       30.18627040128062      15.353260008522179      2.0937820819880746
  2796   1      26.120521314943684     -3.4683199506342137      25.456142955727021
  2797   1      14.322377507421596      19.600206656597067      45.248909931541149
  2798   1      29.140624791377448      49.783368228836437      28.870633820500903
  2799   1      31.841177844082519      22.433201401528152      49.691233428340944
  2800   1      54.985552595429297      51.217391902313729      2.4561457738116941
  2801   1      24.082606847557095      10.293423933975252      28.452587310761078
  2802   1      25.667188453751375      44.010442673497003      58.875184530519135
  2803   1      33.116950457311241      5.1248636268186623      29.205884868204038
  2804   1      4.2543942340798138      25.702260742855024      43.851603769752181
  2805   1      27.045626936020085      32.032732896495851     -10.927290341209567
  2806   1      41.281338085432608      -14.94455927083068      20.657109454237705
  2807   1     -3.8114844255395139      5.1982031525315344      11.896922822320438
  2808   1      11.383228565912558      12.450442836543703     -20.729242441043635
  2809   1      39.516317316795941      21.531338946476744      42.772897638093404
  2810   1      39.547403737067157      22.056978201010782     -12.763074637056901
  2811   1      39.712263412046916      48.758953607356922      19.583350669013051
  2812   1      35.177179049401772      27.954671703193608       37.19910267142108
  2813   1      12.456099319132031      11.483630800797659      7.6859169265797096
  2814   1      28.194113522739983       10.80512213412166      8.5623455184365298
  2815   1      53.239113698166975      48.867117762111185      57.510049660361744
  2816   1     -24.696427690041389      3.1892987028093009      28.567267657748072
  2817   1      25.434899667767173      9.9934684142069994       24.45994671356824
  2818   1      5.3057120344704867      51.627704394334067      41.699914604596628
  2819   1      13.238025081720199      24.876750499336691      38.394131727928553
  2820   1      42.798674288825787      59.535568074425179      16.764488092751208
  2821   1      41.856869724701951       12.34559165398395      13.419848611976459
  2822   1      4.9250002421953418      1.8106067788779352      20.156551825900081
  2823   1       22.96276728382637      12.765387357357772      15.973834046239945
  2824   1      2.4996498257667228      23.595991678224856      42.497754723991669
  2825   1      43.008264702854184      46.179158593815238      38.213003944133625
  2826   1     -2.9660470079963384      45.518875918832045      24.078926666835759
  2827   1      39.896516098768522        43.0981815676477      37.320525627468953
  2828   1      55.082897768123445      30.182862355920815      40.706038507636308
  2829   1      43.657014813480025      45.803912312015449     -0.8131466308279568
  2830   1      1.8450208957568173      3.1051133547572456      2.2903821747506043
  2831   1      26.696000440012433      42.726000028981744       21.24924906880738
  2832   1      -1.227974319075946      13.720363267701098      29.760281147989222
  2833   1      8.5612017530123374      10.011671533619742      23.301358642096197
  2834   1      16.156630728610331      23.561169933894856      8.9694386631883081
  2835   1       7.510345910593955      27.589714525456035      29.514292541286068
  2836   1       6.617499772078995      25.014195656063649      2.2682797102955652
  2837   1      34.180056725671712        1.62488256395853      5.7418584963652783
  2838   1      14.931119019369545      17.830383910503507     -10.494686228180857
  2839   1      43.350738855566121      29.310116610202584      30.087552443292861
  2840   1      19.735411278907197      27.479043747001558      45.039805900709808
  2841   1      16.531957245700941      42.527358741826674      9.4555377404270011
  2842   1      38.212507701742744      14.531328484655324      15.092395976478411
  2843   1      26.305744002972663      56.134288174619819      56.761361970086007
  2844   1      14.933754040110722      12.887172686183664      52.993245405406604
  2845   1      21.215553653120566      27.623953037909779      15.419405116159117
  2846   1      23.653152712356441      46.963452971430215      9.0631287994636267
  2847   1      27.581702832205895      14.602834589814959     -2.4773575970933779
  2848   1      51.095247375535422      3.6772042504579727      20.143412141174803
  2849   1      6.6908958034029764      41.395089173242724      11.331172557736176
  2850   1      13.336436432579349      36.403743959247848     0.05365142153168035
  2851   1      17.437985193945057      17.047638047588819      48.129942944785412
  2852   1      14.667782372408499      26.970844141981903      68.759636188514634
  2853   1      50.466550624682483      35.434274478778633      19.243234755918543
  2854   1      19.173710724209919      35.275982282044922      32.494495061455957
  2855   1      46.888552584804742      4.6222390379378293      18.917307357948481
  2856   1      43.811472635025083      15.305700982627533      22.862516750803902
  2857   1      53.354789387600299      31.057806829949129      38.152172922696934
  2858   1      8.6255932427443991      13.801032001457981       35.72047207914342
  2859   1      10.586380966224715      12.962934651309642      5.5049298051919635
  2860   1    -0.35201644415087413     -8.3276193065954764      7.1330410674065279
  2861   1      14.406190111210467     -1.7855707890799801      37.467695057951801
  2862   1      16.018532485926656       30.64376890256198      19.111165073094213
  2863   1      4.9865793010798827      20.353907120973748      20.198673141971884
  2864   1      20.469486226822642     -14.050438124381134      64.032508567300127
  2865   1      41.428471249806172     -16.287231335919987      43.018998875920481
  2866   1      17.394037101357551      25.513392031218366      15.599930250317042
  2867   1     -11.616472754178304      46.086743461436342      13.245909837796029
  2868   1      46.333044492028883       50.07408089795981      41.118649332828483
  2869   1      14.824954919925299      19.557654259096626      3.8043370208017446
  2870   1      16.174930420953931       23.94162124404912      37.098659855140333
  2871   1      35.491336990169032      47.438791436763886      16.637254657234465
  2872   1      58.356510985093713      12.918980666448668      20.525989053439982
  2873   1     -22.475629273417685      53.045330302945402      10.441846421829396
  2874   1      31.551105946385881      50.834113842547417      45.522021862929854
  2875   1      1.3601725956129287      22.606996140878014       17.99297961860599
  2876   1      15.513421708380063      27.611737330429531       51.69885693104434
  2877   1      17.675935883909435     -3.3737538409060073      56.698036916176605
  2878   1      50.861668011578317      47.541382956569869     -6.7744676140902333
  2879   1      28.238776379422557      23.087068518406461      30.318138175075237
  2880   1       32.36206542911733      54.499632976010282      17.231296186737001
  2881   1      20.424826827121688      15.846664138979804      26.613452730146587
  2882   1      27.132100944255669      17.236498024365662      25.179917662627155
  2883   1      10.687952322664692       48.60600702733651      28.031079479994975
  2884   1      13.847171232061472      15.348689079835536       26.65121178027821
  2885   1      19.634434368141832      37.485233827683992      57.180633926073099
  2886   1      19.757590146111291      31.209322681705959        -14.691047061451
  2887   1      26.395659209311074      42.273809529038083     -2.4700166426096333
  2888   1      32.050251748847003      29.768075566436593      49.677712037714585
  2889   1      8.9606634471513615       15.88841916887899      6.1270353656693555
  2890   1    -0.12875321573436169      30.977620825318546       43.84494416886335
  2891   1      16.960590687784773      29.482984446641971     0.75712322279574062
  2892   1      38.392253873054301    0.077766909581132734      37.793785340386421
  2893   1      17.731849383196529      43.402008555155618      33.800702804527603
  2894   1      26.466001878238519      39.535099886182785      58.735351464180333
  2895   1      29.664269461462702      10.723277346050235      30.074777535497741
  2896   1      38.523236667631892        17.7987886269024      35.218005203659871
  2897   1      65.152812084787683      63.090668038157524       73.30371413395379
  2898   1      8.3403839866024096      48.645264528239103      17.814776170682094
  2899   1      28.318270700816829      14.537187544597346     -16.150878298920084
  2900   1      30.379438107112211      22.034777151104226      18.076297399218362
  2901   1        58.9672753225544      7.0887003976544305      43.930755530295762
  2902   1      25.844826698976316      20.552121007918295     -9.3530508838102833
  2903   1      9.0599507550119043      10.653742918650588      7.7220724203886926
  2904   1      11.852041858726745      32.086111758516537       41.95882192585313
  2905   1        35.4522625280756      41.801023137501048     -1.3294626074024107
  2906   1      15.047175469881541     -14.121215232403197      22.220941171474365
  2907   1      6.5618433347754932      54.993820459280386      7.6295411610297936
  2908   1      35.555988077158268      29.481141577720077      27.043132064904103
  2909   1      23.312984381464805      1.3790427986547151      49.103431260475091
  2910   1      35.408174536688449      30.095064192957338      1.6503248106249193
  2911   1      18.812220494797469      5.0525374332865294      17.720047566794854
  2912   1     -3.9171695010449188      5.6884408839547254      4.9279874216433486
  2913   1      37.928701503495418      54.911073940711638      2.3391501803218366
  2914   1     -5.3671455786537239      28.613499817403046      26.997544244218762
  2915   1     -4.4840712473543523     0.75420697332567832      6.4988979672988254
  2916   1      40.952068851897494     -4.0125251665269186      29.372582535554031
  2917   1      39.297607886354697      19.917132305470911      57.119336434749087
  2918   1      20.483446493050145      5.1272343821703794      34.512325803976644
  2919   1     -12.091867796658274      18.945867190852461      5.7198592557017607
  2920   1      11.065619686954644      6.6397744466764159      28.314288465565074
  2921   1      35.226897276938153      27.506645628503591      21.114363479553099
  2922   1      41.320817135103162       42.14315795030975      7.4222016407977582
  2923   1      41.792443725947045      44.814983474577346      2.0124130363583026
  2924   1     -9.7930967201349457      50.682014244139836      26.499377947151324
  2925   1     0.84226325491850063      29.876209671107794      14.541910989646414
  2926   1      31.336911874246315      78.513581295659122      36.584523442210589
  2927   1      29.162449284864799      54.941908874185472      9.8225552162646128
  2928   1      6.1747247361420357      34.799338429367538      19.094915737826049
  2929   1      -5.910019834343756      44.414529406937348     -13.503864616807567
  2930   1      44.648235560570384      16.203715822676706      10.278904869118254
  2931   1      38.880150621631152      18.148692264352434      13.793963993562542
  2932   1      42.897631555691646      14.958564024313231      55.228673446409289
  2933   1      18.898915326152636      32.113409587982481      42.227100594980996
  2934   1      9.5278292016718087      8.6884241931879771     -7.8517634920190886
  2935   1      38.850100389436825      15.327303470745713      38.605025387392338
  2936   1      20.000998182991697    -0.27361662695823691     0.73675881668023513
  2937   1      14.406663498958373      24.044885986858752      15.250840689899842
  2938   1      30.994552081106175      10.775832120432886      20.053265365113845
  2939   1      41.945331097277844      1.6476571185827016      35.322252665931721
  2940   1      37.163718572349822       20.88264167271695      33.157911750652779
  2941   1      62.164400045801386      20.525781166859641      34.455630526554152
  2942   1     -2.4027181951894625       33.43073898975311      28.839190184232212
  2943   1      20.027170951534604      18.191906872038615      18.924365593468337
  2944   1      3.0348599369542573      5.5282537557439557      33.521754711158813
  2945   1      30.237156890251022      15.970427086242289     -7.0203795857810531
  2946   1     -6.8696450922465813      29.322347783809413     -4.2042781919996361
  2947   1      27.235548422930332      28.828385795370963      18.841932345765954
  2948   1      33.677701117786974      42.428658731781866      35.302739338333758
  2949   1      35.160222605660572       15.98412720515635      49.799236765653767
  2950   1     -2.8694793885756145       50.15932636754534      22.658574408049482
  2951   1      5.4306568659199526      33.195681961856089      22.158192223495835
  2952   1     -1.2157995519757667       6.891057512730244     -11.444568664393195
  2953   1      35.807564953190628      45.236667499275306     -1.9087969619965148
  2954   1      42.526527080437319      22.955570930976524     0.69831791486457451
  2955   1      19.157152185614287     -2.7178318143237279       24.39971856589268
  2956   1       28.76766048621727      19.929114673520875      29.982321166102441
  2957   1      21.069316747410873      15.804598583456823      56.010913932368346
  2958   1      29.989899091149066       17.27238279919592      38.228738059057839
  2959   1      48.476079879677187      4.0521442260562548      30.620500506260615
  2960   1      32.793132547699386      54.995596950979412      5.4879321826716954
  2961   1       36.20413487170179     -2.4469647939197707      4.9781448534790282
  2962   1      15.808249493402974      27.274104994381311      73.566134823702711
  2963   1      3.8105274646705118      59.375526407983564       16.64284055945279
  2964   1      1.6524091478388021      1.5651597706937019      22.704866678053548
  2965   1      5.8840625702956402      32.825443664438296      26.351796719489936
  2966   1      52.005155394190666      11.891197071964971      38.283682566250839
  2967   1       66.60519682925117      12.014727112457829      51.463620521446089
  2968   1      24.583776241808213      13.247830414498834      46.932767484319157
  2969   1      23.179598883763102      48.193763444410052      44.823033989274101
  2970   1     -8.5096232010470114      40.706715005315573      40.448337334777108
  2971   1      34.760633294198129      33.732174991141854      13.629316898579793
  2972   1      9.6462289977513205    -0.21678916985382402      38.417420614283508
  2973   1       20.66637594452725      41.336191789034203      12.734213861452226
  2974   1      4.2539689504365068      15.734125952642422      24.259345912298432
  2975   1      38.587333578982317      35.422647728828387      41.849954611120523
  2976   1      11.438729378893775      33.190831450831858      38.680452936459119
  2977   1      46.156459917573194      50.933852105339767      12.579461430420467
  2978   1      32.494664515499117      3.2140943895862346      8.2173621024985497
  2979   1      35.993560501956637      2.8459118709687159      44.771864499157346
  2980   1       5.596341807007235      58.046485136010752      10.763754992427925
  2981   1      25.276771594943266       21.78145341731166      36.339081180434633
  2982   1      20.051848128854605       16.74788285618364      33.385087724142565
  2983   1      22.825078301251043      33.814952984130692      21.933306005500782
  2984   1      17.033635096990562      38.946381229626596      41.490991231562248
  2985   1      40.319557841222768      12.783072542655612      40.276390359693295
  2986   1      16.680887211214902      33.207138991617562      31.665532162188924
  2987   1      16.554182448127822      50.487991150443605      34.542179760699234
  2988   1      38.281859634328974      30.437399312728328      20.476191522876192
  2989   1      15.431524097487918     -4.5440121134199627      30.440599698018598
  2990   1      26.902247759225151      42.366492333276312      35.225959120314791
  2991   1      29.003228884483043      18.951879893745836      16.072334820639263
  2992   1      14.495857430844122      13.554736508862961      18.676655566012276
  2993   1      25.131646248797761      34.403276934134588      41.498382110810631
  2994   1       30.14065908630096      38.080357319148405      12.115109205116983
  2995   1      14.160966190388528      11.095952103631136     -14.807511550209874
  2996   1       41.43620474821568      26.603551872982305      29.200541663388954
  2997   1      23.146414925405239      12.715950288028337      42.770613984822781
  2998   1      19.927119670012122      6.3978099160194875      43.796644205731539
  2999   1      58.286270693031959      24.257134173189332       41.44395619140608
  3000   1      15.828530512278798      46.066160897035836      33.874802277755954
  3001   1      28.891633468112136      29.025302739136567      43.609035476403839
  3002   1     -1.2869573630621909      46.863210731854323      17.488910721813074
  3003   1     -12.075683079836947      56.019267645428478    -0.67758435976009546
  3004   1     -2.7787456472845178     -8.9546060691138898      19.392912287436932
  3005   1      25.305335963076626      -7.009228717034258      7.8668961611736705
  3006   1      28.308050885634788      15.099391788360604      10.580226094643761
  3007   1      18.963635212777319      33.398847956523511      17.749542607505312
  3008   1      35.651713220758069      21.690416183892665      40.957989995340078
  3009   1      22.243831968271813      23.668979157858693     -11.160799815898732
  3010   1      41.957401622432158      25.565096289919058      10.140477197252455
  3011   1      1.1811126184963594      32.653906052031402      17.459504738039961
  3012   1      15.203547246795331      6.5395681493605293      25.901718350924984
  3013   1      2.4404179112169748     -2.4922282149438839      54.385135743659504
  3014   1      14.236461992257512      45.951892047287878      0.1765732330720696
  3015   1      1.7950614585754099      -5.455912873055432      16.765603136588862
  3016   1     -3.3395420386090664      46.374448062390513     -13.028539905087268
  3017   1       47.85108436787236       40.17426008146802      1.1062583657889493
  3018   1       29.41621688182266      50.216488743297255       40.67709145960464
  3019   1      5.6355334001362847      18.876060073298657      12.087522780664083
  3020   1      28.836108664211135     -2.9873484335793239      56.145962771235375
  3021   1     -11.556301230972505      0.3856179257608866     -6.4339733866154409
  3022   1       28.76461658175657      3.0543666669023191      8.4039319288834058
  3023   1      60.817834877012196      56.772749063069888      34.531890904076974
  3024   1      10.849131492694074       18.77231758319741      27.139704556168798
  3025   1      57.509020500106693      44.052897244625598      12.255969960729676
  3026   1      29.523789364610568       51.49136008174716      37.752134184819248
  3027   1      25.739591370787764     -2.4370080992417336      42.605574375275758
  3028   1      38.668450339191885      24.746808975277446      15.354035843777268
  3029   1      25.801180111086527       19.82563404401424      14.145750924808912
  3030   1      28.482981354275335      12.937348637700756      20.937621750475529
  3031   1      16.696370221617201      20.653574478724327       10.41293259676705
  3032   1      37.909535027416467      21.288266566427961      27.302231918590522
  3033   1      19.313509355464365      11.080453277108532      28.940630790925066
  3034   1      34.067747117645048       41.51032805724919      15.570315565633472
  3035   1      48.282499439830652      27.608401386518491      30.621477478299589
  3036   1      7.8097799625743507      23.403904815801784      14.015590918942198
  3037   1      32.221912129749462      18.766636451820254      16.539455906763767
  3038   1      11.155139673301274      46.743858214896193      46.401030020029552
  3039   1      80.864079905218773      29.159863025554916      17.768121314423304
  3040   1      31.108305755677566      40.297446098551269      14.680010294375547
  3041   1      35.224125031836309      13.613045483250039      28.423498136831942
  3042   1      12.874108292712327     -9.8237616618986898      22.295583908096134
  3043   1      8.5923186530441065      61.163447861287871      50.889937969983315
  3044   1      38.101989482458904      39.385283447932693      10.056973717312747
  3045   1      5.9552298627368678      52.107164293782077      31.290215873793347
  3046   1      27.589901133331985       38.12216737146931      35.383139827214251
  3047   1      14.440725973411846      30.330712750285326      39.567790624108447
  3048   1      43.181421857170029      5.8629499591683967      22.623298627550334
  3049   1      4.5609259867344125      37.852001498876128      18.162986508256992
  3050   1     -8.0609095087926192      20.368869651201734      15.718464465270477
  3051   1      44.406483258788199       37.08971565660255      2.1307132487351415
  3052   1      37.750109095806273     -3.3358289543838113      36.593494436326182
  3053   1      40.163122310142171      12.285954192289287      18.402355801966937
  3054   1      29.525185447244038      7.7460756784790208         42.619446980069
  3055   1      26.807835108041996      45.661486900020641      34.393542286429863
  3056   1      35.784798778406788      10.419626116705398      14.415237555237661
  3057   1      42.006996835605072      8.9120599312076028      13.024886966970129
  3058   1      22.015672848823129      1.2200658419442452      23.086363915136694
  3059   1    -0.76389173290366374      29.922667198993189      28.342294886010581
  3060   1      22.812743696194676      43.177077625667351      24.365115668544334
  3061   1      10.330911894554404      32.208987686710607     0.60527515204997129
  3062   1      32.223951132097504      13.945487000225794     -13.061192662217069
  3063   1      12.428743825358861      4.9620417972949316     -4.1176205093502132
  3064   1      35.060918700200688      34.536726196468557      42.587556603745305
  3065   1      10.485089289087149      1.1376187750556981      31.121117182688309
  3066   1      34.064525536023019     -13.358430737884969       17.33270657460973
  3067   1       17.13604214689428     -12.803687184413763      29.838780261155325
  3068   1      50.541902175149879      50.341028597341932      33.343020865699764
  3069   1      39.824241423982699       4.651404255612154      23.688435848459491
  3070   1      11.750973059199199      26.543761144017196      12.195165039436811
  3071   1      43.976681693339756    -0.63667005435231483      31.345415877094677
  3072   1      19.629660762523109      43.206950604005989      37.569812891933772
  3073   1      19.970948217577547      11.384696437721207      8.6347930696749753
  3074   1      38.050771331940908     -9.1267832548250549      27.160274813626785
  3075   1      43.150977853697071       27.23384382584516      3.4289974060123622
  3076   1      15.356254302361764      4.8849721169451303      19.432605412050489
  3077   1      24.991668651957955      35.085936220015135      8.1406129354422792
  3078   1      38.929457853944541      47.094311333725159      16.298175588621682
  3079   1      4.1079088268908333      15.613440369914461      5.5012999404055352
  3080   1      25.138817752452685      39.645454639278427      26.793118439042846
  3081   1      45.073137908080582      9.3062177815445857     -9.2074630009699696
  3082   1      17.313083740664037      2.0529938548020104      19.777257321057458
  3083   1      50.027422759247131      26.539686223892907     -8.9812488120162595
  3084   1      23.388274966495544      10.897976169265199      39.963296523625694
  3085   1       31.69204499025594      14.039302444354639      32.080995898736447
  3086   1       14.11803260377336       10.85981779559458      20.540728090465482
  3087   1      36.670905727017278      5.1123177883285873      32.873187144107099
  3088   1     -5.0837274001352029      26.210293211609311     -8.5554886905023668
  3089   1      10.693945048094381     -6.7828883988937845      14.024653058601263
  3090   1      8.9615118676287722     -14.329909068853183      28.736558625841354
  3091   1      15.333034648831568      32.463832637074958       42.38031335005725
  3092   1      16.169421578244791       11.35833421533035      28.899146444129023
  3093   1      42.681437671584682      14.796563232361294       16.40567651934257
  3094   1      23.256727486466655      4.4655048807568818      40.858338235689978
  3095   1      6.1236664407731167      51.845886580733911      8.2787117196913442
  3096   1     -27.220316667318478      34.943502063073964      40.918076531213984
  3097   1      19.897447285514016     -6.3828871271494796     -23.384445878013839
  3098   1      36.703616766697223      18.924000588064185      47.415335004836209
  3099   1      38.075384915382415      42.268651294837213      8.9485041474774736
  3100   1      37.751676036169705       2.573307401167519      0.1584062341370247
  3101   1      45.465576845296248      49.127941335236272     -1.5588237750598695
  3102   1      4.0646308511502793      5.3630019598883631     -1.5166642815253844
  3103   1      45.073360764325763      26.370712724456357     -1.0370791817755216
  3104   1      80.427680517420171      22.326016795213235      25.560959810755946
  3105   1      28.024896402661618      4.4535301189045766      28.183910365336249
  3106   1      7.6478158864271517      54.909722728620231      52.863235660666668
  3107   1      33.571654521638266      34.732856240197378      51.353916381152615
  3108   1      42.109895832812249      15.800830728683669      12.327548299568377
  3109   1       27.91590282012416      25.468830707457982      13.324029472680397
  3110   1     -10.184765827182202      14.608526462884882      5.1172372982783028
  3111   1      35.675060448724437    -0.83892638804594322       31.83409326615924
  3112   1      42.914470602553372      1.8615159765788911     -21.908123197648617
  3113   1      21.415260012278772      4.9957667800204577      64.241031649907001
  3114   1      3.5343124702699367     -16.681193173584496      28.692799406356805
  3115   1      25.125789698140572      10.046774924559919      42.679434386874064
  3116   1      8.6554822419459825      30.504077639800805      24.346505556388099
  3117   1      30.720280895440773      32.614925298671892      17.127198122997722
  3118   1      78.146071575275954      12.331924743760618      17.789101102991545
  3119   1        17.2051134230353      21.194171534854608      20.131017785558562
  3120   1      50.142840560825931      57.186294313795692      16.719036297237587
  3121   1      39.607282678620336      5.0950299916513124       7.722350526628655
  3122   1      16.992899132494667      1.7301623881041828      13.256437947257725
  3123   1      6.8898266175079925      47.571488709197048      54.241635009225142
  3124   1      48.635452955484652      35.368291272229555      23.262504666735349
  3125   1      17.774992970065338      5.0447825090491447       53.14926855585427
  3126   1      1.8956805293663683       46.68000849814792      16.755004465126323
  3127   1      38.334460341788628      46.715415679720493      33.567681416956063
  3128   1      34.960049982716676      23.678976445868976     -3.6203488771720065
  3129   1     -1.9841357144815677      4.5141473411793482      14.709030884306335
  3130   1     -5.4710911446394288     -5.9187776518708697      38.137142880043356
  3131   1      23.480893217151152      -3.146516741689374      29.474640686100123
  3132   1      43.918924951067176      58.104203803467165      10.397385730185528
  3133   1     0.11618243397717244      34.495564686980394      41.736922308845763
  3134   1      20.349881498452753      3.4541187239505406      21.002494611671452
  3135   1      28.610216411039662       37.21086748384019      41.971055523587182
  3136   1      34.535614445279741      38.180985157251918      42.493967585501906
  3137   1     -13.819773068135117       26.06718886970431      55.268109860324081
  3138   1      8.9693813531837741      47.842103195781263      33.187052866612127
  3139   1       40.13990698126581      25.824937589660212      20.540385653877241
  3140   1      26.123934548995564      6.8897042411425966      22.420610764854125
  3141   1     -1.2906862228091442      34.362765542805143      19.260974187249683
  3142   1      50.090070630324604      19.970186703267682      5.9480429518998523
  3143   1        32.9477247024113      32.421416473918633      19.682344445286041
  3144   1      44.720992140311076      46.529786720299597      11.369777572308791
  3145   1      33.929471471835875     -7.5540283489488562     -22.733062889027259
  3146   1       67.39893356121614      23.271209806430761      6.9642495720021618
  3147   1      32.053022889406428      17.016428316960212     -13.093137764271976
  3148   1      11.354286605332275      9.1544944773464589      14.768912774185237
  3149   1      47.707588944481266      -23.58941590228893     0.65681246075476285
  3150   1      5.7773214564690871      43.997366259929485      3.9290339617928289
  3151   1     0.56766766124339429      14.962390880906133     -2.6681162327695471
  3152   1      31.930024353216378      1.6227304244750023      12.612360535550131
  3153   1       13.66215206082728      2.1302299533092977      13.602839689591873
  3154   1      37.535891314620038      3.2991311888594042      13.113318916403397
  3155   1      50.466097772028711      53.689173653972937       22.95681695852625
  3156   1      48.086850646343564      14.848489286882504     -7.7399944410734065
  3157   1      15.469132207490221      20.321212289853012     -0.2731418964549101
  3158   1      13.282285721693988      14.874215706196468      23.204669760331043
  3159   1      49.651418232764051      40.841034470457295      19.731637030924432
  3160   1       24.35668190496088      24.268232719508472      13.052159278454015
  3161   1       32.83915467697696      7.7470505801616198       42.10130849100937
  3162   1      18.398845252558875      5.0621900361516845      14.125937909878505
  3163   1      36.967233519983616      25.471993381394025      18.027682000392442
  3164   1     -5.1958859682541636      63.017985145726904      42.309517950270191
  3165   1      10.797891096704316      51.673247218442292      39.056907332354932
  3166   1      49.097378369204527      17.328627806125525      39.355905163746442
  3167   1      31.147927673476801       34.31127565271256      53.498310339104663
  3168   1      21.559204929730722      9.0199644835352153       36.91972521740734
  3169   1      1.7142304117542464      40.935365380510525     -13.328914866786247
  3170   1        7.98902709712846     -2.1294699823486329      14.601558882760115
  3171   1      15.167405087367282      33.409958193842662      4.3199173888825753
  3172   1       12.30646941634067      11.143442975419457      17.752833858109888
  3173   1      1.0914896817821838      38.179157214682505      32.683043075631971
  3174   1      50.906006875462765      31.869555799528523      21.787031744789235
  3175   1      33.185004907804817      29.179604696090969      29.705913976569004
  3176   1      29.247331843518996      15.129068056410004      35.801202268829265
  3177   1      19.199749562342383      2.2883977082286826      2.7489324033297904
  3178   1      20.144745878481977       48.52768065176366      37.533044796838304
  3179   1      65.441933126784519       16.10641710484413      34.151729453256301
  3180   1      12.478117292020304      10.615888216682801      4.4413530173620135
  3181   1      64.609509398631744      48.137685375588411      45.537781978591752
  3182   1      42.295563625667761      29.213875383795433     -8.1633422627735541
  3183   1      17.389997972006089      46.456197351282825      48.701323525323033
  3184   1      24.186399108015188      18.285802570147208       7.541992930265546
  3185   1      34.099407401246602      49.539717400033268      10.117225947682456
  3186   1      35.814978030273529       26.78514793702222      0.9212749593331655
  3187   1     -13.243778816596047      15.955307278774386      5.3434614057960834
  3188   1      14.558996797235665      31.708483595648218       49.51675447641928
  3189   1      31.442670586698636      28.678892488733862      58.187062718790557
  3190   1      25.241629911730584      34.646974142544259     0.46347007489322456
  3191   1     -7.7595841704881128      45.325246384838145     -6.4230273397695656
  3192   1      1.8767020197087552      32.702392804322734      25.180655462412471
  3193   1      11.573500001274978       52.72157783779582      53.991539154076463
  3194   1     -4.4247678283251091      41.929666668345014       24.26449987759829
  3195   1      36.340793367922487       48.08839554109359      22.835665951563247
  3196   1      3.6378800624108769      41.507503962917767       24.85903341728628
  3197   1      49.383168301382916      43.107792397399948      24.631698913442268
  3198   1      15.424817123815268      48.803750064175212      8.2162939727345687
  3199   1      57.185626975276271      7.2652948835024214      25.317743008176066
  3200   1      5.3685736273300586      21.534812069782735      2.4712343189702968
  3201   1      30.334378236184399      25.318968767891199      38.080169403758546
  3202   1      7.6692219074812273      28.945246305064025      32.323034292410249
  3203   1      4.3148456505440018      38.610942960420992      13.459088937713414
  3204   1      25.815490220023747      4.5906615937145085      38.022578012886235
  3205   1      17.197096401203414       34.18740958312025      9.4699249772697414
  3206   1      29.444936541268696      31.944314950317136      7.6359357906457266
  3207   1      40.284297285778962      53.945011833470048      13.646147114247285
  3208   1      4.3857645760537372      67.330179422317215     -14.434530244621563
  3209   1      16.791969052483481      40.067534207253146      13.543019610535726
  3210   1      52.385983885762592      36.353447590690855      23.759180517004584
  3211   1       37.00097050445045      7.6132226428948844      34.849105377863879
  3212   1      18.475488355980897      13.621361101437989      6.5692770826579618
  3213   1      51.732652109168967      21.406792431608075      36.245639623831124
  3214   1      13.669854492764383      34.725156762651771      36.672159766443194
  3215   1      13.717674460195829      18.187162043825978      9.7020008135657285
  3216   1      13.961083164117037       15.53486742009591      47.353821974364408
  3217   1      34.325714500425271     -10.602139665427433      33.313154644022994
  3218   1      16.719453905928329      40.935439057369187      20.033583297225817
  3219   1      23.961193594983047      44.046685289471085     -14.121840990612778
  3220   1      40.687480258375373     0.75739390412609164      32.277487647350107
  3221   1      47.965389680947553      13.397772213119305    -0.37397512149140377
  3222   1      16.190987944238994      23.235458382705684      44.636382724000271
  3223   1      6.3695573862701895      15.787468693762074      8.0419857072668286
  3224   1       34.60493126086093      12.839251431694429     -4.3340547205119435
  3225   1      67.643816321979543       29.74915374831286      13.433641069773545
  3226   1      14.689002272746803      2.4891729150251649      37.108138320737922
  3227   1      19.848362799469459      12.905592805909276      25.481677742051879
  3228   1      13.200346256966379      41.874662130691753      20.949052301130212
  3229   1     0.68178713939418822      40.813689416413737      26.896547017487524
  3230   1      55.525831153652753      19.365345081765554      24.771627871126888
  3231   1     -15.056532936145926      32.092836678525622     -3.2908300712794922
  3232   1      46.314789013216156      10.783680875261439      30.967632386816149
  3233   1      15.581846216474078      16.926266196712202      22.385975318026901
  3234   1      47.052209885274657      43.936614231050449      42.846561152975113
  3235   1       7.490797603582199      28.083923192950532      14.424475279280685
  3236   1      35.772757076826352      28.639658395169814     -15.726015664603569
  3237   1      6.9931730928177096      44.362289392323461      31.696119525518977
  3238   1      19.667388442654904      27.898405132598537      26.594065325078411
  3239   1      7.4593985589881093      11.967130880040546      25.811597369817008
  3240   1     0.84205929464299523      26.553102568942951      52.913021908445884
  3241   1     -8.6769682117601512      9.1469386408816042       8.678851849014686
  3242   1      19.069161126085284      -10.07545963693827      29.177105017326401
  3243   1      13.265810269409338      33.096378507109272       7.653487884818003
  3244   1      46.720106354771417     -3.9815490044403168      5.0245252362185786
  3245   1      38.984079469643909      29.092605542629023      36.008680028486026
  3246   1      60.246871096515022      40.437783385588077     -17.635897526202793
  3247   1      28.239254685536107      58.596391040482843      46.667510418837644
  3248   1      13.836393624391341       23.93581851383497      33.399040064593834
  3249   1      18.387394667614156      35.855808001480838      41.792475619317884
  3250   1      31.197317510307801      5.1867306059578038      25.907979274947564
  3251   1      42.207271897700551      34.285295732157714      31.840396873913917
  3252   1      7.8733295073677194      4.1691335584254352      21.266001578803227
  3253   1      12.207084452704086      62.526299393328827      41.574466294557773
  3254   1      37.140385507230867      55.928022460515614      54.696506758684016
  3255   1      23.434761148361119       34.45470495162283      30.018027797358581
  3256   1      35.941774307298736      34.850789275696002      39.267638213792424
  3257   1      38.788896385176123      9.2875894700375436      18.770814041618898
  3258   1       23.52322737073483      28.187375368217364        66.7416849618009
  3259   1      32.423599438881709       23.16025271630577      35.431802715259053
  3260   1      29.722779656152035      42.522126162332277     -8.7558457655575541
  3261   1     -5.7116868863644266      13.191865644166672      38.456630129183893
  3262   1      13.055357474784865     -2.5056556329162212      26.956403302027049
  3263   1       27.11681725207923      1.9851098810249952      32.091440844858475
  3264   1      37.841282965689622      40.068142639557763      21.056868277291848
  3265   1      28.656142817133237      17.182814641010808       4.890661384731537
  3266   1      13.129010545910742      6.6864516646127763      15.965448437677571
  3267   1      26.473806106448656      12.907214061634157      42.972750968126221
  3268   1      6.5092252908182076      50.282631105891106      61.511147571160102
  3269   1      44.132513270377302      55.103809763945371      19.167450776437356
  3270   1      50.911205376228359      12.509958877427666     -1.0815029504274234
  3271   1      6.4082442097502961       15.84208165706675      30.813991868416949
  3272   1      23.828105558824852      24.076950509689894      24.123259386261164
  3273   1      18.889036743261531      17.156543311714195      9.9078522717001487
  3274   1      30.243389222025744      16.392787278612357      17.578381464001879
  3275   1      23.621507891719379      4.7727862050040395      8.4010635364864861
  3276   1      31.116403671538006      26.638912888071399      26.878312677919176
  3277   1      36.737450847858774      9.2955966368036727      2.0043989967682987
  3278   1      15.973581053857226     -3.3375726313762364      17.355386106742024
  3279   1      51.476322121794986    -0.73775151975816367      19.912511747318753
  3280   1      38.869854123018477      48.920604922489474      13.352708302085613
  3281   1       13.27434743126909      48.587202705855489     -8.6132517506130277
  3282   1      11.607059347924704      30.796234804097235      46.533442243134722
  3283   1      39.107767278029414       25.88448951534189      35.399380675126693
  3284   1       54.80692997396001      28.582173377897934      36.177039039081009
  3285   1      24.941324679550657      20.223953515623432      43.689819965489683
  3286   1      20.937805813309915     -3.1024253482233561      27.382153171434478
  3287   1       32.85386641986679      20.033106453329697      21.098792039869519
  3288   1      44.596128964415648      29.327435148337379      16.881900430612497
  3289   1      5.0245054599811985      29.736404969915874      26.825889564280384
  3290   1      43.100526048476731      34.580752561839212      13.912251981380532
  3291   1      6.1055579201390282       36.05227199840985      34.141325397256452
  3292   1      31.987430875248041      40.083612618548955      30.282509123715002
  3293   1       14.20237274097475      19.094652215755392      -6.893062651163409
  3294   1      49.798817584535982      38.722862098300766       24.29284115947247
  3295   1      31.975190350583777      18.828047477584001      29.375454002835518
  3296   1       35.40732809456086       4.456653369454302      5.3140344983223571
  3297   1      11.166012348878144       8.321083227138633      6.1773114926894666
  3298   1      35.462526011813665      42.075872625774288      51.552940190632746
  3299   1      6.2718154688451451      4.6312177046839267      -4.178167300632186
  3300   1      25.132700160386843       16.80871548297991      52.160284660292682
  3301   1      32.420900536328652      43.387594419654185       11.87293369443838
  3302   1      19.653578052653899      42.161084424216455      53.287514608787532
  3303   1     -17.473039909426973      24.669685046993198      5.4211033545034955
  3304   1      39.988863650616381      40.390821735398035      44.263998362953195
  3305   1      51.889485166154799      18.650102410869653     -10.835053237676931
  3306   1     -2.9899783517239631      48.254289679589526       25.47389671218345
  3307   1      26.150954509931505      22.059894979363129      45.808912426821315
  3308   1      48.281672789640069      46.466369796699823      -5.017949683653244
  3309   1      38.295173650623653      20.527564969786521      17.800252752758031
  3310   1     -2.6694691524747425      42.281223229087601      3.2622905331572265
  3311   1      17.287439562436703      6.3707121913257767      32.346937031811152
  3312   1      18.577424812659391     -3.7400115236241347      15.287955836915442
  3313   1      55.668801453243312      28.195941509990337      53.819570580730229
  3314   1      20.802693302062075      12.328781754565913     -2.9239841783360649
  3315   1      36.708822861126315      31.295517403069528      12.760068250939318
  3316   1      4.8664890705202213      34.146458787699913      42.414665159441142
  3317   1      18.697349131267398      47.711411039713276      33.755992212056725
  3318   1      41.902977070076979      36.487752881839654     -5.0492249215755214
  3319   1      54.310674631324005      26.461798061377912     -1.4681548983054504
  3320   1      25.852919072330963      29.427644728513211      31.430663475026321
  3321   1      30.675660767715915     -14.171086053104506      11.679988897476814
  3322   1      30.511145007397726      44.346812694175654      24.733611635605403
  3323   1       43.49281674481589      54.166582141900086      34.496051027074898
  3324   1      28.032855044880449      6.4389443958723049      25.484796444774762
  3325   1      47.765821052735873       19.99740721076202     -1.3659307225187354
  3326   1      50.944576627256119      13.933498805349005      42.021441196613772
  3327   1      20.807151297252407      24.106574277433417      41.723393937625289
  3328   1    -0.69424821403142856      8.5242130152003259      41.187166870349095
  3329   1      -3.979385019808062      39.981587028987775      26.669054793473656
  3330   1      46.671384892395373      29.173017173556104      11.823858164079246
  3331   1      23.391937197231176      37.830887657191866      11.386070972068188
  3332   1      22.064927554040828      17.759096606103981      52.769315973652027
  3333   1      42.929267073276151     -2.7657253656441374      7.6755336410266741
  3334   1     -1.6430434483135341     -6.0798979750920914      21.116933383186709
  3335   1      22.579423664780258     -2.5256651912226924      -10.98000655578903
  3336   1     -20.310508528539053      22.724676543902493      39.651001377590674
  3337   1      32.891308815653133      23.430333415740431      40.108695432159195
  3338   1      49.229184194283881      16.762851390315056      16.323775410655834
  3339   1      23.860900218368435      33.198836535029933      59.205591448170473
  3340   1      20.411955819259248      45.057076345074947      34.324696556179674
  3341   1      43.205096455824595      59.712317806432715     -2.7017668713907543
  3342   1      13.240192752160221      35.576626866168553      28.063592705904838
  3343   1      18.783127225379818       26.32050295802815       52.76735289126961
  3344   1     -0.5389837755337672      8.7366045579498675      33.146137943218307
  3345   1      28.582012622491099      7.0449873388479274      32.745026447300894
  3346   1      31.185092501218868     -15.671858330442218      31.449829524650532
  3347   1      17.001120116167055      17.489397970315082      29.556751798905591
  3348   1      25.025056800296635   -0.072981744187498532      28.652000076485638
  3349   1      40.903647719569641      7.9295413673087047      16.826047734109366
  3350   1    -0.30307038991838148      38.015196175199335     -8.0971771245250928
  3351   1      14.914819310389204    -0.68928141655135922      63.383129897797701
  3352   1      40.167563598377413       42.84303823516894      33.454122122229151
  3353   1      15.224385069465233      28.567747740090681      8.0797889326192074
  3354   1     -3.1094288918009965      35.546287233015384      21.903478841423233
  3355   1      45.034872526420628      30.181511838936274      42.462920613388839
  3356   1      15.499388671257035      7.2575300497095228      53.868788470252362
  3357   1      43.798792113189116      44.041732672915224       19.43201232541432
  3358   1      3.6190335076693749      39.065004557103997     0.63246049552553585
  3359   1      26.477689047786225      53.219850447175808      54.540634164744908
  3360   1      59.229266722809314      17.965553749728606      41.997496811618916
  3361   1      24.220657926663172        55.5077153909751      5.7318481711523104
  3362   1      9.2666618492981634     -3.8259018199378199      29.090006474142498
  3363   1       16.14302466446102      28.247874468976828      37.503196847809185
  3364   1      53.524017880011783       11.36929512887934      29.432645131302007
  3365   1      4.6478279685363484      27.007111381263666      12.478074944286094
  3366   1      23.458356432879118      18.983942490289476      19.596609763117158
  3367   1      35.223094527335078      17.650677609034773      12.407785060477648
  3368   1      30.513330682569137      -2.445610756357353       11.82087962683709
  3369   1      25.492040726202017      34.939876705040881      38.305983905146029
  3370   1        62.6878566294045      4.3297513304043989      9.9047074007447975
  3371   1      19.415598190005596      51.259997836516931     -2.7726925000139717
  3372   1      23.538175260677832      6.0793527987995786      44.253959874626965
  3373   1      -1.884455963990693     -8.0953015897981455      41.889042132763485
  3374   1      1.5153150162618321      31.057503805321794      11.195138144772541
  3375   1      36.735974339182157        39.9817099192122      31.886885521396835
  3376   1        10.5629750033102        26.7329060281468      9.0712473190331568
  3377   1       19.15012192788905      22.803047197025368      10.475651693751116
  3378   1       52.30001400725174      22.114184137638105      13.232465050954863
  3379   1         -3.122897795389      34.062418915324294      10.749782260929639
  3380   1      9.5031713184964133      39.237735192429319      52.710299561262147
  3381   1      6.7750580686828386      4.4230800961697669      38.237754354074688
  3382   1      48.090152078855404      21.988714094166845      22.299127557890792
  3383   1      52.519325308562095      11.233327466759716      2.4939848762383559
  3384   1      10.808701157320622      -6.343193442235064     -5.8100718040427282
  3385   1      29.480932177813031      20.378102992930064      23.696986673182597
  3386   1      42.680145497975722        35.1585981410364      27.865344036417937
  3387   1      21.408729420970889      27.719977074185884      2.5203280333581048
  3388   1      6.5694620424956458     -13.416858041255159      38.717291777171624
  3389   1       47.86807457482027      19.385505827673999      18.113330196797868
  3390   1      18.062150131987359      40.071586567297295      45.748225660343564
  3391   1       44.02900498850606      27.306371393905632      11.936636665591786
  3392   1      21.274559854821771      26.235288329124501      21.943660493113146
  3393   1      -9.936909406774447     -18.422432660238204      3.2122882211492456
  3394   1      10.034773201648186      19.359389706734405       19.36970285633322
  3395   1     -7.5670224637738412      38.275169688452927      53.437003541076997
  3396   1       50.90685370447931      29.263794946054333      17.578634363456764
  3397   1      2.4789274275626139     -4.9865172824575916      31.642242039929165
  3398   1      8.2111294146476617      26.435313115917658      17.880059876981633
  3399   1      5.5410046968385727      32.981664379463375      15.698196671816147
  3400   1     -16.652677357895133      35.798574626276981      33.425617826632056
  3401   1      49.911269561456827        18.3660243153425      22.820917499857831
  3402   1      40.327976749565494      21.809927227023788      10.908482021846234
  3403   1      3.4513543641812801      15.934711105911306      32.112837160862341
  3404   1       25.61241490275156     -5.5694950066484203       28.11443987127268
  3405   1      23.430535269557009      35.371568037122671      46.464248839666531
  3406   1      29.542243191254155      8.9765005687474595      27.170397850055767
  3407   1      27.439632080570288      25.844834469447754     -27.271459737188149
  3408   1       27.83736348835151      37.101858595595452      14.317807372310764
  3409   1      10.264230053360764       29.26411162587813      21.544223680997018
  3410   1      33.776629424078372      19.272924250606579     -15.717262688358717
  3411   1      4.4573753086773342     -3.9765504708768553      34.371157261035123
  3412   1      33.181210772233094      45.707036953327481      36.219952610559851
  3413   1      39.013712824766181       24.55367907787528      27.763719719395901
  3414   1       26.84506201823099     -2.0126088791936945      12.153602230537908
  3415   1     -9.9069970263415854      40.232377079869018      13.552171391506278
  3416   1      22.523874896221312      21.292953655668033      24.714933976217164
  3417   1      38.226557448839998      13.418511859442903      45.275811138934337
  3418   1      14.185589138863158      21.105282553234183      30.226225637041669
  3419   1      16.890416047611517       17.01939463880511      16.666845527667498
  3420   1      19.564642122991263      33.333498320881446     -10.683358630441587
  3421   1      39.371813139346074      35.091522980417331      50.160027633116712
  3422   1      26.824378223346041      46.577571932265514       22.41381890744664
  3423   1      27.712908237036174       35.24502914276519      17.850480383265037
  3424   1      29.399199403806147      38.726687799450687      46.577619296540284
  3425   1       10.76173871551774      34.247240596658614      23.270184939529507
  3426   1      3.4284265893780748      3.3201619221009091     -12.666060807938701
  3427   1      1.4328957411999261      15.606854993901315       20.42277247518879
  3428   1      22.919560520472064      25.244830589189672      51.801358303909097
  3429   1       23.48790684672154     -11.097080308686451      37.636247871127239
  3430   1      31.909673438508474      18.281576525320723      26.145678157822864
  3431   1      4.0665379971067255      8.8267702757538302       7.132840880218394
  3432   1      53.399972422684357       41.16856282185006      41.982452355382009
  3433   1      33.630698595820036      39.510985851806716      3.1930119751965425
  3434   1      10.670861617151854      23.062712925329489      23.274462671907706
  3435   1      22.308599986043571      2.7555735530282468      43.298487302554314
  3436   1      48.197470760328116      36.929401049824961      17.320687701455189
  3437   1      34.421148335910736      38.386433496193384      39.316038527562398
  3438   1      28.972959984318958      35.814675463849682      28.343646591705077
  3439   1      40.283248156193096      37.721825703461882       19.59671506587069
  3440   1      17.196818005523344     -10.710133092803339      22.809058014810571
  3441   1      62.535604149299637      18.002534800955093     -19.835950658584881
  3442   1      25.707061953123628      26.184567206766815      34.648039770009845
  3443   1      19.032294525264604      26.870213333499819      8.5083033822428025
  3444   1      22.019531933391704      25.320847439467723      7.4282204712898725
  3445   1      43.095715937217058     -5.8028107051007858     -7.2732866029614858
  3446   1      8.7593355519029608      32.478211246015718      18.784574287988825
  3447   1      17.612352425021118      50.761163136218528      65.421589457540591
  3448   1      4.7578737206580417     -6.9774035384760342      18.711445871676645
  3449   1      33.740727786373263      39.059829170594661     -12.386119270222187
  3450   1      7.4286783167233841      28.597596919014766      20.324322190023551
  3451   1      55.089637804624196      23.222245307938472    -0.54161935028178543
  3452   1      18.023143531374245      32.626586712132827      6.2977674758064488
  3453   1      33.584567743348948      41.731848146633467     -9.4241365392684564
  3454   1      35.397002150828293       57.36547671588859      32.093800881277105
  3455   1     -2.8181343994856545     -5.7664307882342438      36.112056026076594
  3456   1      3.6941185651656645      16.951204886063326      17.906632321194063
  3457   1      45.920114496867569      30.496519674201092      3.9854855197650969
  3458   1      8.6229390383862814      20.091451604913107      13.892243368928328
  3459   1      34.452218833204221      32.233900125029102      10.626185790355212
  3460   1     -6.2428144774607111      21.861463724324981      5.4712077248336337
  3461   1      30.054049140637751      24.047294016882081      23.116924091562375
  3462   1      4.8561332005473901      54.281070356071169      50.640850939319627
  3463   1      37.350019845226591      23.582828026470686      10.621134987001096
  3464   1      16.851869964167193      23.717435777205594     0.83395023701951521
  3465   1      67.892473068992473      19.981104964100513     -15.064160976788543
  3466   1       43.24021571261941      2.2776412196511906      -2.680401565291425
  3467   1      1.1511207719522611      65.965580836030682      42.587670947669885
  3468   1      25.047359487320183    -0.75623492762126587      32.546827605802996
  3469   1      48.330098320923419      29.824868660137266      40.357524060263842
  3470   1      10.027162597375638        2.37756318101275     -3.3761961376323888
  3471   1      26.257982664592546      53.801617963994907      42.383968857451819
  3472   1    0.055701075848910514    -0.34373633030097739      12.385819038217122
  3473   1      59.694095448462633      53.235269493111112      15.051206209561069
  3474   1      27.935593492121217      43.237133960339015      3.5857373577832354
  3475   1      15.963013375913262      20.787354259296652      16.075454477820426
  3476   1      5.5687935292897386      34.008990929176484      12.317899835477093
  3477   1      20.189369690277825     -7.7362755400249492      67.382232536704791
  3478   1     0.96637299892844464      1.1637648720085538       15.28260293896323
  3479   1      43.764201330160454      13.535983162603689    0.023126013712091109
  3480   1      42.596640041472853      58.846318534538753      49.289183478616366
  3481   1      2.4171212189364626     -10.974419462808303      -11.87824744743755
  3482   1     -22.653403956105681      24.156059082306363      43.351842586488551
  3483   1      9.8365491551715678       9.119880765764476      18.786542366294299
  3484   1       21.57049603502324      10.576197052503353     0.33131360549048033
  3485   1      22.601838792073686     -2.5552647676045304    -0.82485947360218104
  3486   1      25.482091821829975      34.171523299339952      27.024321231581158
  3487   1      44.020582347311759      37.153148278382488      16.684425640102802
  3488   1      4.3719847369268212     0.43131790635373057       15.32628782225294
  3489   1      40.077715192863451      1.4452842682209568      47.315651494241209
  3490   1      9.6358947634672099      57.195653029275455      1.0808809095780874
  3491   1      5.5421631152570781      5.6417507101891378       10.54993994569592
  3492   1      14.235275765424884      42.411610790307002      36.586810733909672
  3493   1      11.436765215971231      17.873849466739891      35.378325258810015
  3494   1      25.648703562145979      43.573614429541614      50.152918577567256
  3495   1      25.649312857828487       16.63935898565947      16.108950802232883
  3496   1      27.481294626683741       9.172546340634808      37.103251036371155
  3497   1      38.027299042961069      37.563225417675113      35.080490950647956
  3498   1      23.228891200707995      7.5349114793425631      30.433037540935828
  3499   1      3.7830130342964283      70.712098229565981      55.048384852033578
  3500   1      5.3572495704792784       46.06506065098845      16.445188337391034
  3501   1      58.458299958358438      22.994343986262543      45.971736175238689
  3502   1       22.59284489933405      30.243057820004747      36.081328982294274
  3503   1      56.981267754102745      20.785449641916756     0.63577185265335301
  3504   1      34.054996764175421    -0.29064368311784039     0.72072508283587877
  3505   1      15.124097012007862      36.598329052993357      42.458465388097608
  3506   1      19.701055110279505     -5.2730638249980952      10.090568835110044
  3507   1      20.874655862023118      36.343394088924093    -0.47108215589279828
  3508   1      15.504075200983515      47.165515348156312      29.014114675359849
  3509   1      29.424131831846037      3.3108776257302774      15.435156821442533
  3510   1      31.766695516964333      40.989127131815223      45.805868090755133
  3511   1       30.07135788853796      3.9308536301439112      34.518582259198887
  3512   1      57.331951005991456      25.616107197189038      44.362804873653054
  3513   1      4.5225973726205773       25.95155377025868      5.3892429026961057
  3514   1      18.525717681335948     -8.7196418717258179      35.416358878721468
  3515   1      4.9666233255361583      33.568174211112833     -1.6396976275159378
  3516   1      26.768039306030126      11.165183550999668      40.036648607559108
  3517   1      51.392175065110301      53.607644353745208      41.642648917897873
  3518   1      35.590382108153626      4.4032812523644047      17.312571543595016
  3519   1      19.890158182177757       15.78751005981071      15.796128899588247
  3520   1      45.007815242338189      29.057822188539781      23.705499682130249
  3521   1      47.119096769500217      23.200955999428992      42.283301667953644
  3522   1        25.4007901713317      22.255661348129273      32.454031117826972
  3523   1      11.602003334145852      24.903762654534283     -4.7598174814987608
  3524   1      10.224591836509616      9.9295451771794472      37.873093785207061
  3525   1      43.355353031510354      4.5178418146995618       40.25602798620212
  3526   1      18.123774758000849      12.660659223283844      35.546285983517684
  3527   1      38.012185406249237      33.543013686809914      10.710738839027199
  3528   1      11.696505585610854      13.188507781987814       15.12413143185567
  3529   1      32.551041261623745      32.349771922963356      28.648491147574543
  3530   1      53.439544339910618      27.595952718193637      39.125741842745796
  3531   1       40.47005064591842      14.358559689305396    -0.83607498923240264
  3532   1      20.598490217597501      48.733707685147806      57.880500178126439
  3533   1     -2.2411547416976356      11.386351485758007      41.968922984337915
  3534   1     -18.169375283376585       13.72086511505413       38.60757078398661
  3535   1      35.030211043758271      45.044790434703344        43.2565920074872
  3536   1     0.67026550214528202      3.7060074442185442    -0.72034506332357051
  3537   1      9.7683199026181651       52.50983234722257      51.106391869497692
  3538   1      28.921082479643335      55.451048852644625      54.741831196517218
  3539   1      49.218046536544371     -29.428329713304354      25.906937945784719
  3540   1      13.411164039545421      26.032139306921525      5.6817990922180908
  3541   1      17.577899285247863      3.0772596205231006      30.743801417584951
  3542   1      35.299018046625648      65.113536042099071      34.651492241164725
  3543   1      6.7012222169483406      4.8183279006214477      14.479620937687683
  3544   1      21.819473162192104     -1.4107508022567625      31.973408828310767
  3545   1      28.143299889275806      29.975708003415598      2.2483732997455612
  3546   1      43.649431850856878      8.1469959315308493      29.756403070384877
  3547   1      4.5183767240322945       67.02854214335693         -4.792105049251
  3548   1      13.700821817959865      40.544112314963428     -5.0681225212295047
  3549   1    -0.30491487344838369      48.938531084543897      9.1822096272996845
  3550   1      24.852919271511343       56.31031112093342      19.457755400164174
  3551   1      13.854291273948851      21.678949262823888      38.488454854158128
  3552   1      28.428620324529003      41.480533679885482       31.57565094325134
  3553   1       10.80460234929104      35.251097964861685     -7.2561455410072702
  3554   1      53.809724862272304      46.606490986534403     -3.4953972143896541
  3555   1      26.287173371361082      13.542318898996061      14.187969756363005
  3556   1      29.759176167485368     0.24905208478321908      6.2570021690360837
  3557   1      42.335063128058877      29.345128941273799      34.852813480208958
  3558   1      19.026968652731387     -4.6149566392765555      20.090075764504689
  3559   1      51.797149051670118     -1.8118879708366784      28.048112186882285
  3560   1       6.713397613031745     0.69643598724648725      44.520850442382518
  3561   1      13.344432097275082        31.0435956026875      16.638622355147355
  3562   1      8.0845253820341014     -2.3135853554729007     -4.8120179161383367
  3563   1      35.640459216732687      62.802710918744808      12.393497193671648
  3564   1     -11.646118854900461      27.514173515976559      13.877605818211808
  3565   1       12.19209818823977      15.630782773992252      8.1573045624806007
  3566   1      33.463222369941782       22.10615136993658      14.393437275540933
  3567   1      4.5816464347352754      3.1142934617323408      23.603456421076082
  3568   1      41.697951818185494      5.6929695345004685      52.477238938969727
  3569   1      7.8093480430416617      8.9032585377143878      65.114877460289534
  3570   1      22.267416171967461      19.882211455547733      59.803393634623191
  3571   1      44.793791152855803      22.197541068630198      31.650780131129906
  3572   1       14.83459096561265      18.767876590948667      19.086124861254412
  3573   1     -4.1572702157095023      20.322280263784705       48.63887148973344
  3574   1      58.937907568362839          10.96010029801      34.608968919713057
  3575   1      27.824244398355194      23.178244152817797      16.163308752024616
  3576   1      8.5421052620782714      21.352478736218789      10.872637429106986
  3577   1     -1.4149548492566111      52.638534754618952      9.9593307561326636
  3578   1      22.278134050640499     -4.1038642394874794      16.891751517278326
  3579   1      53.208005110016195      20.091577231975727       40.63697346519033
  3580   1      5.0267018078876511      53.776203516380832      18.911684761909505
  3581   1      24.131349422212814      31.314440952858231      28.523313144164735
  3582   1      21.984370588485966      26.753809239055297      38.501952519877356
  3583   1      30.043401064945499       38.33927989158785      53.094733272727524
  3584   1      44.610537248407375      32.427392526378071      32.824397341770997
  3585   1      25.950949323200188      31.628829198162538      20.476768426171763
  3586   1     -2.3196817084317733       44.96783177293073      46.066209960925697
  3587   1      3.8919825846801244      28.040076520985842     -19.229396360447499
  3588   1      39.061323335175807      21.088397044133821     -9.3467737941967926
  3589   1      11.647554394436204      20.513842351027446      12.720973948522877
  3590   1      21.781663668028731       15.08398192043011      0.4518280029417257
  3591   1      37.115074391183015      43.135245406148975      31.768984129940428
  3592   1      41.877853840876952      21.881770802127633      28.821766023011961
  3593   1     -1.8710370271699408      12.836060733848328     -3.5614189460706429
  3594   1      41.860634469695412      6.1992216555040436      9.9643257727010912
  3595   1      20.651400318508824      10.691091801466907       4.312100688547897
  3596   1      23.171809503941184      18.011343316363746      -15.92165688830976
  3597   1      16.898882078758756      22.189254318548187       39.98789880002856
  3598   1     0.98764341110188325      43.914945841959835      37.236554405312255
  3599   1      31.842543179330523     -2.8394917509514936     -2.5711003198871332
  3600   1      27.699041262990416       20.33838035509936      9.9018419506096915
  3601   1      32.904933584606191      11.998785390988463      16.137835226317538
  3602   1      8.0907586087223162      22.246529024632157      52.419225671118923
  3603   1      19.556051626811843      46.309912277245175       51.90258201781802
  3604   1      47.759147345009943      55.406951381937688      60.809506748054879
  3605   1      12.918823434123702      1.2015275161276981      46.300695179270498
  3606   1     -21.149991433954227      35.625085123621389      11.268894073471182
  3607   1      39.502052323278576      24.294306720121476     -10.330030750848545
  3608   1       34.96217489982137      15.513044969078454      22.612098720186619
  3609   1       22.82229197681924      16.257610222070198     -8.5771171235163717
  3610   1     -3.7723794897361835      5.4309820594180866      31.726539858814412
  3611   1       15.02007726082025      34.079110937331862      17.915070385476842
  3612   1       31.09157371974085     -9.4950604098826599       34.26258311152715
  3613   1      41.114645646139095      31.132310909060628      18.720246743620667
  3614   1      35.342753773195057      49.080208980699531      13.661096656254001
  3615   1     -1.3272680245595367      48.233909948020326      28.860266475516166
  3616   1      19.857022741670569      5.5414978901172427      30.525101836200179
  3617   1      33.159070319678513      23.345548124748305      21.404153039594068
  3618   1      33.724325729124537      52.009369892175869      47.751250931410482
  3619   1      35.765059154705476      33.564875442121163       4.735473726133832
  3620   1      20.918080616170709      10.175329868843486      23.179597944490524
  3621   1      29.430362405140563      26.340302143202337      9.1417780194360336
  3622   1      42.157774943885542      55.514248790617074      -6.616662130740079
  3623   1      33.779114276910768      4.0099985137147218      11.045296859565912
  3624   1      16.727395427141484      35.120454607060026      34.523795569399226
  3625   1        27.1362933001069     -17.233778176159866      24.731407133055278
  3626   1      53.713636492595725      50.355791263150763      54.209460434345722
  3627   1      11.038841150089716      16.818614157049204       39.01710025015781
  3628   1      11.594211529924163      47.978910569299792      16.942182870319602
  3629   1      10.071996448761402      19.029596425398143      4.0659150385875114
  3630   1     -41.688913911871317       41.80228947657362      49.705146197395173
  3631   1      21.850547343350271      27.221428292865628      42.226453603135916
  3632   1       16.26447170633023      26.205244204385718      33.617289341697592
  3633   1      35.276658040039464      14.966299663761795      17.689815621810677
  3634   1      31.679747308625959      8.3314531229557556      32.947331193702894
  3635   1      13.501521534136259      22.860713274208216      6.2090297494501305
  3636   1      17.780475943244443      4.6878080814877086      27.826364783346548
  3637   1      54.954117160037789      45.626414117592105      41.173881515403501
  3638   1       27.52470476025676      38.618972088071153      6.4245915579695083
  3639   1      55.359373017071981      23.706185738287697      58.792565677477945
  3640   1     -9.0732949025995673      11.424596072482423      23.675387320493144
  3641   1     -3.2434364922193373      18.418862170472895      3.7829319860882649
  3642   1      14.310293344115033      38.458893924080989      29.126540081628121
  3643   1      29.006878791726788      23.433601321148071      51.964186549988924
  3644   1      20.822300712818986       33.21445490239887      58.055598581509351
  3645   1      35.383455512766126      19.945746022689637      -4.477351560990332
  3646   1      31.765935204468526      45.408884106709579      40.201127302061145
  3647   1      33.036148050373896      37.703601379502167      20.785857403868842
  3648   1      30.360783031154259      46.770469251734397      21.115801073569692
  3649   1      55.748970725322629      3.7959189535488616     -13.918990187031381
  3650   1      25.855441308062453     -2.5117330397579747      6.2476223501495793
  3651   1      34.550144339248639      31.373310306443134       36.18507559334266
  3652   1       37.10545534952508      24.717195315442954      41.389826265121208
  3653   1     -15.208910495700179      1.9088063019795021      34.116582501214495
  3654   1      18.353648612097338      24.937994248890597       21.15960369573002
  3655   1      19.487415495086147      20.322468543962643      8.4769891924132725
  3656   1     0.70910539694688091      16.284695531057363      4.2310109803071194
  3657   1      47.776211296113978      -2.908883103417641      32.657634738832172
  3658   1      31.449169751094317     -5.8161984723309494      32.761032834954051
  3659   1      35.520227849748991      23.934931250486606      38.205594121331998
  3660   1      45.431627814746548     -5.4129360004926026      56.583647169317331
  3661   1      9.7467881951085111      8.0659104118568408      30.955442431845498
  3662   1      38.271751987140348       35.72303121243764      22.606261875498291
  3663   1      37.499672940789871      64.842992940770273      10.860292288751241
  3664   1      1.7083663687149113      23.302459741933731      51.714953764713954
  3665   1      29.939910357443644      9.8570352112885065       4.215806159313404
  3666   1      22.085830777467315      35.195337908169698      26.588233410756583
  3667   1     -2.4364993002549737      14.308204173521952      37.326018174659211
  3668   1      24.391180240444442      42.935369643346533      37.611239449855269
  3669   1      47.914609851732372       36.97946508360787      13.145944309860274
  3670   1      54.680091266275944      67.727595667147639      47.339502544847193
  3671   1      30.770585270073767      40.761239550234315      6.1442643472593375
  3672   1      28.448507176387963      20.289792583468955     -11.701910938217813
  3673   1      31.963459137749155      21.769909500894524      32.099401127256307
  3674   1       25.95228572736449       37.13413325738378      52.718836652933867
  3675   1      57.582043205267766      17.204839866443862      49.481674043862753
  3676   1      20.734725010668985      19.017024499270629      31.079006263054222
  3677   1      31.357162291813843      24.694883876337485      30.176646393265678
  3678   1      13.456527805377887      9.6606131345904505       49.55299198918177
  3679   1      12.633957531428512      30.565141539317843      25.038511266107719
  3680   1      40.866263396410481      64.380835493050824     -5.7695315257968929
  3681   1      40.793789945167831      12.362423389278236     -4.9662423538914036
  3682   1      41.903461532793273      27.227546960430708      14.380119323963205
  3683   1      21.253076293713455       39.94118703529675      43.265607869843862
  3684   1      45.069254608028011      15.552484802100864       62.85768026701323
  3685   1       20.58537164279954     -12.137915964625188      44.455390236271064
  3686   1      4.0462944941384711       18.13815667751539      26.988651761794952
  3687   1      40.468725700313747      20.999872391665512      47.410389062194959
  3688   1    -0.73878546309597093      2.5137054592668244       35.77875684640572
  3689   1      50.366360356474736        44.8042040136719      -2.294253191071268
  3690   1      48.967685051991793      42.109452393687782      13.431024235638201
  3691   1      42.349309320705849      26.683045155054465       18.06009286480046
  3692   1     -2.6816752558614896      8.6299632902612373     0.53513043487796319
  3693   1      12.636597972256702     -5.4317189765045217      28.661928116468044
  3694   1      25.023790148270695      28.526099687150424      42.182794416757559
  3695   1      41.067951324077875      8.8871260475632035      39.317619655516289
  3696   1      32.493463454610513      26.540512491500198       22.93721942552056
  3697   1      13.666009235571915      27.451968207502386       16.52632669116867
  3698   1      53.047584449114169      23.018356586841119     -9.6047063386842915
  3699   1      38.435018551460779      44.637361047605204      22.651159001935351
  3700   1     -6.1568753048468814     -20.257068769966374     -1.0267433090005036
  3701   1      23.751084441504172       41.18209108892124       15.30073503491103
  3702   1     -1.9592677635894888      20.461376401794329      8.9359863189573456
  3703   1      34.506144095652239      26.927699711231842      44.628445818149856
  3704   1      29.895041767119551      28.911467571773674      6.0740252049979295
  3705   1      25.493392360876072      40.396591773055491      30.193904067245331
  3706   1      24.415459918298353      7.1044672170698888      47.798989462237181
  3707   1      1.5868797216654418      4.1326597281612951      16.360034176056519
  3708   1      6.8352796740852142     -1.7150817580415962      30.109703760823514
  3709   1      3.4074109110978164      2.7956171908785685       13.47853503268613
  3710   1      35.185003296418287      32.801775425039189      25.404443042246999
  3711   1      34.874723983785174      39.384665806931991      11.672788144079297
  3712   1      17.780325449258921      11.166524903831458      31.910847843081974
  3713   1       50.25511551642424      22.362422534079723      29.153641825271162
  3714   1        64.7683185819036      26.691834971691495      11.284114553688628
  3715   1      26.745974884568977      15.911282641581227      28.435294648722451
  3716   1      16.944657385399935      3.3180263346002201      9.0199161869107414
  3717   1      44.601787659568785       12.57923836185712      20.827688053293851
  3718   1      -12.18784342080942      32.854348422176855      28.793227803063203
  3719   1      15.202492590113463       38.98872051520258      16.205530153159483
  3720   1      44.445264951243097      36.852676162113511     -2.5866668507415183
  3721   1     -22.259186315557262      25.785510141874255      26.836190730078812
  3722   1      18.785885037192664       22.71238179540028      16.682867418902113
  3723   1      12.376170440381593      56.543617608185535      46.481158577593959
  3724   1       52.27592507478932      10.520051480647483      41.755701376659275
  3725   1      10.282096386587003      30.579250863631078      15.286732890390663
  3726   1      41.987009088490062      58.352634844222287      19.651265503422984
  3727   1       35.08173719676747      61.643420852559082      37.067329920110872
  3728   1     -1.5910573672535102      37.239918979743265      37.008598293400603
  3729   1       36.22432994747215      62.035349657025023      20.310988105083986
  3730   1      53.397644464554368      6.6320690486407221      16.137870292088191
  3731   1      3.3773572613728873      43.230696281436735      21.559175595818406
  3732   1      13.244505173205297      41.442446677759335      39.480579225991576
  3733   1      43.816051170211409      19.411389835001152      9.8974924900735122
  3734   1      20.225397394511784      7.9007809449255149      14.041307600001344
  3735   1      8.9844194995294284      33.573758440284664      15.541448327232597
  3736   1      16.728275326748768      4.9259628488338505     -8.6260020362069127
  3737   1      15.690849658032933      36.470650379028932      19.557646451469967
  3738   1      1.9008322451587136      21.457482870022929    -0.96936223529700216
  3739   1      14.865843248906874      24.272778155963923      3.2937056308743058
  3740   1      9.8696877667361669      28.796348050902552      5.7862773197364845
  3741   1       19.60554443699797       8.693414878311243      -14.43099730254697
  3742   1      26.427593927501643     -18.722721398416748      34.497814034642403
  3743   1      34.699237061035888      30.709884570762149      22.302047883633886
  3744   1      28.468007709490397      24.525501398546218      48.668215359695331
  3745   1       43.93095861914658      12.781179135428587      10.791748872681707
  3746   1      34.208742627871125      42.477935784593178      29.363107321046858
  3747   1      2.0045199571148777      8.5650474069391187      23.780286334979856
  3748   1      15.305951520097292      3.7333501860211755     -1.5118504887267705
  3749   1      54.006246915211939      8.9450922963961386    -0.80094803194452846
  3750   1      55.201353209006996       36.80906420919014      26.376592027730105
  3751   1      60.136158449320114      16.891523548104171      11.984067800540686
  3752   1      10.072453838577671      21.634626912338572      7.7016476700201792
  3753   1      38.428680257120888      46.856561318696343       25.82080633806024
  3754   1      35.092193537466088      1.0963703770663855       25.37102254244332
  3755   1      41.618634942506901        27.3407308119363      37.570311999043007
  3756   1      36.950788157680549      47.093374526892703      19.823047739986468
  3757   1      36.426250216491567       18.40222911619805      16.191217018369993
  3758   1      14.882696034754789       34.06392905440277      -1.794958932754273
  3759   1       5.045644051586291      18.891339984098227      31.077760794587729
  3760   1      36.984721226535811      26.126527390148802      23.898104730357129
  3761   1     -8.4985723715527453     -11.383548587654129      16.480468687682421
  3762   1      47.404045493575993      29.768261504204521      18.580135520378569
  3763   1      43.335592308750748      37.695409279940343      20.010829644349549
  3764   1      53.973050171941871      37.211075368222346       10.53816118051385
  3765   1      31.050796628027939      35.517519885428811       14.75844799637515
  3766   1      33.545279184440055      24.192535811990211      12.140877387227748
  3767   1      67.445694416600503       49.44241771096145      25.373629077126701
  3768   1      42.990170303755477      13.376593737716389     -15.986696763993411
  3769   1      53.217156449387268      15.135063094005289      37.701669493485106
  3770   1      19.381071627260713      24.979381901219458      38.443319766310431
  3771   1      41.774758160009924      32.026733866232895      12.010850698044324
  3772   1      17.659512114369527      15.916118279759569      37.338409321988252
  3773   1      17.954304950240061      14.027675514726944      28.057781275453884
  3774   1       8.399500774129578      34.853918113064758      43.943206447665794
  3775   1      33.058680075934269      14.373766820763144    -0.82619885907025248
  3776   1      35.661737236277979      28.339692258758625      16.764247138367288
  3777   1       26.39299997430501      33.509285723091921      4.8317518641132304
  3778   1       17.02836757519421      15.581416677320581      3.1240692013105442
  3779   1      36.682950016329684      23.598467060967948     -13.910113652040382
  3780   1      15.778600653663824      48.110243685447372      20.203720327573262
  3781   1      21.671252058968459      44.935265354317707      55.930267039344024
  3782   1      4.6629849825871288    -0.68684769633928089      2.8608839699883588
  3783   1      26.675162592914905      9.1698257631745168      54.189957465872276
  3784   1      37.279783938236918      7.1860609748387194      23.797492039608191
  3785   1     -14.206058221990341      66.236474364456171      9.3086273577061931
  3786   1      45.500290355942177       70.23275214087414      19.531837692866716
  3787   1      -4.399939839770262      37.677998308570679      12.755469576176216
  3788   1      9.2727516591764481      42.326459804972473      55.382589993688171
  3789   1      20.741018295047216      23.382917862655816      13.727741606062288
  3790   1      15.234574814935073      5.5305023895644521      29.845309692882946
  3791   1      33.760599752748924      -1.324627566179553       7.052507874581357
  3792   1      20.120193225135328      3.3709600187050985      11.330203964471915
  3793   1     -3.2195542563920099      47.149702282087681      20.893472900145643
  3794   1      55.461482333889016      12.170363541383738      19.236680582811221
  3795   1       33.01156888859218      15.963743817578058     -10.184675036779264
  3796   1      53.045955740104603      25.669684201030709      34.329083749273664
  3797   1      9.0197379191314617      38.421325147419026      7.5292764880997192
  3798   1      25.424811503052354      48.029700996053244      50.385417427635453
  3799   1      5.9403726858439851      9.7336554099389119      44.004605091508502
  3800   1      31.621699983926508     -1.4880364430833912      17.015520762434928
  3801   1      46.789439071761976      6.1666857853384744      28.669896817123281
  3802   1      51.131626787661617      57.162518394540768     -4.4759416358075299
  3803   1     -3.7476960443219887      11.032177712355704      13.254628971790755
  3804   1      14.265008498169703      25.543255087270829      27.509175306913193
  3805   1       17.17324593763346      14.369328516444224       11.00234733637941
  3806   1      39.922971204806501      28.198547427391322      33.043966068883542
  3807   1      39.104229116771869      18.424485275979542      21.273047911649357
  3808   1      10.634869940273605    -0.39249162355193962      20.276263270504806
  3809   1      32.742903498728865      7.1951770379933251      10.832590923574326
  3810   1      8.5011334684590398      31.910546464558813       46.65362454132611
  3811   1      2.9014234251082156      4.2149336455473838      28.657499434922677
  3812   1      11.831756952991533       40.88830512445859      18.056807883247011
  3813   1      33.046514915001588      17.827242768497381      42.144528819992473
  3814   1      17.348047694864803      28.596882190436819      71.055208919022675
  3815   1     -17.321912001061602      19.837054063611212      44.358616664714944
  3816   1      21.569604199817416     -2.6752692671550893      12.413157419765543
  3817   1       48.39305064576903      33.896943678767286      12.349244026972531
  3818   1       7.374626856747331      3.0020299577301759      17.325238831105441
  3819   1      17.686479654092476      20.895147796224638      53.012470660303954
  3820   1      58.960139182671711      10.105204834531381      26.212976543077602
  3821   1      42.647444460961317      35.290321505224298      24.640263924277114
  3822   1      6.7644063826632577     -9.8563918556285142      2.5579625117475184
  3823   1      44.945957589013716      21.020798279693135      41.163015654903823
  3824   1         42.095856520995      10.851574750211979      36.161387093652245
  3825   1      40.970122091675634       15.73374664573592      33.525603277203125
  3826   1      13.761728003345276      28.429226427876909     0.12534141768306428
  3827   1     -9.0677438764017726      33.274088651705277      24.689766176274436
  3828   1     -3.5479602208061172      53.489597456350516      24.880650492697306
  3829   1      30.542911544241239       52.10902986416658    -0.21550310295567193
  3830   1       24.66178246134152      14.916023626943987      35.085006115204486
  3831   1      22.677306644833585      38.284921521725302      56.723850599449939
  3832   1      36.870797273534194      43.396351436122579      19.961748018676595
  3833   1      28.300468044552321      9.6795859333063081      21.568981414710549
  3834   1      20.498814481689138       38.80703528614999      3.6808888709037877
  3835   1      1.2346292339195577       56.28740837807166      6.5632652608621234
  3836   1      47.292243198789969      42.849178044675071       30.86570217507315
  3837   1      26.090907033997553      41.674590229355559      12.109380098557192
  3838   1      50.913582398773407      29.337188995921942      24.115454058181413
  3839   1      39.412763062520852     -4.1306641488331488     -41.862188530577342
  3840   1      69.110811019640124      17.905923706812082     0.78422474311303925
  3841   1      30.717237074361581      52.224659520797751      30.795922680311069
  3842   1      54.698404249703479      20.811500714688187      37.592036029277757
  3843   1      20.555616112916447      16.445704978713252      -2.451015561952905
  3844   1      0.7918129149841594      9.9865319961212897      50.424337344941236
  3845   1      26.346482591983353      8.1252782181761507     -19.144027671043535
  3846   1      23.577610195734895     -2.9692815148226019      52.516684270217084
  3847   1      33.135570544741405     -4.5771969230571781      22.696285627858295
  3848   1      7.5640204086863205      67.443083812156203      16.952884388041532
  3849   1      46.384649314987662      40.412907390073755      14.424621765129922
  3850   1      16.242143950599168      17.618093135860825      13.416695660401903
  3851   1      37.572147567602357      29.365283575367904      8.9586431494940619
  3852   1     -1.7158968843664033      5.8477498890101201      2.0654708273537117
  3853   1      16.057555540699653      17.511115856795268      25.682449407171404
  3854   1      24.715591636610657      34.423168749185585      18.734252598736624
  3855   1     -10.235607337604204      14.680381719964322      23.291420323013554
  3856   1       10.71427748366467       46.36023150336711      52.105022791180915
  3857   1      10.111130714066158      14.252265638412958      24.798531199430098
  3858   1      4.6393543096804146       21.69179530994807      17.263204402963613
  3859   1      31.705229511100995      39.215134835546294      40.830481383003438
  3860   1      40.549476706897082      6.3877114695808963      35.395819125004628
  3861   1      15.057992226714877      36.382394508670131      56.335716074135526
  3862   1      9.0186777625839856      28.687134754061148     -1.7251560620772195
  3863   1      29.145858954760651       23.04804085317879       7.391738778007924
  3864   1      7.6249814555093147      -3.233118949742277     -1.6309119408720947
  3865   1      60.336045004107774      14.038421644557017      2.3720871861831139
  3866   1      24.484634454236517      38.079383721239878       41.56658630388975
  3867   1      34.294603742707601      30.896740442773776      15.193948565218577
  3868   1      10.618066979892772      24.261677471640013      17.986187190278326
  3869   1      16.855015402952706      5.2203117891713839      36.784907107856874
  3870   1      25.237739183375922      50.870836697960392      41.891413323886738
  3871   1      31.546160690219654      37.370398759445656      48.789990214638827
  3872   1      62.270207839318836      16.534061876597089      43.937705403474688
  3873   1      5.9677116220571085      8.9683630192855475      31.594942251678479
  3874   1      28.433926256608189      38.866589488812266      26.836728368668968
  3875   1      26.928522866643597      26.013642327821277      30.884609879446703
  3876   1      7.5202256268384149      18.072762506790667      33.216038669738907
  3877   1      21.313292714623724      15.064000568191121      20.977814704147157
  3878   1      40.955104099158426      17.186672746367144     0.52118221837276557
  3879   1       28.54409394285031       28.60924167974159      27.785825925251963
  3880   1      44.073347496665733      12.913690343152453      24.817002555869507
  3881   1       11.14173335827363      44.538769927506969      35.805140074343008
  3882   1      9.0723232266311502      5.0378772409621675      32.304286991364918
  3883   1     -1.7247074193202412      48.904059134517937      4.8280281736302415
  3884   1      32.574858201118055      43.698533244924818      17.657348818819031
  3885   1      53.506970079167701       12.57973295126572      9.5027109233982401
  3886   1      3.0857108269975675      1.0550038931000929     -18.637110904522938
  3887   1      33.006657901675617      51.402196310226493      15.826876748641538
  3888   1     -18.884644308262317      39.618817748263147      37.484043462123402
  3889   1      10.803187089267212      20.045870847414985      39.389695226518668
  3890   1      22.857203073265978      38.265464162923386      34.664885200680999
  3891   1       55.55153631828275      23.754101980856277      30.713672486939924
  3892   1      9.2761377556581692      43.160233649419325      19.408347131968977
  3893   1      14.232541324297038      36.299923971123668      14.545074353692371
  3894   1      15.361242798759219      37.131323308271426     -2.8752458141139705
  3895   1      48.243234081156466      22.640482100363457      31.891204463021257
  3896   1      37.586212961307758      39.498945364036757      38.431834978169505
  3897   1      34.086615705102865      36.158103153029032      5.9389068440611208
  3898   1       10.79721151913528     -6.6629076082890526      23.924130546561212
  3899   1       7.977694969422334      1.5953604636552676      29.329629444604034
  3900   1      16.892009156948319      42.789000875039456     -1.5631458134048348
  3901   1      36.452620523506198      14.679793313509956      41.204497887379944
  3902   1      8.2937522917647275      37.745712001613505      11.959958069456961
  3903   1      25.119151949918098      52.044514144961504      44.962862697779165
  3904   1      39.419273393057551      17.669872112745736      16.962742621953947
  3905   1      43.351585297466038       21.93550415151616      25.100162497167421
  3906   1      30.840688821319858      43.896694050074359   -0.091350552263063656
  3907   1      37.043803236089765      6.3348280592777311      62.617582344884902
  3908   1       64.63286871003433     -1.2086768174298141      24.691459295636829
  3909   1      41.918115636667608      16.954860216770971      24.776889375829196
  3910   1     -1.8442118706430568     -5.2913311765353095      27.581027295379595
  3911   1      43.262283637066965      39.010441335990727      23.653838914185314
  3912   1      18.658367287631044      35.877032071590854      27.269543119141606
  3913   1     -2.7482072082893945     -3.9166631695979026      38.830112163861806
  3914   1      10.955025674470804      27.232844569372524      15.082420820312894
  3915   1      36.834313320063565      18.902946230534788      24.937219755630927
  3916   1    -0.63654346194613931      39.552610367363975      30.201263733715216
  3917   1      47.771852071560744      28.761704818441647     -1.7485433857062465
  3918   1      7.4083439830390709      7.6284384726871926      37.688035365251039
  3919   1      5.4407821590697978       40.02047776839882      33.883401261294509
  3920   1       16.23385446523497      39.571401152642991      55.852133599420739
  3921   1      35.445745874395058      16.010567946380778      26.189153963673814
  3922   1      46.625524653553484      9.3601977431438588      16.208285153516929
  3923   1       3.660558297779958       18.63759792695511      15.266365989903017
  3924   1     0.26345379632426097     -6.7904979625532498       45.35357882219035
  3925   1      24.414299249335237        51.1610281796777      2.9819876538407044
  3926   1       32.06453405981523      8.3734713468260527     -24.491436284210693
  3927   1     -11.734183770451155      22.045581814129459      7.6083305963948877
  3928   1     -2.8593392038803764      14.261006099492034       17.02662985270079
  3929   1      25.990568026614909      9.5077680364667856     0.58107057152222796
  3930   1      30.223597747650267      9.0658686837212041      1.0424275395176033
  3931   1       23.04629417767346       60.52206610982909       12.50364679973908
  3932   1      50.722032229664791      20.572233744944068      -16.60219298815413
  3933   1      2.5695211387576644      46.343357592565887       11.82939237742557
  3934   1      42.449012435377881      18.752306433542312      33.946977449518783
  3935   1     -1.1763680068213807      16.240845321370394      26.460689411154352
  3936   1      6.0783554437162497      9.1280658069180003      53.472749017888809
  3937   1      18.698399236881063      26.806639760716678      41.970331441606653
  3938   1      14.296823777079629     -4.3302071402684179      39.991564263491931
  3939   1      11.566573736735254      12.717919807700486      37.067217088431661
  3940   1     -2.8823082915098652      23.273627497662233      13.050902472993002
  3941   1      -10.58618722918149      56.366863668190881      40.601645097953238
  3942   1      4.4692162719361921      43.152239977482068      12.763301280248038
  3943   1       27.45095749149052      32.077890311310853      28.731573994605974
  3944   1      48.572940536131952      38.193448021516595      21.164604712121825
  3945   1      6.5810108580146958      13.446743382065883      5.7385394164042429
  3946   1      13.165580240778352      39.315972812602972      34.490735231217663
  3947   1      38.644632825907316      40.183262165158489      6.5344954341057147
  3948   1      33.194230383597933      12.971175542956219      25.114881732326165
  3949   1      56.849127418918265      27.880591103296098       38.71204712579037
  3950   1     -3.3178511973732387      34.267452510741791      42.634473205727922
  3951   1      50.141283652803807       6.791733875188287       27.21088047893895
  3952   1    -0.55085855452370902      45.205397089042506      14.821607900872916
  3953   1    -0.83630829396174378       65.21220674610008      1.4287895338317431
  3954   1      36.379718104938782      37.030825339428141      19.352216452901214
  3955   1      1.2643198783855039       8.008606142478305      10.328529213199179
  3956   1      11.122605888494704      32.369947974305191      27.360195339212598
  3957   1      8.2702018501087231      27.358414490232612      23.411039310523158
  3958   1     0.67938638508614846      45.023231562699827      19.385275204545025
  3959   1      38.337377926839864      23.889473880275542      32.113626147647949
  3960   1      20.714744587481068      2.2917920389316246      29.038175796287195
  3961   1      34.486214609534464      45.466809208599059      50.801604809336474
  3962   1      12.887525686790561      -18.55217600010339      9.9549448403071423
  3963   1     -4.8750988157608335       38.82059712089368      41.486366202015518
  3964   1     -19.609161063398847      1.0324046431898182      21.376961672712689
  3965   1      51.834712497340689      9.9932182460024208      26.391526531875574
  3966   1      31.038099571158394     0.40471322657152103      9.6546984861019407
  3967   1      21.880069292048596      13.486997069940331      28.281994727560047
  3968   1      32.794981898504794      49.147973043294783       21.54088624491721
  3969   1      25.629583905784308      13.684506240484495      17.819568551559435
  3970   1      30.083895865059546      36.773949712202693      8.7238885377570128
  3971   1      10.376798425379542      34.323763945211766      35.590729852432084
  3972   1      11.276322091784815     -3.9294024004342596      10.100493865796508
  3973   1      17.913715278849899      37.273045147981925      38.622935962598298
  3974   1     -3.5147650591926403      32.407535444435325      22.330949017929896
  3975   1     -3.0173227061081045      36.594373315355355      39.701115241434863
  3976   1      17.450395812488722      40.250744912705706      51.915573625799603
  3977   1      45.390726216072117      36.786642620524184      28.695012616925457
  3978   1       39.11539346362094      8.1215989991231083      27.055845568402077
  3979   1     -17.260960453740054      16.203285381050787      22.791811586832004
  3980   1      25.836236316088826      18.522157211087052      30.576784995161781
  3981   1      33.373080050388829      20.252454737527898       47.80030630892464
  3982   1      27.151933021091295      36.175289896481544      45.730349548719396
  3983   1        35.0023588140293      39.646563202291908      28.826706520620981
  3984   1      39.339494675922289      11.295967446048861      49.788091105899753
  3985   1      12.240680726959475      21.986425066898878      3.1948990350528903
  3986   1     0.57392416458683915      42.736508315207764       2.715800008628368
  3987   1      12.625924317552386      29.760749797702491      2.9227137805261956
  3988   1      21.327216064586974      31.544802131173341      2.2435896694979038
  3989   1       42.32485461276157      33.997361435151561      1.1313943436258429
  3990   1      15.808287981550407      21.077705821873316      23.002024426454344
  3991   1      28.594804563923724       27.15945972884818      24.620566324652302
  3992   1      13.172172072007385      42.596470453361277      11.657045679420087
  3993   1      52.778001436113925     0.35858025382273917      40.184785410584084
  3994   1       36.94526572256229      33.728994061963057      33.411687757374864
  3995   1      26.594040881528784     -16.579435434797642      17.210738688636393
  3996   1      18.667880490844386      48.552100298157193      53.939876247543225
  3997   1      21.691664585492024       40.97771571219328      46.972493241414377
  3998   1      32.610349080453794      1.5749304000928877      41.058355615899174
  3999   1      31.165012421239496      18.441735061828759      13.423873788636476
  4000   1      21.154939851513664      7.0684106488459646      26.892746890876143
  4001   1     -23.225609695812089      51.501499483485205      22.529553302915559
  4002   1     -17.605315079131529      53.186052930178704      39.957887834927689
  4003   1      10.114043807652664      24.922069089511101      32.809583210636553
  4004   1      52.474198382158029      16.554031900380913     -7.9087618463350626
